##TITLE=Acetophenone, 4'-nitro-
##JCAMP-DX=4.24
##DATA TYPE=UV/VIS SPECTRUM
##ORIGIN=INSTITUTE OF ENERGY PROBLEMS OF CHEMICAL PHYSICS, RAS
##OWNER=INEP CP RAS, NIST OSRD
Collection (C) 2007 copyright by the U.S. Secretary of Commerce
on behalf of the United States of America. All rights reserved.
##CAS REGISTRY NO=100-19-6
##MOLFORM=C8H7NO3
##MP=81.8
##BP=165(5)
##SOURCE REFERENCE=RAS UV No. 954
##$NIST SQUIB=1953GRA865-872
##$NIST SOURCE=TSGMTE
##SPECTROMETER/DATA SYSTEM=n.i.g.
##XUNITS=Wavelength (nm)
##YUNITS=Logarithm epsilon
##XFACTOR=1.000000
##YFACTOR=1.000000
##FIRSTX=390.2733
##LASTX=219.5702
##FIRSTY=1.22276
##MAXX=390.273
##MINX=219.57
##MAXY=3.82717
##MINY=1.22276
##NPOINTS=188
##$REF AUTHOR=Grammaticakis, P.
##$REF TITLE=Contribution a l'etude de l'absorption dans l'U.-V. moyen et le visible des composes carbonyles aromatiques et de leurs derives. (2^e memoire)
##$REF JOURNAL=Bull. Soc. Chim. Fr.
##$REF VOLUME=20
##$REF PAGE=865-872
##$REF DATE=1953
##XYPOINTS=(XY..XY)
390.2733,1.222763
389.7924,1.243472
389.2950,1.258563
389.0799,1.273524
386.8577,1.335456
386.2714,1.355940
385.6691,1.376427
385.0597,1.396917
383.0714,1.452293
382.2986,1.472281
381.5111,1.492090
380.7181,1.511809
378.7713,1.565145
378.3984,1.575795
378.0175,1.586355
377.6200,1.596738
375.6956,1.643549
375.1643,1.654361
374.5766,1.665908
373.7850,1.686282
372.2873,1.716305
371.5093,1.730453
370.7777,1.746044
369.6467,1.767323
367.5890,1.790917
365.9906,1.821072
364.2496,1.847263
362.2741,1.874224
358.3397,1.919375
356.8795,1.938792
355.4235,1.958119
353.9640,1.977268
353.9640,1.977268
352.9271,1.981595
352.1813,1.988137
351.7402,1.998885
349.5138,2.022547
348.3415,2.032027
347.1697,2.041327
345.9912,2.050539
341.0853,2.102472
340.1236,2.109882
339.1671,2.117111
338.2158,2.124249
334.2867,2.156447
333.0048,2.166076
331.7261,2.175615
330.4438,2.184975
326.7278,2.223693
325.7041,2.233989
324.6802,2.244104
323.6501,2.254132
320.7898,2.305340
320.3293,2.316848
319.8638,2.328267
319.3872,2.339508
316.6205,2.409884
315.9476,2.436884
315.4628,2.458222
315.2935,2.484020
314.2063,2.492835
313.8727,2.505392
313.3749,2.530042
312.6032,2.560921
310.7779,2.624984
310.6092,2.639180
310.4405,2.653195
310.2719,2.667119
308.8409,2.711922
308.0820,2.737832
307.6431,2.750522
307.1468,2.760870
306.0182,2.801527
305.5506,2.815087
305.0787,2.828557
304.5970,2.841849
301.8240,2.901683
300.7413,2.928045
300.0967,2.941427
299.3354,2.953298
297.6426,2.996153
297.3548,2.995698
297.0621,2.995063
296.8853,3.002467
296.7594,2.994341
296.5072,3.004634
296.0695,3.009718
295.2000,3.022075
291.5097,3.077710
291.0809,3.085047
290.6533,3.092202
290.2268,3.099266
286.7633,3.146714
286.3247,3.160296
285.8777,3.173882
285.4273,3.187468
285.4273,3.187468
284.0838,3.207395
283.5617,3.216848
283.4051,3.223933
281.2131,3.279627
281.0845,3.286886
280.9464,3.293966
280.8037,3.300956
279.0757,3.362645
278.7294,3.376193
278.3839,3.389650
278.0391,3.402925
276.9994,3.456262
276.4548,3.480596
276.0933,3.496809
275.9675,3.509598
274.9368,3.554370
274.5999,3.567918
274.2593,3.581376
273.9104,3.594656
272.6987,3.645607
272.1658,3.664126
271.6261,3.682649
271.0842,3.701172
268.3828,3.765651
268.2091,3.767216
268.0356,3.768601
267.8621,3.769894
265.0185,3.811187
263.6836,3.816516
262.3621,3.821844
261.0538,3.827173
258.7732,3.823451
257.8701,3.818863
256.9732,3.814275
256.0825,3.809687
255.7985,3.807746
255.4981,3.807850
255.1946,3.807955
254.8840,3.808064
253.4244,3.787364
253.0944,3.785441
252.7652,3.783518
252.4369,3.781595
251.0888,3.758826
250.9680,3.756014
250.8474,3.753202
250.7269,3.750390
249.1442,3.725673
248.6821,3.716037
248.2141,3.706313
247.7442,3.696409
244.3028,3.621417
244.1381,3.616056
243.9700,3.610514
243.7949,3.604885
242.1143,3.563107
241.5908,3.546343
241.0270,3.528146
240.6188,3.504540
238.8110,3.433459
238.3784,3.409851
237.9405,3.386064
237.5008,3.362188
236.5109,3.298951
236.2777,3.287201
236.0415,3.275361
235.7991,3.263343
234.4385,3.202713
234.1304,3.188850
233.8164,3.174808
233.5000,3.160677
231.8085,3.110803
231.3242,3.094797
230.6969,3.076223
230.0567,3.063005
228.0632,3.040207
227.3913,3.040501
226.7202,3.040796
226.0469,3.041094
226.0469,3.041094
225.1983,3.053756
224.0606,3.060295
222.9470,3.068189
221.9950,3.087390
221.7194,3.094029
221.4444,3.100577
221.1700,3.106943
220.3672,3.132608
220.1058,3.141282
219.8392,3.149868
219.5702,3.158273
##END=
