##TITLE=Benzaldehyde
##JCAMP-DX=4.24
##DATA TYPE=UV/VIS SPECTRUM
##ORIGIN=INSTITUTE OF ENERGY PROBLEMS OF CHEMICAL PHYSICS, RAS
##OWNER=INEP CP RAS, NIST OSRD
Collection (C) 2007 copyright by the U.S. Secretary of Commerce
on behalf of the United States of America. All rights reserved.
##CAS REGISTRY NO=100-52-7
##MOLFORM=C7H6O
##MP=-26
##BP=179.0
##SOURCE REFERENCE=RAS UV No. 5201
##$NIST SQUIB=1950RAM/GUI405-411
##$NIST SOURCE=TSGMTE
##SPECTROMETER/DATA SYSTEM=n.i.g.
##XUNITS=Wavelength (nm)
##YUNITS=Logarithm epsilon
##XFACTOR=1.000000
##YFACTOR=1.000000
##FIRSTX=372.5549
##LASTX=244.4051
##FIRSTY=1.04748
##MAXX=372.555
##MINX=244.405
##MAXY=4.44642
##MINY=1.04748
##NPOINTS=323
##$REF AUTHOR=Ramart-Lucas, P.; Guilmart, T.
##$REF TITLE=Sur les variations d'absorption dans les series homologues
##$REF JOURNAL=Bull. Soc. Chim. Fr.
##$REF VOLUME=17
##$REF PAGE=405-411
##$REF DATE=1950
##XYPOINTS=(XY..XY)
372.5549,1.047481
372.1491,1.085957
371.6696,1.122789
371.0861,1.158956
370.3600,1.156355
369.3435,1.121047
368.3188,1.085744
367.2906,1.050438
363.1430,1.048690
362.7952,1.162451
362.4964,1.162460
362.4343,1.086509
362.1769,1.162469
362.1008,1.124820
361.8475,1.162478
361.8475,1.162478
361.3369,1.201039
361.3369,1.201039
361.3345,1.190172
361.3320,1.179069
361.3296,1.167846
361.0404,1.201047
360.7235,1.201056
360.3967,1.201066
360.3967,1.201066
359.9513,1.232119
359.4939,1.263563
359.0211,1.295286
358.5290,1.327173
358.0140,1.359110
357.4727,1.390986
356.9015,1.422688
356.2968,1.454101
355.6555,1.485112
354.9741,1.515608
354.2494,1.545474
354.2494,1.545474
353.9329,1.546534
353.6168,1.547476
353.3089,1.584582
353.3064,1.572646
353.3039,1.560472
353.3013,1.548179
353.3013,1.548179
352.8047,1.540163
351.3302,1.492971
350.3049,1.452642
349.5435,1.420636
348.8656,1.398414
347.9886,1.395765
346.8988,1.425440
345.6650,1.468089
344.5894,1.495980
344.5894,1.495980
343.4547,1.549572
342.6062,1.589456
341.9488,1.619565
341.3900,1.643837
340.8384,1.666209
340.2043,1.690614
339.3990,1.720992
339.3990,1.720992
338.9823,1.722056
338.5575,1.723001
338.1154,1.723710
338.1154,1.723710
337.7715,1.715751
337.4314,1.703397
336.9402,1.678920
336.1448,1.634589
334.8965,1.562675
334.8965,1.562675
334.4098,1.561998
333.9155,1.561081
333.4048,1.560048
333.4048,1.560048
332.7331,1.588093
332.1699,1.620358
331.6509,1.654992
331.1128,1.690148
330.4929,1.723976
329.7299,1.754629
328.7636,1.780258
327.5360,1.799013
327.5360,1.799013
326.2015,1.774812
325.0820,1.743957
324.1379,1.708993
323.3311,1.672461
322.6244,1.636907
321.9817,1.604876
321.9817,1.604876
321.4103,1.604896
320.8244,1.604918
320.2324,1.604940
320.2324,1.604940
319.1585,1.644932
317.9279,1.675531
315.6885,1.707893
315.6876,1.702520
315.6867,1.697028
315.6858,1.691297
315.6858,1.691297
315.6848,1.685409
314.8865,1.656619
314.1214,1.627566
313.3915,1.598184
312.6989,1.568413
312.0455,1.538188
311.4333,1.507447
310.8643,1.476128
310.3404,1.444168
309.6116,1.441519
308.7445,1.469510
307.6945,1.511070
306.6126,1.544424
306.6126,1.544424
306.1380,1.542817
305.6648,1.541091
305.1931,1.539126
305.1931,1.539126
304.7188,1.511366
304.0011,1.483974
302.5818,1.466960
302.5818,1.466960
302.0211,1.475389
301.4552,1.483580
300.8768,1.491654
300.8768,1.491654
300.8600,1.505112
300.7307,1.520810
300.3779,1.547026
299.6922,1.592040
298.5682,1.664132
298.5682,1.664132
298.2153,1.724380
297.8966,1.780272
297.6098,1.831882
297.3526,1.879285
297.1228,1.922556
296.9184,1.961769
296.7371,1.997000
296.5769,2.028321
296.4356,2.055809
296.3112,2.079536
296.2015,2.099579
296.1045,2.116013
296.0182,2.128910
295.9405,2.138347
295.8694,2.144397
295.8028,2.147134
295.8028,2.147134
295.5890,2.176067
295.3789,2.205026
295.1721,2.234010
294.9684,2.263016
294.7673,2.292038
294.5685,2.321077
294.3717,2.350129
294.1766,2.379189
293.9827,2.408257
293.7899,2.437328
293.5976,2.466401
293.4056,2.495472
293.2136,2.524537
293.0212,2.553595
292.8281,2.582642
292.6339,2.611676
292.4384,2.640693
292.2413,2.669691
292.0421,2.698667
291.8406,2.727618
291.6365,2.756541
291.4294,2.785432
291.2191,2.814290
291.0052,2.843111
290.7873,2.871893
290.5653,2.900632
290.3388,2.929326
290.1075,2.957972
289.8710,2.986566
289.6292,3.015106
289.3817,3.043589
289.3817,3.043589
289.1719,3.055753
288.9625,3.067679
288.7533,3.079485
288.7533,3.079485
288.5041,3.081618
288.2420,3.083633
287.9737,3.085409
287.9737,3.085409
287.6833,3.067855
287.0022,3.043775
285.9460,3.038390
285.9460,3.038390
285.5302,3.118493
285.2981,3.149454
285.0503,3.157813
285.0503,3.157813
284.6799,3.146211
284.4198,3.128061
283.6709,3.102200
283.6704,3.098453
283.6699,3.094705
283.6694,3.090958
283.5269,3.110772
283.5269,3.110772
283.2873,3.117208
283.0352,3.123644
282.7771,3.130080
282.7771,3.130080
282.5339,3.168168
282.1756,3.202380
281.6697,3.233922
280.9849,3.264001
280.0909,3.293822
278.9589,3.324591
278.9589,3.324591
278.1288,3.322331
277.6802,3.318744
277.2264,3.310755
277.2264,3.310755
276.6347,3.280537
276.0691,3.253930
275.3973,3.221106
274.4893,3.172233
274.4893,3.172233
274.0809,3.172253
273.6678,3.172274
273.2439,3.172295
273.2439,3.172295
272.8349,3.192658
272.4151,3.213022
271.9907,3.233387
271.9907,3.233387
271.7695,3.234449
271.5368,3.235393
271.2985,3.236099
271.2985,3.236099
269.3464,3.182917
267.8731,3.142378
266.7724,3.112047
265.9450,3.089487
265.2958,3.072263
264.7329,3.057940
264.1659,3.044081
263.5062,3.028251
263.5062,3.028251
261.9898,3.013165
260.6072,3.015560
259.1443,3.036519
259.1443,3.036519
258.5819,3.067728
258.0506,3.098917
257.5491,3.130133
257.0763,3.161422
256.6310,3.192831
256.2121,3.224408
255.8186,3.256198
255.8186,3.256198
255.6702,3.285401
255.5230,3.314610
255.3767,3.343822
255.2314,3.373037
255.0870,3.402255
254.9433,3.431476
254.8005,3.460697
254.6583,3.489918
254.5167,3.519139
254.3757,3.548359
254.2352,3.577577
254.0950,3.606793
253.9552,3.636005
253.8158,3.665214
253.6765,3.694417
253.5374,3.723615
253.3984,3.752807
253.2595,3.781992
253.1204,3.811169
252.9813,3.840338
252.8421,3.869498
252.7026,3.898648
252.5629,3.927787
252.4227,3.956915
252.2822,3.986031
252.1413,4.015134
251.9997,4.044224
251.8577,4.073299
251.7149,4.102359
251.5714,4.131404
251.4272,4.160432
251.3080,4.247392
251.2821,4.189443
251.1362,4.218436
250.9892,4.247410
250.9892,4.247410
250.7621,4.247424
250.6839,4.279153
250.4500,4.313508
250.0738,4.374878
250.0738,4.374878
249.9159,4.374887
249.7582,4.374897
249.6007,4.374906
249.6007,4.374906
249.5973,4.398600
249.4387,4.417426
249.3530,4.369567
249.3526,4.365820
249.3522,4.362072
249.3518,4.358325
247.9282,4.401813
247.1054,4.357528
246.5955,4.319411
246.5955,4.319411
246.2605,4.321553
245.9166,4.323576
245.5688,4.325362
245.5688,4.325362
245.2531,4.367716
244.8609,4.407515
244.4051,4.446415
##END=
