##TITLE=Aniline, N-methyl-
##JCAMP-DX=4.24
##DATA TYPE=UV/VIS SPECTRUM
##ORIGIN=INSTITUTE OF ENERGY PROBLEMS OF CHEMICAL PHYSICS, RAS
##OWNER=INEP CP RAS, NIST OSRD
Collection (C) 2007 copyright by the U.S. Secretary of Commerce
on behalf of the United States of America. All rights reserved.
##CAS REGISTRY NO=100-61-8
##MOLFORM=C7H9N
##MP=-57
##BP=196.2
##SOURCE REFERENCE=RAS UV No. 424
##$NIST SQUIB=1949GRA134-145
##$NIST SOURCE=TSGMTE
##SPECTROMETER/DATA SYSTEM=n.i.g.
##XUNITS=Wavelength (nm)
##YUNITS=Logarithm epsilon
##XFACTOR=1.000000
##YFACTOR=1.000000
##FIRSTX=320.8221
##LASTX=224.6282
##FIRSTY=0.542925
##MAXX=320.822
##MINX=224.628
##MAXY=4.05957
##MINY=0.542925
##NPOINTS=712
##$REF AUTHOR=Grammaticakis, P.
##$REF TITLE=Contribution a l'etude de l'absorption dans l'ultraviolet moyen des anilines orthosubstituees. I. Orthoalcoylanilines N substituees
##$REF JOURNAL=Bull. Soc. Chim. Fr.
##$REF VOLUME=16
##$REF PAGE=134-145
##$REF DATE=1949
##XYPOINTS=(XY..XY)
320.8221,0.542925
320.7664,0.564666
320.6894,0.610735
320.6894,0.610735
320.6141,0.611840
320.5287,0.613102
320.4383,0.614433
320.4383,0.614433
320.4137,0.643975
320.3790,0.673601
320.3392,0.703369
320.3392,0.703369
320.1987,0.723168
320.0483,0.742976
319.8929,0.762784
319.8929,0.762784
319.5601,0.838761
319.3776,0.874087
319.1884,0.899049
319.1884,0.899049
319.1105,0.935940
319.0282,0.972888
318.9427,1.009888
318.8551,1.046920
318.7665,1.083968
318.7665,1.083968
318.6121,1.107230
318.4579,1.130639
318.3038,1.154123
318.3038,1.154123
318.2774,1.170901
318.2410,1.187681
318.1995,1.204462
318.1995,1.204462
318.1254,1.205572
318.0414,1.206831
317.9523,1.208164
317.9523,1.208164
317.9266,1.228398
317.8908,1.248782
317.8501,1.269242
317.8501,1.269242
317.6261,1.309321
317.3996,1.361852
317.1775,1.408867
317.1775,1.408867
317.1518,1.429103
317.1163,1.449486
317.0757,1.469946
317.0757,1.469946
317.0021,1.471055
316.9186,1.472313
316.8303,1.473646
316.8303,1.473646
316.5856,1.532520
316.3829,1.577232
316.2145,1.611298
316.0730,1.638232
315.9508,1.661549
315.8403,1.684762
315.8403,1.684762
315.7009,1.701457
315.5015,1.730654
315.2612,1.768204
314.9989,1.809965
314.7330,1.851790
314.4824,1.889534
314.2654,1.919054
314.2654,1.919054
314.0415,1.953528
313.7892,1.990761
313.4964,2.046267
313.4964,2.046267
313.4245,2.047376
313.3429,2.048634
313.2565,2.049968
313.2565,2.049968
313.1515,2.076147
313.0466,2.102326
312.9418,2.128505
312.9418,2.128505
312.2863,2.214568
311.8140,2.276586
311.4884,2.318956
311.2738,2.346078
311.1351,2.362348
311.0373,2.372166
310.9456,2.379929
310.9456,2.379929
310.8806,2.382281
310.8109,2.384632
310.7316,2.386984
310.7316,2.386984
310.5849,2.410157
310.4383,2.433405
310.2919,2.456802
310.2919,2.456802
309.9685,2.488073
309.7726,2.511136
309.5361,2.545759
309.5361,2.545759
309.4660,2.546868
309.3864,2.548126
309.3022,2.549460
309.3022,2.549460
309.1730,2.575781
308.9633,2.610003
308.7114,2.651462
308.4549,2.699496
308.4549,2.699496
308.3853,2.700605
308.3063,2.701863
308.2226,2.703197
308.2226,2.703197
308.1966,2.711922
308.1611,2.720649
308.1210,2.729375
308.1210,2.729375
307.8441,2.754232
307.5583,2.779163
307.2684,2.804243
307.2684,2.804243
307.2430,2.815753
307.2082,2.827413
307.1688,2.839147
307.1688,2.839147
307.0222,2.841502
306.8757,2.843857
306.7293,2.846212
306.7293,2.846212
306.5590,2.867708
306.3795,2.889279
306.1957,2.910999
306.1957,2.910999
306.0376,2.918563
305.8990,2.930748
305.6611,2.958002
305.6611,2.958002
305.5927,2.959111
305.5151,2.960369
305.4330,2.961702
305.4330,2.961702
305.4076,2.971447
305.3730,2.981267
305.3337,2.991237
305.3337,2.991237
305.2049,3.002751
305.0669,3.014415
304.9245,3.026154
304.9245,3.026154
304.7186,3.037671
304.5084,3.049338
304.2894,3.061079
304.2894,3.061079
304.2229,3.070913
304.1474,3.080897
304.0673,3.090955
304.0673,3.090955
303.9640,3.093308
303.8562,3.095661
303.7394,3.098015
303.7394,3.098015
303.5768,3.114142
303.4099,3.130343
303.2341,3.146695
303.2341,3.146695
302.8110,3.163615
302.4118,3.180162
302.0580,3.192381
302.0580,3.192381
301.8962,3.201548
301.7301,3.210864
301.5552,3.220255
301.5552,3.220255
301.0935,3.227793
300.8745,3.231892
300.7095,3.236062
300.7095,3.236062
300.6490,3.240527
300.5841,3.245140
300.5103,3.249829
300.5103,3.249829
300.3439,3.252185
300.1688,3.254542
299.9895,3.256898
299.9895,3.256898
299.7383,3.263508
299.4697,3.269001
298.9542,3.278083
298.9542,3.278083
298.4317,3.283089
298.1087,3.286670
297.7076,3.291894
297.7076,3.291894
297.1371,3.301961
296.9035,3.306495
296.8051,3.309383
296.8051,3.309383
296.6425,3.309825
296.4714,3.310416
296.2962,3.311082
296.2962,3.311082
295.7608,3.316587
295.2876,3.322088
294.4730,3.332303
294.4730,3.332303
293.4858,3.331911
292.4966,3.331370
291.5100,3.330755
291.5100,3.330755
291.3149,3.327979
291.1116,3.325055
290.9045,3.322057
290.9045,3.322057
290.7858,3.321627
290.6589,3.321048
290.5278,3.320396
290.5278,3.320396
290.4656,3.318049
290.3950,3.315703
290.3203,3.313358
290.3203,3.313358
290.1692,3.311015
290.0141,3.308673
289.8508,3.306332
289.8508,3.306332
289.7887,3.302966
289.7183,3.299527
289.6437,3.295938
289.6437,3.295938
289.1671,3.290926
288.9690,3.288586
288.8786,3.286912
288.8786,3.286912
288.8168,3.282888
288.7468,3.278864
288.6727,3.274840
288.6727,3.274840
288.5187,3.273828
288.3566,3.272742
288.1905,3.271506
288.1905,3.271506
288.1216,3.268465
288.0732,3.264378
288.0036,3.255743
288.0036,3.255743
287.8183,3.255751
287.6292,3.255760
287.4321,3.255769
287.4321,3.255769
287.3393,3.254667
287.2425,3.253416
287.1376,3.252091
287.1376,3.252091
287.1133,3.248724
287.0809,3.245283
287.0444,3.241692
287.0444,3.241692
286.9157,3.239349
286.7871,3.237006
286.6587,3.234663
286.6587,3.234663
286.3816,3.233371
286.2347,3.232072
286.0919,3.229655
286.0919,3.229655
286.0362,3.227309
285.9765,3.224963
285.9088,3.222617
285.9088,3.222617
285.3757,3.212039
284.8526,3.200269
284.2030,3.186118
284.2030,3.186118
284.1794,3.183770
284.1478,3.181422
284.1122,3.179075
284.1122,3.179075
283.8192,3.175982
283.5305,3.171471
282.9998,3.161677
282.9998,3.161677
282.7613,3.154641
282.4876,3.147607
282.2500,3.140571
282.2500,3.140571
282.0715,3.136267
281.8892,3.131142
281.6993,3.126839
281.6993,3.126839
281.5108,3.120372
281.2792,3.112416
280.9731,3.099020
280.9731,3.099020
280.6119,3.092251
280.3023,3.085480
279.7793,3.072902
279.7793,3.072902
279.7261,3.070556
279.6690,3.068210
279.6042,3.065864
279.6042,3.065864
279.0270,3.055713
278.5986,3.049134
278.3364,3.044784
278.3364,3.044784
278.2838,3.042674
278.2273,3.040414
278.1632,3.038081
278.1632,3.038081
277.6630,3.031717
277.1608,3.025278
276.6527,3.018691
276.6527,3.018691
276.4769,3.014673
276.2937,3.010655
276.1069,3.006637
276.1069,3.006637
275.9660,3.004954
275.8176,3.003197
275.6656,3.001290
275.6656,3.001290
275.5252,3.000862
275.3775,3.000285
275.2261,2.999634
275.2261,2.999634
275.2041,2.998616
275.1746,2.997524
275.1414,2.996282
275.1414,2.996282
274.9173,2.995188
274.6861,2.993944
274.4515,2.992625
274.4515,2.992625
274.2784,2.988607
274.0981,2.984589
273.9143,2.980572
273.9143,2.980572
273.5348,2.979273
273.2929,2.977893
272.9813,2.975249
272.9813,2.975249
272.8973,2.971885
272.8097,2.968447
272.7147,2.964860
272.7147,2.964860
272.5486,2.964434
272.3789,2.963858
272.2021,2.963208
272.2021,2.963208
272.1187,2.960428
272.0316,2.957500
271.9373,2.954497
271.9373,2.954497
271.6044,2.951792
271.2724,2.949982
270.6581,2.947515
270.6581,2.947515
270.3221,2.943431
269.9509,2.939796
269.2285,2.933495
269.2285,2.933495
268.7884,2.931405
268.3426,2.929166
267.8947,2.926853
267.8947,2.926853
267.4314,2.926206
266.9661,2.925559
266.4955,2.924913
266.4955,2.924913
266.4435,2.926022
266.3845,2.927281
266.3221,2.928614
266.3221,2.928614
266.0224,2.929065
265.7234,2.929665
265.4251,2.930339
265.4251,2.930339
265.0181,2.932710
264.6124,2.935081
264.2079,2.937452
264.2079,2.937452
264.0833,2.940243
263.9555,2.943183
263.8208,2.946198
263.8208,2.946198
263.6346,2.947886
263.4452,2.949574
263.2492,2.951263
263.2492,2.951263
263.2026,2.953614
263.1526,2.955966
263.0958,2.958318
263.0958,2.958318
262.8807,2.963028
262.6660,2.967738
262.4517,2.972447
262.4517,2.972447
262.2758,2.978920
262.1136,2.983453
261.8263,2.989932
261.8263,2.989932
261.5945,3.003131
261.3564,3.016480
261.1153,3.029904
261.1153,3.029904
261.0390,3.031015
260.9593,3.032275
260.8730,3.033609
260.8730,3.033609
260.8538,3.037637
260.8279,3.041666
260.7986,3.045694
260.7986,3.045694
260.7231,3.046804
260.6475,3.048064
260.5721,3.049398
260.5721,3.049398
260.3975,3.059612
260.2966,3.066838
260.1827,3.077272
260.1827,3.077272
260.0321,3.082998
259.8784,3.088798
259.7182,3.094748
259.7182,3.094748
259.4953,3.109949
259.3952,3.117611
259.3316,3.124301
259.3316,3.124301
259.2823,3.125410
259.2265,3.126668
259.1673,3.128001
259.1673,3.128001
259.0933,3.134816
259.0194,3.141781
258.9455,3.148820
258.9455,3.148820
258.8416,3.153958
258.7378,3.159247
258.6341,3.164609
258.6341,3.164609
258.3674,3.194839
258.1374,3.224246
257.8719,3.255594
257.8719,3.255594
257.7156,3.265011
257.5236,3.275624
257.2702,3.292206
257.2702,3.292206
256.9467,3.335190
256.6176,3.378250
256.2860,3.421459
256.2860,3.421459
256.1839,3.423814
256.0819,3.426169
255.9800,3.428524
255.9800,3.428524
255.1309,3.511758
254.5628,3.567907
254.2147,3.602790
254.0273,3.622227
253.9429,3.632038
253.9040,3.638044
253.9040,3.638044
253.8568,3.639153
253.8033,3.640411
253.7466,3.641744
253.7466,3.641744
253.6574,3.651780
253.5524,3.661816
253.4635,3.672970
253.4635,3.672970
253.4165,3.674078
253.3631,3.675337
253.3066,3.676670
253.3066,3.676670
253.2178,3.687078
253.1227,3.697487
253.0245,3.707895
253.0245,3.707895
252.9777,3.709004
252.9245,3.710263
252.8682,3.711596
252.8682,3.711596
252.7977,3.717976
252.7273,3.724356
252.6568,3.730736
252.6568,3.730736
252.4057,3.743627
252.2210,3.754128
252.0646,3.762316
252.0646,3.762316
251.8963,3.775512
251.7282,3.788858
251.5604,3.802279
251.5604,3.802279
251.4898,3.805067
251.4160,3.808005
251.3361,3.811018
251.3361,3.811018
251.2665,3.817398
251.1969,3.823778
251.1273,3.830158
251.1273,3.830158
251.0811,3.831267
251.0288,3.832525
250.9733,3.833858
250.9733,3.833858
250.7793,3.849866
250.5977,3.863188
250.4043,3.879195
250.4043,3.879195
250.3584,3.880304
250.3063,3.881563
250.2512,3.882896
250.2512,3.882896
250.2335,3.886924
250.2097,3.890952
250.1827,3.894981
250.1827,3.894981
249.9845,3.903755
249.8913,3.908720
249.8228,3.914130
249.8228,3.914130
249.6146,3.919860
249.4037,3.925665
249.1870,3.931619
249.1870,3.931619
249.1596,3.933970
249.1322,3.936320
249.1048,3.938671
249.1048,3.938671
248.8937,3.944960
248.7654,3.948187
248.6096,3.951117
248.6096,3.951117
248.5683,3.956166
248.5240,3.961289
248.4736,3.966562
248.4736,3.966562
248.3601,3.970609
248.2405,3.974730
248.1180,3.979000
248.1180,3.979000
248.0221,3.979441
247.9263,3.980031
247.8306,3.980696
247.8306,3.980696
247.8131,3.983046
247.7896,3.985396
247.7630,3.987747
247.7630,3.987747
247.5546,3.992893
247.3405,3.998188
247.1238,4.003559
247.1238,4.003559
247.0181,4.008835
246.9093,4.012844
246.7045,4.019021
246.7045,4.019021
246.4739,4.020141
246.2408,4.021411
246.0028,4.029803
246.0028,4.029803
246.0026,4.027454
246.0024,4.025105
246.0021,4.022756
246.0021,4.022756
245.9087,4.031922
245.8148,4.034190
245.7208,4.036532
245.7208,4.036532
245.6094,4.037210
245.4921,4.037889
245.3720,4.038567
245.3720,4.038567
245.0773,4.043048
244.7804,4.047677
244.4784,4.052382
244.4784,4.052382
244.2519,4.052831
244.0229,4.053430
243.7884,4.054104
243.7884,4.054104
243.7449,4.055212
243.6955,4.056471
243.6433,4.057804
243.6433,4.057804
243.0895,4.059020
242.7217,4.059479
242.2242,4.059573
242.2242,4.059573
241.8849,4.058575
241.5465,4.057503
241.2091,4.056282
241.2091,4.056282
241.1182,4.053939
241.0274,4.051596
240.9366,4.049253
240.9366,4.049253
240.6745,4.048251
240.4071,4.047175
240.1375,4.045949
240.1375,4.045949
240.0950,4.043603
240.0467,4.041257
239.9957,4.038911
239.9957,4.038911
239.7521,4.037237
239.5090,4.035488
239.2663,4.033590
239.2663,4.033590
239.1131,4.030232
238.9601,4.026799
238.8073,4.023217
238.8073,4.023217
238.7185,4.023223
238.6297,4.023229
238.5409,4.023235
238.5409,4.023235
238.4521,4.020892
238.3632,4.018549
238.2745,4.016205
238.2745,4.016205
238.1860,4.016211
238.0976,4.016217
238.0093,4.016223
238.0093,4.016223
237.9927,4.013875
237.9706,4.011528
237.9456,4.009180
237.9456,4.009180
237.8824,4.007507
237.8193,4.005833
237.7561,4.004159
237.7561,4.004159
237.6680,4.003494
237.5799,4.002829
237.4919,4.002163
237.4919,4.002163
237.4754,4.000052
237.4534,3.997791
237.4285,3.995456
237.4285,3.995456
237.2164,3.992301
236.9628,3.987359
236.4516,3.976394
236.4516,3.976394
236.3480,3.971703
236.2389,3.967012
236.1271,3.962321
236.1271,3.962321
236.0241,3.961309
235.9156,3.960223
235.8044,3.958987
235.8044,3.958987
233.9193,3.904703
233.1378,3.881813
232.8744,3.875294
232.8744,3.875294
232.8375,3.872948
232.7979,3.870602
232.7530,3.868256
232.7530,3.868256
232.6685,3.867242
232.5841,3.866155
232.4997,3.864918
232.4997,3.864918
232.0660,3.851761
231.7937,3.842471
231.5619,3.835117
231.5619,3.835117
231.5462,3.831750
231.5251,3.828309
231.5013,3.824718
231.5013,3.824718
231.4023,3.824290
231.2981,3.823713
231.1913,3.823062
231.1913,3.823062
230.9197,3.814083
230.4828,3.801685
230.0869,3.791596
230.0869,3.791596
229.1187,3.761986
228.3654,3.738624
227.8977,3.725309
227.8977,3.725309
227.7667,3.720124
227.3920,3.708841
226.4575,3.681789
226.4575,3.681789
226.3853,3.678426
226.3081,3.674989
226.2284,3.671403
226.2284,3.671403
225.7956,3.659827
225.5333,3.652190
225.2162,3.641947
225.2162,3.641947
225.1817,3.639601
225.1447,3.637255
225.1027,3.634909
225.1027,3.634909
225.0237,3.633809
224.9447,3.632559
224.8657,3.631235
224.8657,3.631235
224.7439,3.624843
224.6823,3.620759
224.6282,3.615481
##END=
