##TITLE=Benzonitrile
##JCAMP-DX=4.24
##DATA TYPE=UV/VIS SPECTRUM
##ORIGIN=INSTITUTE OF ENERGY PROBLEMS OF CHEMICAL PHYSICS, RAS
##OWNER=INEP CP RAS, NIST OSRD
Collection (C) 2007 copyright by the U.S. Secretary of Commerce
on behalf of the United States of America. All rights reserved.
##CAS REGISTRY NO=100-47-0
##MOLFORM=C7H5N
##MP=-12.7
##BP=191.1
##SOURCE REFERENCE=RAS UV No. 203
##$NIST SQUIB=1952HIR/KIN1821-1822
##$NIST SOURCE=TSGMTE
##SPECTROMETER/DATA SYSTEM=Cary 11
##XUNITS=Wavelength (nm)
##YUNITS=Logarithm epsilon
##XFACTOR=1.000000
##YFACTOR=1.000000
##FIRSTX=298.4845
##LASTX=277.5100
##FIRSTY=-0.738499
##MAXX=298.485
##MINX=277.51
##MAXY=2.72927
##MINY=-0.738499
##NPOINTS=134
##$REF AUTHOR=Hirt, R.C.; King, F.T.
##$REF TITLE=Search for weak absorption bands in benzonitrile in the near ultraviolet
##$REF JOURNAL=J. Chem. Phys.
##$REF VOLUME=20
##$REF PAGE=1821-1822
##$REF DATE=1952
##XYPOINTS=(XY..XY)
298.4845,-0.738499
298.1623,-0.683820
297.8676,-0.677367
297.8526,-0.650334
297.4956,-0.595851
297.4883,-0.582694
297.1950,-0.576263
296.8756,-0.521578
296.8530,-0.480829
296.5249,-0.474307
296.2033,-0.413188
296.1885,-0.386158
295.8977,-0.379760
295.8713,-0.331521
295.8641,-0.318487
295.5417,-0.318578
295.5270,-0.291579
295.2187,-0.250882
295.1964,-0.209996
294.6006,-0.162790
294.5708,-0.108072
293.9386,-0.054384
293.9130,-0.007005
293.2796,0.054115
293.2616,0.087604
292.9800,0.087497
292.9690,0.107922
292.6621,0.156034
292.6551,0.169086
292.3362,0.175541
292.3178,0.209837
291.7227,0.277472
291.6974,0.324838
291.3806,0.331265
291.0770,0.379378
291.0519,0.426739
290.4653,0.487831
290.4442,0.527849
289.8256,0.588932
289.8076,0.623229
289.5008,0.683587
289.4970,0.690940
289.1849,0.697378
289.1742,0.717795
288.8722,0.771617
288.8616,0.792034
288.5845,0.799299
288.5705,0.826250
288.2604,0.832694
288.2357,0.880064
288.2319,0.887415
287.9565,0.893867
287.9391,0.927350
287.6359,0.988519
287.6325,0.995051
287.3240,1.002313
287.3067,1.035798
287.0326,1.043063
287.0120,1.083083
287.0048,1.096966
286.7317,1.103417
286.7174,1.131185
286.4449,1.137639
286.4206,1.185006
286.4101,1.205424
286.1046,1.211865
286.1008,1.219215
285.8052,1.273036
285.7843,1.313871
285.4927,1.361157
285.1892,1.367598
285.1717,1.401900
284.9022,1.408352
284.8814,1.449187
284.8677,1.476137
284.6020,1.476056
284.5916,1.496473
284.2693,1.543750
284.2487,1.584584
283.9808,1.591037
283.6925,1.639140
283.6686,1.686508
283.3689,1.692950
283.0888,1.727169
283.0650,1.774537
282.7724,1.834891
282.7654,1.848775
282.5037,1.848693
282.4902,1.875644
282.1926,1.882902
282.1657,1.936805
282.1555,1.957222
281.8916,1.963674
281.8847,1.977558
281.8643,2.018392
281.6010,2.024844
281.5908,2.045262
281.2753,2.092538
281.2619,2.119489
281.0029,2.119407
280.7408,2.126676
280.7343,2.139743
280.4409,2.146184
280.4139,2.200903
280.3974,2.234387
280.1834,2.146103
280.1597,2.194288
280.1363,2.241656
280.1331,2.248190
279.8730,2.254642
279.8694,2.261992
279.8429,2.315894
279.8297,2.342845
279.6097,2.268444
279.5897,2.309278
279.5697,2.350113
279.5633,2.363180
279.5401,2.410549
279.2755,2.363088
279.2555,2.403923
279.2487,2.417807
279.2324,2.451291
278.9771,2.451210
278.9404,2.526346
278.6825,2.532798
278.6427,2.614467
278.3536,2.620909
278.3473,2.633976
278.0936,2.633894
278.0770,2.668195
277.8238,2.668114
277.8072,2.702415
277.5198,2.708857
277.5100,2.729274
##END=
