##TITLE=Benzylamine
##JCAMP-DX=4.24
##DATA TYPE=UV/VIS SPECTRUM
##ORIGIN=INSTITUTE OF ENERGY PROBLEMS OF CHEMICAL PHYSICS, RAS
##OWNER=INEP CP RAS, NIST OSRD
Collection (C) 2007 copyright by the U.S. Secretary of Commerce
on behalf of the United States of America. All rights reserved.
##CAS REGISTRY NO=100-46-9
##MOLFORM=C7H9N
##BP=185; 90(12)
##SOURCE REFERENCE=RAS UV No. 427
##$NIST SQUIB=1947GRA664-674
##$NIST SOURCE=TSGMTE
##SPECTROMETER/DATA SYSTEM=n.i.g.
##XUNITS=Wavelength (nm)
##YUNITS=Logarithm epsilon
##XFACTOR=1.000000
##YFACTOR=1.000000
##FIRSTX=272.9428
##LASTX=221.3450
##FIRSTY=1.00776
##MAXX=272.943
##MINX=221.345
##MAXY=2.95539
##MINY=1.00776
##NPOINTS=311
##$REF AUTHOR=Grammaticakis, P.
##$REF TITLE=Contribution a l'etude spectrale de quelques derives de l'isocyanate de phenyle. I. Absorption dans l'ultra-violet moyen des derives phenylcarbamyles de quelques amines, hydroxylamines, phenylhydrazines, cetimines et oximes
##$REF JOURNAL=Bull. Soc. Chim. Fr.
##$REF VOLUME=14
##$REF PAGE=664-674
##$REF DATE=1947
##XYPOINTS=(XY..XY)
272.9428,1.007761
272.8644,1.039236
272.7425,1.065942
272.4730,1.110778
272.4730,1.110778
272.4044,1.140363
272.3359,1.170053
272.2675,1.199955
272.2675,1.199955
272.1476,1.210468
272.0226,1.221088
271.8870,1.231920
271.8870,1.231920
271.6940,1.270278
271.5013,1.308769
271.3088,1.347350
271.1166,1.385974
271.1166,1.385974
270.7254,1.443592
270.4697,1.482296
270.2929,1.511223
270.1391,1.539508
269.9523,1.576287
269.9523,1.576287
269.8010,1.592974
269.6646,1.608784
269.5095,1.628157
269.3019,1.655531
269.0086,1.695347
268.5967,1.752042
268.0339,1.830056
268.0339,1.830056
267.6594,1.870746
267.2755,1.911649
266.8877,1.952659
266.8877,1.952659
266.4208,1.989600
265.9490,2.026675
265.4746,2.063840
264.9999,2.101050
264.9999,2.101050
264.7256,2.114186
264.6027,2.121486
264.5253,2.129207
264.5253,2.129207
264.4053,2.131615
264.2754,2.134130
264.1406,2.136857
264.1406,2.136857
263.9587,2.136866
263.7720,2.136876
263.5756,2.136887
263.5756,2.136887
263.3034,2.128318
263.0267,2.119750
262.7407,2.111182
262.7407,2.111182
262.3335,2.108519
262.0961,2.107543
261.8246,2.107417
261.8246,2.107417
261.6024,2.108523
261.3806,2.109842
261.1591,2.111267
261.1591,2.111267
261.0200,2.113199
260.8712,2.115238
260.7177,2.117489
260.7177,2.117489
260.6519,2.120831
260.5862,2.124172
260.5204,2.127514
260.5204,2.127514
260.0425,2.136722
259.6684,2.145396
259.0781,2.160970
259.0781,2.160970
258.9906,2.164312
258.8982,2.167655
258.7963,2.170999
258.7963,2.170999
258.3522,2.175350
258.0777,2.178950
257.7368,2.184885
257.7368,2.184885
257.3462,2.186249
256.7235,2.186778
255.3442,2.186926
255.3442,2.186926
254.8884,2.184126
254.6587,2.182161
254.4574,2.179347
254.4574,2.179347
254.4089,2.177424
254.3511,2.175397
254.2887,2.173157
254.2887,2.173157
254.0282,2.170258
253.8705,2.167671
253.6803,2.163179
253.6803,2.163179
252.0349,2.097612
251.2817,2.068128
250.9199,2.052714
250.9199,2.052714
250.7765,2.049385
250.6334,2.046055
250.4903,2.042726
250.4903,2.042726
250.4437,2.043823
250.4085,2.038916
250.3985,2.037416
250.3880,2.045134
250.3298,2.035812
250.3279,2.046550
250.3279,2.046550
250.3019,2.050384
250.2669,2.054324
250.2275,2.058477
250.1435,2.032733
250.1435,2.032733
249.9801,2.023347
249.8169,2.014173
249.6540,2.005106
248.8851,1.983217
248.8507,1.981312
248.8251,1.979406
248.8041,1.977500
248.8041,1.977500
248.4938,1.967841
248.2424,1.960827
248.0403,1.953704
248.0403,1.953704
246.8004,1.915226
245.9446,1.889547
245.0903,1.862809
245.0903,1.862809
244.6812,1.853438
244.2778,1.844280
243.8843,1.835227
243.8843,1.835227
243.6135,1.827155
243.3433,1.819189
243.0736,1.811436
243.0736,1.811436
242.6225,1.802863
242.4191,1.798302
242.2880,1.793842
242.2880,1.793842
241.9646,1.788282
241.6463,1.782933
241.3372,1.777690
241.3372,1.777690
241.1485,1.772457
240.9642,1.767223
240.7886,1.761989
240.7886,1.761989
240.6764,1.761996
240.5685,1.762003
240.4690,1.762010
240.4690,1.762010
240.4367,1.758691
240.4128,1.755478
240.3930,1.752478
240.3930,1.752478
240.1866,1.750248
239.9806,1.748230
239.7749,1.746318
239.7749,1.746318
239.7428,1.743477
239.7191,1.740741
239.6995,1.738217
239.5314,1.734413
239.5314,1.734413
239.5307,1.728074
239.5301,1.721521
239.5294,1.714863
239.3458,1.733613
239.1648,1.733024
238.9922,1.732540
238.9922,1.732540
238.7565,1.728406
238.5295,1.724481
238.3070,1.720664
238.3070,1.720664
237.7818,1.715029
237.2875,1.710982
236.4034,1.705053
236.1857,1.703160
235.5733,1.707527
235.1633,1.711140
234.6040,1.717093
234.6040,1.717093
234.1424,1.725088
233.8441,1.730636
233.5739,1.734804
233.5739,1.734804
233.3614,1.740063
233.1453,1.745323
232.9219,1.750583
232.9219,1.750583
232.7804,1.750593
232.6352,1.750603
232.4824,1.750613
232.4824,1.750613
232.4645,1.754447
232.4428,1.758386
232.4133,1.762538
232.4133,1.762538
232.1675,1.770361
231.8797,1.780200
231.5423,1.790254
231.5423,1.790254
231.3659,1.797895
231.1819,1.804584
230.8333,1.816052
230.8333,1.816052
230.8112,1.819391
230.7814,1.822730
230.7477,1.826070
230.7477,1.826070
230.7460,1.806520
230.6947,1.806224
230.6609,1.828602
230.6587,1.804125
230.6070,1.798424
230.5704,1.831346
230.4722,1.834196
230.4722,1.834196
230.4548,1.839442
230.4336,1.844688
230.4047,1.849936
230.4047,1.849936
230.2909,1.854729
230.2155,1.859309
230.1137,1.867598
230.1137,1.867598
230.0743,1.868096
230.0272,1.868699
229.9764,1.869515
229.9764,1.869515
229.5427,1.895276
229.2125,1.917427
228.7034,1.954956
228.7034,1.954956
228.6037,1.971105
228.5307,1.990642
228.4218,2.030314
228.4218,2.030314
228.2867,2.040814
228.1480,2.051314
228.0019,2.061814
228.0019,2.061814
227.7652,2.104396
227.5274,2.147021
227.2869,2.189736
227.0423,2.232586
227.0423,2.232586
227.0053,2.248819
226.9609,2.265157
226.9128,2.281709
226.9128,2.281709
226.7895,2.298439
226.6751,2.315050
226.5318,2.337703
226.3217,2.372560
226.0077,2.425782
225.5530,2.503530
225.5530,2.503530
225.0907,2.566534
224.7662,2.610626
224.5332,2.641705
224.3465,2.665668
224.1608,2.688413
223.9315,2.715836
223.9315,2.715836
223.8680,2.733501
223.8044,2.751272
223.7409,2.769254
223.2721,2.786931
223.0705,2.810311
222.9294,2.824785
222.7279,2.842760
222.7279,2.842760
222.7117,2.848501
222.6919,2.854348
222.6650,2.860408
222.6650,2.860408
222.5361,2.864249
222.4037,2.868197
222.2644,2.872358
222.2644,2.872358
222.2156,2.885077
222.1663,2.891756
222.0742,2.898121
222.0742,2.898121
222.0150,2.955344
222.0146,2.950099
222.0141,2.944854
222.0137,2.939609
222.0137,2.939609
221.9633,2.911144
221.9183,2.938804
221.8525,2.924380
221.8265,2.938210
221.7419,2.937722
221.7419,2.937722
221.5508,2.941551
221.4868,2.945988
221.4194,2.950638
221.3450,2.955394
##END=
