##TITLE=4-Nitrophenol
##JCAMP-DX=4.24
##DATA TYPE=UV/VIS SPECTRUM
##ORIGIN=INSTITUTE OF ENERGY PROBLEMS OF CHEMICAL PHYSICS, RAS
##OWNER=INEP CP RAS, NIST OSRD
Collection (C) 2007 copyright by the U.S. Secretary of Commerce
on behalf of the United States of America. All rights reserved.
##CAS REGISTRY NO=100-02-7
##MOLFORM=C6H5NO3
##MP=113.8
##SOURCE REFERENCE=RAS UV No. 99
##$NIST SQUIB=1951GRA220-226
##$NIST SOURCE=TSGMTE
##SPECTROMETER/DATA SYSTEM=n.i.g.
##XUNITS=Wavelength (nm)
##YUNITS=Logarithm epsilon
##XFACTOR=1.000000
##YFACTOR=1.000000
##FIRSTX=447.9148
##LASTX=234.7333
##FIRSTY=1.20884
##MAXX=447.915
##MINX=234.733
##MAXY=3.77181
##MINY=1.20884
##NPOINTS=245
##$REF AUTHOR=Grammaticakis, P.
##$REF TITLE=Contribution a l'etude de l'absorption dans l'ultraviolet moyen et le visible des arylamines isomeres et de leurs derives N substitues (Premier memoire)
##$REF JOURNAL=Bull. Soc. Chim. Fr.
##$REF VOLUME=18
##$REF PAGE=220-226
##$REF DATE=1951
##XYPOINTS=(XY..XY)
447.9148,1.208836
446.5682,1.250976
444.3556,1.303518
442.4235,1.352630
442.4235,1.352630
441.3722,1.372481
440.0170,1.410782
438.3775,1.453626
438.3775,1.453626
437.4210,1.464859
436.7581,1.476766
435.8202,1.499551
435.8202,1.499551
435.1861,1.533445
434.3840,1.562339
433.4675,1.605868
433.4675,1.605868
432.1451,1.627172
430.4750,1.659961
428.1149,1.700441
428.1149,1.700441
425.5560,1.772901
424.1303,1.818994
423.0322,1.841428
423.0322,1.841428
422.4537,1.861167
421.5281,1.884813
420.1640,1.927498
420.1640,1.927498
419.1759,1.945880
417.5826,1.981326
415.6517,2.026576
413.6440,2.074369
411.8112,2.117443
410.3965,2.148537
410.3965,2.148537
409.1868,2.187140
407.8654,2.223254
406.2777,2.267381
404.2748,2.330018
404.2748,2.330018
402.1210,2.375057
400.5508,2.415623
399.1615,2.447407
399.1615,2.447407
398.2686,2.472588
397.4591,2.494290
396.6526,2.514961
395.7703,2.537050
394.7344,2.563005
393.4693,2.595274
391.9021,2.636305
389.9634,2.688546
387.5884,2.754446
387.5884,2.754446
387.3243,2.758562
386.8716,2.767903
386.2262,2.782451
385.3849,2.802186
384.3445,2.827091
383.1033,2.857146
381.6598,2.892332
380.0134,2.932631
378.1644,2.978024
376.1137,3.028492
373.8631,3.084017
371.4151,3.144580
371.4151,3.144580
370.5091,3.156151
369.8014,3.168889
368.7107,3.184138
368.7107,3.184138
367.8888,3.206539
366.7362,3.231993
365.0778,3.265737
362.7485,3.313011
359.5986,3.379051
359.5986,3.379051
359.5855,3.384657
359.5721,3.390387
359.5581,3.396365
359.5581,3.396365
356.9396,3.433955
355.4302,3.459046
353.7216,3.493145
353.7216,3.493145
353.2053,3.496914
352.6793,3.500681
352.1326,3.504441
352.1326,3.504441
350.6471,3.532736
349.0480,3.558511
345.9930,3.603859
345.9930,3.603859
342.2998,3.648798
340.1586,3.672940
337.7053,3.696980
337.7053,3.696980
334.8523,3.717078
332.6593,3.734262
331.2733,3.741383
331.2733,3.741383
330.5785,3.749713
329.8665,3.758285
329.1475,3.766978
329.1475,3.766978
327.5368,3.770498
324.6985,3.771751
318.3608,3.771808
316.6688,3.759493
316.0243,3.758173
315.3911,3.756981
314.7779,3.756043
314.7779,3.756043
313.6866,3.749390
311.1045,3.738852
307.5087,3.721595
307.5087,3.721595
306.6573,3.712507
305.8270,3.703674
305.0094,3.694967
305.0094,3.694967
304.3480,3.692506
303.7060,3.690176
303.0744,3.688097
303.0744,3.688097
301.1824,3.664900
299.3175,3.641762
297.4786,3.618674
295.6646,3.595627
293.8744,3.572609
292.1069,3.549612
290.3611,3.526624
290.3611,3.526624
290.0675,3.518700
289.7819,3.510904
289.5115,3.503361
289.5115,3.503361
289.0446,3.499257
288.5867,3.495155
288.1451,3.491060
288.1451,3.491060
288.0283,3.486002
287.9262,3.481074
287.8313,3.476398
287.8313,3.476398
287.4373,3.470231
287.1213,3.467201
286.6128,3.464711
286.6128,3.464711
286.5534,3.460774
286.5014,3.456840
286.4641,3.452912
286.4641,3.452912
285.5004,3.431992
284.2965,3.410470
281.8450,3.369899
281.8450,3.369899
278.7684,3.296269
277.1030,3.256936
276.2142,3.238590
275.5048,3.227920
275.5048,3.227920
275.4516,3.221913
275.3980,3.216156
275.3444,3.210522
275.3444,3.210522
273.5722,3.177978
272.7052,3.158885
271.9872,3.136879
271.9872,3.136879
271.7793,3.135664
271.5717,3.134449
271.3645,3.133234
271.3645,3.133234
271.2146,3.124842
270.6691,3.108247
269.2913,3.071031
266.6739,3.000778
266.6739,3.000778
266.1170,2.991027
265.6383,2.976594
264.8291,2.945106
264.8291,2.945106
264.0061,2.925160
263.1942,2.905340
262.3994,2.885776
262.3994,2.885776
262.3510,2.880742
262.3086,2.875836
262.2783,2.871184
262.2783,2.871184
261.6324,2.854300
260.5699,2.820560
258.3112,2.750680
258.3112,2.750680
258.2161,2.740737
258.1269,2.731045
258.0495,2.721483
258.0495,2.721483
257.8610,2.721385
257.6728,2.721287
257.4849,2.721190
257.4849,2.721190
256.9482,2.700396
256.4194,2.679855
255.9043,2.659444
255.9043,2.659444
255.3179,2.647418
254.7457,2.635523
254.1815,2.623879
253.7672,2.620863
252.7807,2.620332
251.8019,2.619801
250.8307,2.619271
250.8307,2.619271
250.0306,2.645491
249.0202,2.684384
248.2316,2.710604
248.2316,2.710604
248.0717,2.736634
247.7987,2.763805
247.3423,2.806066
246.6336,2.877368
246.6336,2.877368
246.4107,2.886060
246.1454,2.918945
245.6114,3.004211
245.6114,3.004211
245.3160,3.005739
245.0159,3.007388
244.7054,3.009279
244.7054,3.009279
244.4696,3.021563
243.9699,3.045243
243.1188,3.095544
241.4606,3.134809
240.2980,3.157238
239.6646,3.167436
239.0125,3.174143
239.0125,3.174143
237.8802,3.216586
237.0579,3.245537
236.1397,3.274322
234.7333,3.316261
##END=
