##TITLE=Di-4-nitrophenyl sulfide
##JCAMP-DX=4.24
##DATA TYPE=UV/VIS SPECTRUM
##ORIGIN=INSTITUTE OF ENERGY PROBLEMS OF CHEMICAL PHYSICS, RAS
##OWNER=INEP CP RAS, NIST OSRD
Collection (C) 2007 copyright by the U.S. Secretary of Commerce
on behalf of the United States of America. All rights reserved.
##CAS REGISTRY NO=100-32-3
##MOLFORM=C12H8N2O4S2
##MP=175-177
##SOURCE REFERENCE=RAS UV No. 19711
##$NIST SQUIB=1961LAN199
##$NIST SOURCE=TYUGLMTE
##SPECTROMETER/DATA SYSTEM=Beckman DU
##XUNITS=Wavelength (nm)
##YUNITS=Logarithm epsilon
##XFACTOR=1.0
##YFACTOR=1.0
##FIRSTX=214.05
##LASTX=429.39
##FIRSTY=4.317
##MAXX=429.39
##MINX=214.05
##MAXY=4.317
##MINY=2.5
##NPOINTS=170
##$REF AUTHOR=Lang L.(ed.
##$REF JOURNAL=Absorption Spectra in the ultraviolet and visible region
##$REF VOLUME=1
##$REF PAGE=199
##$REF DATE=1961
##XYPOINTS=(XY..XY)
214.05,4.317
215.41,4.300
216.76,4.286
218.11,4.269
219.47,4.255
220.82,4.242
222.35,4.235
223.70,4.221
225.06,4.211
226.58,4.201
228.10,4.190
229.46,4.173
230.81,4.160
232.33,4.150
233.69,4.136
235.04,4.122
236.40,4.105
237.75,4.092
239.11,4.078
240.46,4.064
241.81,4.051
243.17,4.034
244.52,4.020
245.88,4.006
247.23,3.996
248.76,3.986
250.28,3.976
251.80,3.969
253.33,3.966
254.85,3.959
256.37,3.955
257.90,3.955
259.42,3.959
260.94,3.959
262.47,3.962
263.99,3.969
265.52,3.969
267.04,3.972
268.39,3.983
269.92,3.986
271.44,3.989
272.96,4.000
274.49,4.003
276.01,4.010
277.37,4.020
278.89,4.023
280.24,4.037
281.77,4.044
283.12,4.054
284.48,4.064
286.00,4.075
287.35,4.088
288.71,4.098
290.23,4.109
291.59,4.122
292.94,4.136
294.30,4.150
295.65,4.160
297.00,4.173
298.36,4.187
299.88,4.194
301.24,4.208
302.59,4.218
304.11,4.225
305.47,4.235
306.99,4.242
308.52,4.252
310.04,4.255
311.56,4.259
313.09,4.265
314.61,4.269
316.13,4.272
317.66,4.272
319.18,4.272
320.70,4.269
322.23,4.269
323.75,4.269
325.28,4.259
326.80,4.259
328.32,4.255
329.68,4.245
331.20,4.238
332.72,4.228
334.25,4.218
335.77,4.208
337.13,4.190
338.65,4.180
340.00,4.170
341.36,4.153
342.71,4.136
344.07,4.122
345.42,4.105
346.61,4.088
347.96,4.071
349.15,4.054
350.50,4.037
351.69,4.020
352.87,4.000
354.06,3.983
355.24,3.966
356.26,3.945
357.44,3.928
358.63,3.908
359.81,3.887
361.00,3.870
362.18,3.850
363.20,3.829
364.21,3.809
365.40,3.788
366.58,3.768
367.77,3.747
368.78,3.724
369.97,3.703
370.98,3.683
372.00,3.662
373.02,3.638
374.20,3.618
375.39,3.598
376.23,3.574
377.25,3.553
378.43,3.533
379.45,3.512
380.30,3.488
381.31,3.468
382.33,3.448
383.34,3.427
384.19,3.403
385.20,3.379
386.22,3.359
387.24,3.339
388.08,3.311
389.10,3.291
390.11,3.267
390.96,3.243
391.98,3.223
392.99,3.202
393.84,3.178
394.85,3.155
395.87,3.131
396.72,3.107
397.73,3.083
398.75,3.062
399.76,3.042
400.61,3.018
401.63,2.998
402.64,2.974
403.66,2.953
404.50,2.930
405.52,2.909
406.54,2.889
407.55,2.865
408.57,2.841
409.58,2.821
410.60,2.800
411.61,2.780
412.63,2.759
413.65,2.735
414.66,2.715
415.85,2.694
416.86,2.674
418.05,2.654
419.06,2.633
420.25,2.613
421.43,2.596
422.62,2.579
423.80,2.562
425.16,2.545
426.51,2.527
427.87,2.510
429.39,2.500
##END=
