##TITLE=1-Butanone, 1-(4-hydroxyphenyl)-
##JCAMP-DX=4.24
##DATA TYPE=UV/VIS SPECTRUM
##ORIGIN=INSTITUTE OF ENERGY PROBLEMS OF CHEMICAL PHYSICS, RAS
##OWNER=INEP CP RAS, NIST OSRD
Collection (C) 2007 copyright by the U.S. Secretary of Commerce
on behalf of the United States of America. All rights reserved.
##CAS REGISTRY NO=1009-11-6
##MOLFORM=C10H12O2
##MP=91
##SOURCE REFERENCE=RAS UV No. 19633
##$NIST SQUIB=1965LAN73
##$NIST SOURCE=TYUGLMTE
##SPECTROMETER/DATA SYSTEM=Beckman DU
##XUNITS=Wavelength (nm)
##YUNITS=Logarithm epsilon
##XFACTOR=1.0
##YFACTOR=1.0
##FIRSTX=216.6
##LASTX=367.81
##FIRSTY=4.121
##MAXX=367.81
##MINX=216.6
##MAXY=4.26
##MINY=1.272
##NPOINTS=198
##$REF AUTHOR=Lang (editor), L.
##$REF JOURNAL=Absorption Spectra in the Ultraviolet and Visible Region
##$REF VOLUME=5
##$REF PAGE=73
##$REF DATE=1965
##XYPOINTS=(XY..XY)
216.60,4.121
217.77,4.138
219.11,4.152
220.62,4.152
222.13,4.148
223.47,4.135
224.48,4.115
225.48,4.094
226.49,4.074
227.33,4.050
228.16,4.023
228.67,3.996
229.34,3.969
229.84,3.942
230.34,3.911
230.85,3.884
231.35,3.857
231.68,3.826
232.19,3.799
232.52,3.769
232.86,3.738
233.19,3.707
233.36,3.677
233.70,3.646
234.03,3.616
234.37,3.585
234.70,3.555
235.21,3.528
235.71,3.497
236.38,3.470
237.05,3.443
237.89,3.419
238.48,3.410
239.33,3.407
240.03,3.416
240.57,3.429
241.41,3.456
242.25,3.480
243.08,3.507
244.09,3.531
244.76,3.558
245.77,3.582
246.44,3.609
247.44,3.633
248.11,3.660
248.95,3.687
249.79,3.714
250.46,3.741
251.30,3.765
251.97,3.792
252.81,3.819
253.48,3.847
254.32,3.874
255.16,3.901
255.83,3.928
256.66,3.955
257.50,3.979
258.34,4.006
259.35,4.030
260.18,4.057
261.19,4.077
262.20,4.101
263.20,4.125
264.38,4.142
265.38,4.162
266.55,4.182
267.73,4.203
269.07,4.220
270.41,4.230
271.75,4.240
273.26,4.250
274.77,4.257
276.28,4.257
277.79,4.260
279.30,4.260
280.80,4.260
282.31,4.257
283.82,4.254
285.16,4.240
286.50,4.226
287.68,4.210
288.85,4.193
290.03,4.172
291.03,4.152
292.04,4.128
293.04,4.104
293.88,4.077
294.89,4.053
295.56,4.026
296.23,3.999
297.07,3.972
297.74,3.945
298.24,3.918
298.91,3.891
299.41,3.863
300.25,3.836
300.75,3.809
301.42,3.782
302.10,3.755
302.77,3.728
303.44,3.701
304.11,3.674
304.78,3.646
305.45,3.619
306.29,3.592
306.79,3.565
307.63,3.541
308.13,3.514
308.97,3.490
309.64,3.463
310.31,3.436
311.15,3.409
311.82,3.382
312.66,3.355
313.33,3.327
314.00,3.300
314.84,3.277
315.51,3.249
316.35,3.222
317.18,3.199
318.02,3.171
318.86,3.144
319.87,3.121
320.87,3.100
322.05,3.083
323.39,3.066
324.90,3.059
326.40,3.066
327.91,3.073
329.25,3.083
330.76,3.090
332.27,3.090
333.78,3.083
335.12,3.073
336.46,3.056
337.80,3.039
339.15,3.022
340.32,3.002
341.32,2.981
342.16,2.958
343.17,2.934
344.01,2.910
344.84,2.883
345.52,2.856
346.35,2.832
347.02,2.805
347.86,2.778
348.37,2.751
349.04,2.724
349.54,2.696
350.21,2.669
350.71,2.642
351.22,2.615
351.72,2.588
352.39,2.561
352.89,2.530
353.39,2.503
353.90,2.476
354.40,2.449
355.07,2.422
355.57,2.391
356.08,2.361
356.58,2.330
357.08,2.303
357.42,2.272
357.92,2.242
358.42,2.215
358.83,2.185
359.21,2.154
359.60,2.127
359.98,2.099
360.44,2.065
360.77,2.035
361.11,2.004
361.44,1.974
361.78,1.943
362.11,1.913
362.45,1.882
362.71,1.853
362.95,1.821
363.29,1.791
363.62,1.760
363.96,1.730
364.16,1.702
364.46,1.669
364.79,1.638
365.13,1.607
365.30,1.577
365.63,1.546
365.97,1.516
366.14,1.485
366.47,1.455
366.81,1.424
367.03,1.392
367.31,1.363
367.48,1.333
367.64,1.302
367.81,1.272
##END=
