##TITLE=Benzaldehyde, 3-hydroxy-
##JCAMP-DX=4.24
##DATA TYPE=UV/VIS SPECTRUM
##ORIGIN=INSTITUTE OF ENERGY PROBLEMS OF CHEMICAL PHYSICS, RAS
##OWNER=INEP CP RAS, NIST OSRD
Collection (C) 2007 copyright by the U.S. Secretary of Commerce
on behalf of the United States of America. All rights reserved.
##CAS REGISTRY NO=100-83-4
##MOLFORM=C7H6O2
##MP=105-106
##SOURCE REFERENCE=RAS UV No. 19145
##$NIST SQUIB=1967LAN39
##$NIST SOURCE=TYUGLMTE
##SPECTROMETER/DATA SYSTEM=Beckman DU
##XUNITS=Wavelength (nm)
##YUNITS=Logarithm epsilon
##XFACTOR=1.0
##YFACTOR=1.0
##FIRSTX=202.88
##LASTX=379.01
##FIRSTY=4.139
##MAXX=379.01
##MINX=202.88
##MAXY=4.217
##MINY=1.286
##NPOINTS=215
##$REF AUTHOR=Lang (editor), L.
##$REF JOURNAL=Absorption Spectra in the Ultraviolet and Visible Region
##$REF VOLUME=9
##$REF PAGE=39
##$REF DATE=1967
##XYPOINTS=(XY..XY)
202.88,4.139
204.40,4.145
205.92,4.142
207.44,4.135
208.97,4.128
210.49,4.135
212.01,4.142
213.20,4.159
214.38,4.180
215.57,4.197
217.09,4.203
218.44,4.214
219.97,4.217
221.49,4.207
222.84,4.190
223.86,4.169
224.70,4.142
225.38,4.115
226.06,4.088
226.56,4.060
227.07,4.033
227.58,4.006
228.09,3.975
228.42,3.945
228.93,3.917
229.44,3.887
229.78,3.856
230.29,3.829
230.79,3.802
231.13,3.771
231.47,3.740
231.98,3.710
232.49,3.679
232.99,3.652
233.50,3.625
234.18,3.597
234.69,3.570
235.70,3.546
237.22,3.546
238.07,3.570
238.91,3.597
239.59,3.625
240.27,3.652
241.11,3.679
241.79,3.706
242.47,3.734
243.48,3.757
244.16,3.785
245.01,3.808
245.85,3.836
246.70,3.860
247.54,3.887
248.56,3.907
249.41,3.931
250.59,3.948
251.77,3.965
252.96,3.982
254.31,3.996
255.83,4.003
257.36,4.006
258.88,3.999
260.40,3.992
261.59,3.975
262.43,3.951
263.45,3.931
264.46,3.907
265.31,3.880
265.99,3.853
266.83,3.829
267.34,3.802
268.02,3.774
268.69,3.747
269.03,3.717
269.54,3.686
270.05,3.659
270.55,3.628
271.06,3.597
271.40,3.567
271.91,3.540
272.25,3.509
272.75,3.478
273.09,3.448
273.60,3.420
274.11,3.393
274.62,3.362
274.95,3.332
275.46,3.305
275.80,3.274
276.31,3.247
276.81,3.219
277.32,3.192
277.83,3.165
278.34,3.138
278.85,3.111
279.35,3.080
279.69,3.049
280.37,3.022
280.88,2.995
281.38,2.968
282.40,2.944
283.41,2.923
284.94,2.917
285.95,2.937
287.14,2.957
288.15,2.981
289.00,3.005
289.89,3.034
290.69,3.056
291.70,3.082
292.55,3.104
293.57,3.129
294.46,3.150
295.56,3.180
296.44,3.199
297.46,3.219
298.47,3.240
299.49,3.264
300.50,3.284
301.69,3.305
302.87,3.322
304.06,3.339
305.24,3.356
306.42,3.373
307.78,3.386
309.13,3.403
310.48,3.417
312.01,3.424
313.36,3.434
314.88,3.437
316.41,3.444
317.93,3.441
319.45,3.434
320.97,3.424
322.33,3.414
323.68,3.400
325.04,3.383
326.39,3.366
327.57,3.349
328.76,3.332
329.77,3.308
330.96,3.288
331.97,3.264
332.99,3.243
333.83,3.219
334.85,3.196
335.86,3.172
336.71,3.145
337.56,3.121
338.40,3.094
339.25,3.066
339.92,3.039
340.43,3.012
341.28,2.988
341.79,2.961
342.63,2.934
343.14,2.906
343.82,2.879
344.32,2.852
344.83,2.825
345.51,2.797
346.02,2.770
346.69,2.743
347.20,2.716
347.88,2.688
348.55,2.661
349.06,2.634
349.74,2.607
350.25,2.576
350.75,2.549
351.43,2.522
352.11,2.494
352.78,2.467
353.29,2.440
353.97,2.413
354.64,2.385
355.15,2.358
355.83,2.331
356.51,2.304
357.18,2.276
357.86,2.249
358.54,2.222
359.21,2.195
359.89,2.168
360.57,2.140
361.07,2.113
361.75,2.086
362.43,2.059
363.00,2.035
363.78,2.004
364.46,1.977
365.13,1.950
365.81,1.922
366.32,1.895
367.00,1.868
367.67,1.841
368.35,1.813
369.03,1.786
369.70,1.759
370.38,1.732
370.89,1.705
371.56,1.677
372.07,1.650
372.58,1.623
373.26,1.596
373.76,1.565
374.27,1.538
374.95,1.510
375.46,1.483
375.96,1.456
376.47,1.429
376.81,1.398
377.49,1.371
377.99,1.344
378.50,1.313
379.01,1.286
##END=
