##TITLE=Neopentylbenzene
##JCAMP-DX=4.24
##DATA TYPE=UV/VIS SPECTRUM
##ORIGIN=INSTITUTE OF ENERGY PROBLEMS OF CHEMICAL PHYSICS, RAS
##OWNER=INEP CP RAS, NIST OSRD
Collection (C) 2007 copyright by the U.S. Secretary of Commerce
on behalf of the United States of America. All rights reserved.
##CAS REGISTRY NO=1007-26-7
##MOLFORM=C11H16
##BP=186
##SOURCE REFERENCE=RAS UV No. 4162
##$NIST SQUIB=1967NAG/REF393-404
##$NIST SOURCE=TSGMTE
##SPECTROMETER/DATA SYSTEM=Spectronom 201 UV
##XUNITS=Wavelength (nm)
##YUNITS=Logarithm epsilon
##XFACTOR=1.000000
##YFACTOR=1.000000
##FIRSTX=206.1943
##LASTX=275.8066
##FIRSTY=3.46122
##MAXX=275.807
##MINX=206.194
##MAXY=3.67449
##MINY=0.93334
##NPOINTS=183
##$REF AUTHOR=Nagy, J.; Reffy, J.; Kuszmann-Borbely, A.; Palossy-Becker, K.
##$REF TITLE=Bond structure in the aryl derivatives of the elements of group IV/1
##$REF JOURNAL=J. Organomet. Chem.
##$REF VOLUME=7
##$REF PAGE=393-404
##$REF DATE=1967
##XYPOINTS=(XY..XY)
206.1943,3.461219
206.5913,3.503544
207.1650,3.543784
207.8787,3.580818
208.6959,3.613527
209.5797,3.640789
210.4936,3.661484
211.4010,3.674491
211.4010,3.674491
212.1029,3.665062
212.8229,3.646943
213.5487,3.621494
214.2678,3.590072
214.9681,3.554035
215.6371,3.514740
216.2625,3.473543
216.8319,3.431804
217.3331,3.390879
217.7536,3.352127
218.0812,3.316904
218.0812,3.316904
218.3573,3.268575
218.6335,3.220245
218.9100,3.171916
219.1870,3.123587
219.4645,3.075259
219.7428,3.026931
220.0220,2.978603
220.3023,2.930276
220.3023,2.930276
220.4763,2.888353
220.6527,2.846510
220.8317,2.804744
221.0132,2.763049
221.1973,2.721421
221.3840,2.679856
221.5734,2.638349
221.7655,2.596894
221.9602,2.555489
222.1577,2.514126
222.3580,2.472804
222.5611,2.431516
222.7670,2.390257
222.9758,2.349025
223.1876,2.307813
223.4022,2.266617
223.6198,2.225433
223.8404,2.184256
224.0641,2.143081
224.2908,2.101903
224.5206,2.060719
224.7536,2.019523
224.9897,1.978311
225.2290,1.937077
225.4715,1.895819
225.7173,1.854531
225.9663,1.813207
226.2187,1.771845
226.4745,1.730438
226.7336,1.688983
226.9962,1.647475
226.9962,1.647475
227.3539,1.607127
227.7845,1.563710
228.3121,1.521921
228.9608,1.486449
229.7547,1.461989
230.7177,1.453233
230.7177,1.453233
231.4598,1.478526
232.1717,1.507328
232.8567,1.539016
233.5179,1.572973
234.1583,1.608575
234.7812,1.645204
235.3898,1.682238
235.9871,1.719059
236.5763,1.755044
237.1606,1.789574
237.1606,1.789574
238.0661,1.830645
239.2577,1.887830
239.8893,1.932145
239.8893,1.932145
240.8217,1.956609
241.7510,1.993734
242.6294,2.029262
242.6294,2.029262
243.7790,2.057253
244.6628,2.067291
245.9746,2.060808
245.9746,2.060808
245.9759,2.055663
245.9772,2.050376
245.9786,2.044803
245.9786,2.044803
246.0463,2.044846
246.1198,2.044892
246.1961,2.044939
246.1961,2.044939
246.8839,2.006510
247.5145,1.973719
248.1377,1.950670
248.8033,1.941467
249.5611,1.950214
250.4610,1.981016
250.4610,1.981016
250.9763,2.023367
251.4322,2.062761
251.9352,2.095577
252.5919,2.118193
253.5088,2.126988
253.5088,2.126988
253.6205,2.120204
253.6758,2.111109
253.7223,2.091906
253.7223,2.091906
253.8252,2.091970
253.9308,2.092036
254.0422,2.092106
254.0422,2.092106
254.0955,2.079997
254.2109,2.069777
254.4872,2.052686
254.4872,2.052686
255.3379,2.038278
255.9998,2.041196
256.5210,2.057548
256.9495,2.083439
257.3334,2.114975
257.7208,2.148261
258.1597,2.179403
258.6982,2.204508
258.6982,2.204508
259.2481,2.202432
259.5889,2.194678
260.0248,2.170761
260.0248,2.170761
260.5674,2.120006
261.1106,2.069250
261.6551,2.018495
262.2014,1.967742
262.7502,1.916990
262.7502,1.916990
263.4647,1.904024
263.9417,1.904302
264.2433,1.914793
264.4320,1.932470
264.5698,1.954305
264.7192,1.977270
264.9424,1.998336
265.3017,2.014476
265.8592,2.022661
265.8592,2.022661
266.4066,1.977756
266.9033,1.930259
267.3928,1.877634
267.3928,1.877634
267.8748,1.845921
268.3595,1.814209
268.8500,1.782501
268.8500,1.782501
268.9700,1.768475
269.0800,1.754815
269.1957,1.738869
269.3332,1.717986
269.5083,1.689510
269.7371,1.650792
270.0354,1.599179
270.4192,1.532016
270.9045,1.446655
271.5072,1.340440
271.5072,1.340440
271.8623,1.298434
272.2313,1.256845
272.6152,1.215630
273.0151,1.174734
273.4320,1.134110
273.8669,1.093709
274.3208,1.053482
274.7947,1.013377
275.2897,0.973345
275.8066,0.933340
##END=
