##TITLE=p-N,N-Dimethylaminobenzaldehyde (s.ar?)
##JCAMP-DX=4.24
##DATA TYPE=UV/VIS SPECTRUM
##ORIGIN=INSTITUTE OF ENERGY PROBLEMS OF CHEMICAL PHYSICS, RAS
##OWNER=INEP CP RAS, NIST OSRD
Collection (C) 2007 copyright by the U.S. Secretary of Commerce
on behalf of the United States of America. All rights reserved.
##CAS REGISTRY NO=100-10-7
##MOLFORM=C9H11NO
##MP=75
##SOURCE REFERENCE=RAS UV No. 18982
##$NIST SQUIB=1972LAN37
##$NIST SOURCE=TYUGLMTE
##SPECTROMETER/DATA SYSTEM=Unicam SP 800
##XUNITS=Wavelength (nm)
##YUNITS=Logarithm epsilon
##XFACTOR=1.0
##YFACTOR=1.0
##FIRSTX=210.37
##LASTX=389.8
##FIRSTY=3.723
##MAXX=389.8
##MINX=210.37
##MAXY=4.457
##MINY=2.027
##NPOINTS=179
##$REF AUTHOR=Lang (editor), L.
##$REF JOURNAL=Absorption Spectra in the Ultraviolet and Visible Region
##$REF VOLUME=17
##$REF PAGE=37
##$REF DATE=1972
##XYPOINTS=(XY..XY)
210.37,3.723
210.48,3.714
210.73,3.702
211.10,3.689
211.67,3.670
212.40,3.645
213.39,3.622
214.38,3.598
215.46,3.580
216.51,3.569
217.50,3.563
218.52,3.559
219.46,3.556
220.56,3.556
221.64,3.558
222.60,3.559
223.62,3.563
224.75,3.569
225.66,3.576
226.68,3.587
227.70,3.597
228.72,3.611
229.74,3.628
230.76,3.645
231.78,3.662
232.71,3.682
233.81,3.706
234.83,3.723
235.85,3.744
236.87,3.761
237.89,3.778
238.91,3.792
239.93,3.805
240.87,3.814
241.97,3.822
242.99,3.819
244.01,3.815
244.97,3.807
246.05,3.795
247.07,3.771
248.09,3.740
249.11,3.706
251.15,3.617
252.17,3.556
252.97,3.487
254.21,3.372
255.23,3.276
256.24,3.177
257.26,3.071
258.28,2.982
259.30,2.883
260.32,2.791
261.34,2.733
262.36,2.672
263.38,2.586
264.40,2.532
265.42,2.518
266.44,2.522
267.46,2.535
268.48,2.576
269.50,2.644
270.52,2.709
271.54,2.764
272.56,2.808
273.58,2.853
274.60,2.907
275.62,2.952
276.64,3.003
277.66,3.040
278.85,3.084
279.69,3.116
280.71,3.163
281.73,3.211
282.75,3.252
283.77,3.286
284.79,3.327
285.81,3.361
286.82,3.398
287.85,3.423
288.87,3.450
289.89,3.481
290.91,3.512
291.93,3.538
292.95,3.563
293.97,3.587
294.99,3.611
295.95,3.635
297.03,3.662
298.05,3.689
299.07,3.710
300.08,3.730
301.16,3.752
302.12,3.774
303.13,3.794
304.16,3.809
305.18,3.826
306.20,3.846
307.19,3.865
308.25,3.885
309.26,3.904
310.28,3.921
311.29,3.944
312.32,3.969
313.34,3.990
314.36,4.017
315.38,4.037
316.37,4.062
317.42,4.085
318.44,4.112
319.46,4.133
320.48,4.153
321.50,4.181
322.51,4.205
323.53,4.232
324.57,4.260
325.57,4.283
326.54,4.307
327.61,4.327
328.63,4.345
329.65,4.365
330.69,4.381
331.69,4.396
332.71,4.409
333.73,4.423
334.75,4.437
335.81,4.445
336.79,4.450
337.81,4.454
338.83,4.457
339.85,4.457
340.87,4.457
341.89,4.457
342.91,4.454
343.93,4.450
344.92,4.444
345.96,4.437
346.93,4.427
348.00,4.416
349.02,4.399
350.04,4.386
351.06,4.368
352.08,4.351
353.10,4.324
354.12,4.304
355.14,4.273
356.16,4.242
357.18,4.211
358.20,4.177
359.22,4.143
360.24,4.095
361.26,4.048
362.28,3.993
363.30,3.942
364.32,3.884
365.34,3.829
366.36,3.761
367.37,3.699
368.39,3.634
369.41,3.570
370.43,3.501
371.45,3.423
372.47,3.351
373.49,3.283
374.51,3.208
375.53,3.129
376.55,3.044
377.57,2.962
378.59,2.873
379.61,2.791
380.63,2.692
381.65,2.621
382.67,2.539
383.69,2.467
384.71,2.375
385.73,2.293
386.75,2.221
387.53,2.183
388.59,2.113
389.80,2.027
##END=
