##TITLE=2-amino-3,5,7,8-tetrahydro-4,6-pteridinedione
##JCAMP-DX=4.24
##DATA TYPE=UV/VIS SPECTRUM
##ORIGIN=INSTITUTE OF ENERGY PROBLEMS OF CHEMICAL PHYSICS, RAS
##OWNER=INEP CP RAS, NIST OSRD
Collection (C) 2007 copyright by the U.S. Secretary of Commerce
on behalf of the United States of America. All rights reserved.
##CAS REGISTRY NO=1011-23-0
##MOLFORM=C6H7N5O2
##MP=dec.>285
##SOURCE REFERENCE=RAS UV No. 23655
##$NIST SQUIB=1974PFL785
##$NIST SOURCE=TYUGLMTE
##SPECTROMETER/DATA SYSTEM=Cary 15
##XUNITS=Wavelength (nm)
##YUNITS=Logarithm epsilon
##XFACTOR=1.0
##YFACTOR=1.0
##FIRSTX=212.463
##LASTX=338.395
##FIRSTY=4.218
##MAXX=338.395
##MINX=212.463
##MAXY=4.415
##MINY=3.281
##NPOINTS=89
##$REF AUTHOR=Pfleiderer, W.
##$REF JOURNAL=Chem. Ber.
##$REF VOLUME=107
##$REF PAGE=785
##$REF DATE=1974
##XYPOINTS=(XY..XY)
212.463,4.218
212.661,4.217
214.161,4.239
215.661,4.268
217.161,4.303
218.661,4.338
220.161,4.370
221.661,4.396
223.161,4.412
224.661,4.415
226.161,4.403
227.661,4.376
229.161,4.334
230.418,4.281
231.918,4.228
233.418,4.127
234.918,3.998
236.418,3.861
237.918,3.734
239.418,3.635
239.494,3.634
240.994,3.572
242.494,3.538
243.994,3.519
245.494,3.512
246.994,3.515
248.494,3.527
249.994,3.552
251.494,3.589
251.529,3.590
253.029,3.632
254.529,3.676
256.029,3.721
257.529,3.766
259.029,3.807
260.529,3.846
262.029,3.882
263.529,3.914
265.029,3.942
266.327,3.964
267.827,3.986
269.327,4.005
270.827,4.021
272.327,4.034
273.827,4.042
275.327,4.044
276.827,4.038
278.327,4.023
279.827,4.000
281.327,3.969
282.827,3.931
284.281,3.892
285.781,3.853
287.281,3.824
288.781,3.802
290.281,3.788
291.781,3.781
293.281,3.780
294.781,3.784
296.281,3.792
297.781,3.803
299.281,3.816
300.781,3.830
301.052,3.831
302.552,3.843
304.052,3.855
305.552,3.866
307.052,3.874
308.552,3.881
310.052,3.884
311.552,3.884
313.052,3.881
314.552,3.875
316.052,3.865
317.552,3.851
319.052,3.833
320.552,3.812
322.052,3.786
323.395,3.758
324.895,3.727
326.395,3.691
327.895,3.652
329.395,3.613
330.895,3.571
332.395,3.526
333.895,3.475
335.395,3.417
336.895,3.352
338.395,3.281
##END=
