##TITLE=Diphenyl ether
##JCAMP-DX=4.24
##DATA TYPE=UV/VIS SPECTRUM
##ORIGIN=INSTITUTE OF ENERGY PROBLEMS OF CHEMICAL PHYSICS, RAS
##OWNER=INEP CP RAS, NIST OSRD
Collection (C) 2007 copyright by the U.S. Secretary of Commerce
on behalf of the United States of America. All rights reserved.
##CAS REGISTRY NO=101-84-8
##MOLFORM=C12H10O
##MP=26.8
##BP=258
##SOURCE REFERENCE=RAS UV No. 9018
##$NIST SQUIB=1966TIMd11/26C
##$NIST SOURCE=TSGMTE
##SPECTROMETER/DATA SYSTEM=Unicam SP 700
##XUNITS=Wavelength (nm)
##YUNITS=Logarithm epsilon
##XFACTOR=1.000000
##YFACTOR=1.000000
##FIRSTX=289.1879
##LASTX=196.9480
##FIRSTY=1.27945
##MAXX=289.188
##MINX=196.948
##MAXY=4.62449
##MINY=1.27945
##NPOINTS=189
##$REF AUTHOR=Timmons, C.J.
##$REF TITLE=Diphenyl ether
##$REF BOOK TITLE=UV Atlas of Organic Compoiunds - Vol. 2
##$REF PAGE=D11/26
##$REF DATE=1966
##$REF PUBLISHER=Plenum Press
##$REF LOCATION=New York
##XYPOINTS=(XY..XY)
289.1879,1.279448
288.9188,1.340936
288.6861,1.394054
288.4845,1.439863
288.3088,1.479424
288.1536,1.513803
288.0136,1.544058
287.8837,1.571252
287.7588,1.596449
287.6336,1.620707
287.5029,1.645092
287.3617,1.670664
287.2049,1.698485
287.0272,1.729617
286.8238,1.765122
286.8238,1.765122
286.7250,1.778389
286.5658,1.810924
286.3637,1.856742
286.1361,1.909856
285.9003,1.964281
285.6735,2.014031
285.4727,2.053121
285.3151,2.075564
285.3151,2.075564
285.1722,2.109583
285.0315,2.143638
284.8925,2.177728
284.7550,2.211849
284.6186,2.245998
284.4828,2.280173
284.3474,2.314370
284.2119,2.348587
284.0761,2.382820
283.9395,2.417067
283.8017,2.451325
283.6625,2.485590
283.5215,2.519860
283.3783,2.554131
283.2325,2.588402
283.0839,2.622668
282.9320,2.656927
282.7766,2.691177
282.6172,2.725413
282.4535,2.759633
282.2852,2.793835
282.1120,2.828014
281.9335,2.862169
281.7493,2.896296
281.5592,2.930392
281.3628,2.964455
281.1598,2.998481
280.9499,3.032467
280.7326,3.066411
280.7326,3.066411
279.7896,3.155845
279.3660,3.192703
279.0946,3.208579
279.0946,3.208579
278.7193,3.213844
278.5700,3.218818
278.5006,3.225785
278.3393,3.212964
277.4841,3.193401
277.0602,3.165899
276.1206,3.141209
275.8655,3.133778
275.8008,3.138873
275.7053,3.141004
275.3809,3.143542
275.3809,3.143542
275.0161,3.163382
274.5752,3.184708
273.9423,3.200282
273.9423,3.200282
273.4871,3.225351
272.9612,3.249739
272.1414,3.271913
272.1414,3.271913
271.8761,3.271922
271.6113,3.271931
271.3470,3.271940
271.3470,3.271940
270.3584,3.243822
269.3770,3.216104
267.9243,3.190739
267.9243,3.190739
266.8183,3.191947
265.8101,3.194348
264.6738,3.196241
264.6738,3.196241
263.9848,3.187230
263.2322,3.177709
262.4444,3.166308
262.4444,3.166308
262.0938,3.150064
261.4204,3.130869
260.9787,3.110695
260.9787,3.110695
260.3579,3.095241
259.8242,3.077903
258.6024,3.063839
258.6024,3.063839
258.2025,3.055379
257.7963,3.046863
257.3876,3.038232
257.3876,3.038232
256.2977,3.021314
255.7086,3.012074
255.4119,3.005216
255.4119,3.005216
254.3885,2.989160
253.3511,2.971795
252.0407,2.960198
251.8455,2.959180
250.6123,2.965148
250.2228,2.973933
249.7714,2.988250
249.7714,2.988250
249.1795,3.021520
248.6307,3.055072
248.1208,3.088868
247.6456,3.122872
247.2013,3.157044
246.7838,3.191347
246.3892,3.225743
246.0139,3.260196
245.6540,3.294667
245.3058,3.329118
244.9657,3.363511
244.6301,3.397810
244.2953,3.431976
243.9580,3.465972
243.6145,3.499759
243.6145,3.499759
243.1196,3.538440
242.6266,3.577006
242.1356,3.615515
242.1356,3.615515
241.5249,3.649169
240.9070,3.682612
240.2676,3.715698
239.5928,3.748281
238.8690,3.780214
238.0830,3.811350
237.2220,3.841544
236.2737,3.870648
235.2265,3.898516
234.0695,3.925002
232.7926,3.949959
231.3864,3.973241
229.8427,3.994700
229.8427,3.994700
229.7119,4.001718
229.6108,4.005314
229.4528,4.008571
229.4528,4.008571
228.1128,4.018526
226.8032,4.029335
225.8588,4.035680
225.8588,4.035680
224.0306,4.035001
222.2291,4.034322
220.4507,4.033643
220.4507,4.033643
217.9861,4.045734
216.0147,4.068517
214.1110,4.101446
214.1110,4.101446
213.5534,4.118634
212.8448,4.141469
212.0099,4.169074
211.0733,4.200569
210.0587,4.235075
208.9898,4.271713
207.8890,4.309604
206.7780,4.347869
206.7780,4.347869
206.4421,4.357418
205.4274,4.388442
202.9419,4.463791
202.9419,4.463791
202.2207,4.485231
200.9299,4.521528
200.2229,4.542968
200.2229,4.542968
199.6482,4.556847
198.5965,4.583697
196.9480,4.624495
##END=
