##TITLE=Benzo[b]thiophene, 4-nitro-
##JCAMP-DX=4.24
##DATA TYPE=UV/VIS SPECTRUM
##ORIGIN=INSTITUTE OF ENERGY PROBLEMS OF CHEMICAL PHYSICS, RAS
##OWNER=INEP CP RAS, NIST OSRD
Collection (C) 2007 copyright by the U.S. Secretary of Commerce
on behalf of the United States of America. All rights reserved.
##CAS REGISTRY NO=10133-34-3
##MOLFORM=C8H5NO2S
##MP=84
##SOURCE REFERENCE=RAS UV No. 19687
##$NIST SQUIB=1963LAN351
##$NIST SOURCE=TYUGLMTE
##SPECTROMETER/DATA SYSTEM=SF-4
##XUNITS=Wavelength (nm)
##YUNITS=Logarithm epsilon
##XFACTOR=1.0
##YFACTOR=1.0
##FIRSTX=229
##LASTX=418.79
##FIRSTY=3.999
##MAXX=418.79
##MINX=229
##MAXY=4.122
##MINY=1.916
##NPOINTS=199
##$REF AUTHOR=Lang (editor), L.
##$REF JOURNAL=Absorption Spectra in the Ultraviolet and Visible Region
##$REF VOLUME=4
##$REF PAGE=351
##$REF DATE=1963
##XYPOINTS=(XY..XY)
229.00,3.999
230.53,4.003
232.06,4.003
233.58,4.006
235.11,4.006
236.47,4.016
237.99,4.020
239.52,4.023
241.04,4.030
242.57,4.037
243.93,4.047
245.45,4.057
246.81,4.071
248.17,4.085
249.53,4.102
250.88,4.112
252.41,4.122
253.93,4.122
255.46,4.122
256.99,4.119
258.34,4.105
259.53,4.085
260.38,4.061
261.06,4.033
261.74,4.006
262.08,3.975
262.58,3.945
262.92,3.914
263.26,3.883
263.77,3.856
264.11,3.825
264.45,3.794
264.79,3.764
265.13,3.733
265.30,3.702
265.64,3.671
265.81,3.641
266.15,3.610
266.32,3.579
266.66,3.548
266.82,3.518
266.99,3.487
267.33,3.456
267.50,3.425
267.84,3.395
268.18,3.364
268.35,3.333
268.69,3.302
269.03,3.272
269.20,3.241
269.54,3.210
269.88,3.179
270.22,3.149
270.56,3.118
270.90,3.087
271.27,3.061
271.74,3.029
272.08,2.998
272.59,2.968
273.27,2.940
274.46,2.923
275.98,2.913
277.50,2.916
278.87,2.927
280.28,2.940
281.58,2.957
282.77,2.975
283.96,2.992
285.14,3.012
286.33,3.033
287.52,3.053
288.53,3.077
289.59,3.100
290.69,3.124
291.59,3.145
292.61,3.169
293.79,3.190
294.64,3.214
295.66,3.234
296.68,3.255
297.69,3.275
298.71,3.299
299.73,3.319
300.75,3.340
301.93,3.360
302.95,3.384
304.14,3.405
305.33,3.422
306.51,3.442
307.70,3.463
308.89,3.483
310.07,3.504
311.26,3.521
312.45,3.538
313.64,3.555
314.82,3.572
316.18,3.589
317.54,3.606
318.89,3.623
320.25,3.637
321.44,3.654
322.96,3.664
324.32,3.678
325.68,3.692
327.04,3.705
328.56,3.716
330.09,3.723
331.45,3.733
332.97,3.740
334.49,3.748
335.85,3.753
337.38,3.757
338.94,3.760
340.42,3.762
341.90,3.763
343.49,3.764
345.01,3.764
346.54,3.764
348.16,3.761
349.59,3.760
351.12,3.757
352.65,3.753
354.00,3.747
355.70,3.740
357.04,3.733
358.58,3.723
359.94,3.709
361.33,3.696
362.57,3.684
364.01,3.668
365.37,3.654
366.72,3.637
367.91,3.620
369.10,3.600
370.28,3.579
371.47,3.559
372.66,3.538
373.68,3.518
374.69,3.494
375.88,3.473
376.90,3.453
377.75,3.429
378.77,3.405
379.61,3.381
380.63,3.357
381.31,3.330
382.16,3.306
383.01,3.282
383.85,3.258
384.53,3.231
385.38,3.207
386.23,3.183
387.08,3.156
387.92,3.128
388.77,3.101
389.45,3.074
390.47,3.050
391.15,3.022
391.99,2.995
392.67,2.968
393.52,2.944
394.20,2.916
395.05,2.893
395.56,2.865
396.40,2.841
397.08,2.814
397.93,2.787
398.61,2.759
399.29,2.732
400.14,2.705
400.81,2.677
401.66,2.650
402.17,2.623
403.02,2.599
403.53,2.571
404.38,2.544
404.88,2.517
405.73,2.489
406.24,2.462
407.09,2.435
407.60,2.408
408.28,2.380
408.96,2.353
409.63,2.326
410.31,2.298
410.82,2.271
411.50,2.244
412.01,2.216
412.69,2.189
413.36,2.162
414.04,2.134
414.72,2.107
415.23,2.080
415.91,2.052
416.42,2.025
417.10,1.998
417.61,1.970
418.11,1.943
418.79,1.916
##END=
