##TITLE=1,4-Benzenediamine, N-phenyl-
##JCAMP-DX=4.24
##DATA TYPE=UV/VIS SPECTRUM
##ORIGIN=INSTITUTE OF ENERGY PROBLEMS OF CHEMICAL PHYSICS, RAS
##OWNER=INEP CP RAS, NIST OSRD
Collection (C) 2007 copyright by the U.S. Secretary of Commerce
on behalf of the United States of America. All rights reserved.
##CAS REGISTRY NO=101-54-2
##MOLFORM=C12H12N2
##MP=73-75
##SOURCE REFERENCE=RAS UV No. 19012
##$NIST SQUIB=1975LAN183
##$NIST SOURCE=TYUGLMTE
##SPECTROMETER/DATA SYSTEM=Unicam SP 800
##XUNITS=Wavelength (nm)
##YUNITS=Logarithm epsilon
##XFACTOR=1.0
##YFACTOR=1.0
##FIRSTX=202.02
##LASTX=377.76
##FIRSTY=4.647
##MAXX=377.76
##MINX=202.02
##MAXY=4.647
##MINY=0.733
##NPOINTS=213
##$REF AUTHOR=Lang (editor), L.
##$REF JOURNAL=Absorption Spectra in the Ultraviolet and Visible Region
##$REF VOLUME=20
##$REF PAGE=183
##$REF DATE=1975
##XYPOINTS=(XY..XY)
202.02,4.647
203.54,4.647
204.89,4.630
205.73,4.606
206.74,4.582
207.41,4.554
208.09,4.527
208.76,4.500
209.27,4.472
209.77,4.445
210.28,4.417
210.78,4.390
211.29,4.359
211.63,4.328
212.13,4.297
212.47,4.266
212.81,4.236
213.14,4.205
213.48,4.174
213.99,4.147
214.38,4.117
214.83,4.088
215.33,4.061
215.84,4.033
216.51,4.006
217.02,3.979
217.69,3.951
218.53,3.924
219.21,3.896
220.05,3.872
221.06,3.848
222.41,3.831
223.76,3.821
225.27,3.814
226.79,3.814
228.31,3.807
229.82,3.800
231.34,3.797
232.86,3.793
234.37,3.797
235.72,3.811
237.24,3.821
238.59,3.831
239.93,3.845
241.45,3.848
242.80,3.859
244.31,3.862
245.83,3.865
247.35,3.872
248.86,3.872
250.38,3.872
251.90,3.876
253.41,3.876
254.76,3.886
256.28,3.893
257.63,3.907
258.97,3.920
260.15,3.937
261.33,3.955
262.51,3.975
263.69,3.992
264.87,4.013
266.05,4.033
267.23,4.054
268.41,4.071
269.59,4.088
270.94,4.105
272.12,4.123
273.46,4.140
274.81,4.157
276.16,4.174
277.51,4.191
278.86,4.205
280.20,4.219
281.55,4.232
282.90,4.243
284.42,4.249
285.93,4.260
287.45,4.260
288.97,4.263
290.48,4.256
291.83,4.243
293.35,4.232
294.86,4.222
296.21,4.208
297.56,4.195
298.74,4.174
299.75,4.153
300.76,4.129
301.94,4.112
302.95,4.092
303.79,4.064
304.80,4.040
305.81,4.020
306.99,3.999
307.84,3.975
308.85,3.951
309.86,3.931
310.70,3.903
311.54,3.876
312.72,3.855
313.73,3.831
314.58,3.807
315.42,3.783
316.26,3.759
317.10,3.735
317.95,3.708
318.79,3.684
319.63,3.656
320.39,3.630
321.15,3.605
321.99,3.578
322.70,3.552
323.37,3.526
324.09,3.500
324.91,3.474
325.78,3.446
326.59,3.419
327.42,3.395
328.39,3.368
329.11,3.346
330.08,3.317
330.87,3.292
331.76,3.266
332.44,3.238
333.28,3.214
333.95,3.187
334.80,3.163
335.47,3.135
336.31,3.111
336.99,3.084
337.66,3.057
338.50,3.033
339.01,3.005
339.68,2.978
340.36,2.950
340.86,2.923
341.70,2.895
342.38,2.868
342.88,2.841
343.56,2.813
344.06,2.786
344.91,2.758
345.41,2.731
345.92,2.704
346.59,2.676
347.10,2.649
347.60,2.621
348.11,2.594
348.61,2.566
349.12,2.539
349.62,2.512
350.30,2.484
350.80,2.457
351.14,2.426
351.48,2.395
352.15,2.368
352.49,2.337
352.99,2.309
353.50,2.282
354.00,2.255
354.34,2.224
354.85,2.196
355.35,2.169
355.86,2.138
356.36,2.107
356.70,2.076
357.21,2.049
357.71,2.018
358.22,1.991
358.38,1.960
358.89,1.932
359.23,1.901
359.73,1.874
360.07,1.843
360.41,1.812
360.91,1.781
361.25,1.751
361.75,1.723
362.09,1.692
362.60,1.662
362.93,1.631
363.27,1.600
363.78,1.569
364.11,1.538
364.62,1.507
364.96,1.476
365.29,1.446
365.80,1.418
366.14,1.387
366.47,1.356
366.98,1.329
367.48,1.298
367.65,1.267
368.16,1.240
368.66,1.209
369.17,1.178
369.51,1.147
370.01,1.120
370.52,1.093
371.02,1.062
371.53,1.034
372.03,1.007
372.54,0.979
373.04,0.952
373.55,0.925
374.05,0.897
374.73,0.870
375.23,0.842
375.74,0.815
376.41,0.787
377.09,0.760
377.76,0.733
##END=
