##TITLE=Urea, N,N'-diphenyl-
##JCAMP-DX=4.24
##DATA TYPE=UV/VIS SPECTRUM
##ORIGIN=INSTITUTE OF ENERGY PROBLEMS OF CHEMICAL PHYSICS, RAS
##OWNER=INEP CP RAS, NIST OSRD
Collection (C) 2007 copyright by the U.S. Secretary of Commerce
on behalf of the United States of America. All rights reserved.
##CAS REGISTRY NO=102-07-8
##MOLFORM=C13H12N2O
##MP=237
##SOURCE REFERENCE=RAS UV No. 19661
##$NIST SQUIB=1963LAN127
##$NIST SOURCE=TYUGLMTE
##SPECTROMETER/DATA SYSTEM=Beckman DU
##XUNITS=Wavelength (nm)
##YUNITS=Logarithm epsilon
##XFACTOR=1.0
##YFACTOR=1.0
##FIRSTX=206.94
##LASTX=299.21
##FIRSTY=4.53
##MAXX=299.21
##MINX=206.94
##MAXY=4.54
##MINY=1.264
##NPOINTS=110
##$REF AUTHOR=Lang (editor), L.
##$REF JOURNAL=Absorption Spectra in the Ultraviolet and Visible Region
##$REF VOLUME=4
##$REF PAGE=127
##$REF DATE=1963
##XYPOINTS=(XY..XY)
206.94,4.530
207.79,4.493
208.63,4.448
209.48,4.404
210.33,4.356
211.17,4.295
212.02,4.227
212.87,4.172
213.71,4.098
214.56,4.036
215.41,3.992
216.25,3.948
217.10,3.914
217.95,3.880
218.79,3.852
219.64,3.822
220.49,3.801
221.33,3.784
222.18,3.771
222.87,3.754
223.91,3.732
224.72,3.713
225.56,3.699
226.41,3.675
227.26,3.658
228.10,3.655
228.95,3.658
229.79,3.670
230.64,3.689
231.49,3.706
232.34,3.730
233.18,3.757
234.03,3.788
234.88,3.811
235.72,3.842
236.57,3.876
237.42,3.910
238.26,3.948
239.11,3.992
239.96,4.040
240.80,4.081
241.65,4.128
242.49,4.172
243.34,4.220
244.19,4.254
245.03,4.288
245.88,4.322
246.73,4.353
247.57,4.373
248.42,4.404
249.27,4.424
250.11,4.448
250.96,4.465
251.81,4.482
252.65,4.496
253.50,4.506
254.35,4.520
255.19,4.527
256.04,4.537
256.89,4.537
257.73,4.540
258.58,4.537
259.42,4.533
260.27,4.523
261.12,4.516
261.96,4.503
262.81,4.486
263.66,4.465
264.50,4.445
265.35,4.424
266.20,4.401
267.04,4.373
267.89,4.343
268.74,4.309
269.58,4.268
270.43,4.230
271.28,4.189
272.12,4.152
272.97,4.111
273.82,4.060
274.66,4.002
275.51,3.954
276.36,3.917
277.20,3.859
278.05,3.805
278.89,3.754
279.74,3.706
280.59,3.648
281.43,3.590
282.28,3.525
283.13,3.474
283.97,3.413
284.82,3.365
285.68,3.322
286.51,3.277
287.36,3.215
288.21,3.134
289.05,3.052
289.90,2.960
290.75,2.841
291.59,2.722
292.44,2.551
293.29,2.381
294.13,2.211
294.98,2.058
295.82,1.884
296.67,1.734
297.52,1.598
298.36,1.407
299.21,1.264
##END=
