##TITLE=Benzoic acid, 3-methoxy-, ethyl ester
##JCAMP-DX=4.24
##DATA TYPE=UV/VIS SPECTRUM
##ORIGIN=INSTITUTE OF ENERGY PROBLEMS OF CHEMICAL PHYSICS, RAS
##OWNER=INEP CP RAS, NIST OSRD
Collection (C) 2007 copyright by the U.S. Secretary of Commerce
on behalf of the United States of America. All rights reserved.
##CAS REGISTRY NO=10259-22-0
##MOLFORM=C10H12O3
##BP=255-260
##SOURCE REFERENCE=RAS UV No. 19632
##$NIST SQUIB=1965LAN63
##$NIST SOURCE=TYUGLMTE
##SPECTROMETER/DATA SYSTEM=Unicam SP 500
##XUNITS=Wavelength (nm)
##YUNITS=Logarithm epsilon
##XFACTOR=1.0
##YFACTOR=1.0
##FIRSTX=201.84
##LASTX=325.73
##FIRSTY=4.562
##MAXX=325.73
##MINX=201.84
##MAXY=4.65
##MINY=1.459
##NPOINTS=150
##$REF AUTHOR=Lang (editor), L.
##$REF JOURNAL=Absorption Spectra in the Ultraviolet and Visible Region
##$REF VOLUME=5
##$REF PAGE=63
##$REF DATE=1965
##XYPOINTS=(XY..XY)
201.84,4.562
202.18,4.565
202.51,4.568
203.01,4.572
203.55,4.577
204.42,4.587
205.19,4.596
205.99,4.604
206.86,4.616
207.73,4.627
208.54,4.636
209.38,4.647
210.21,4.650
211.05,4.650
211.89,4.643
212.72,4.626
213.56,4.599
214.40,4.568
215.23,4.531
216.07,4.480
216.91,4.432
217.75,4.371
218.58,4.303
219.42,4.218
220.26,4.103
221.09,4.042
221.93,4.008
222.77,3.981
223.60,3.970
224.44,3.957
225.28,3.947
226.12,3.943
226.95,3.947
227.79,3.957
228.63,3.960
229.46,3.964
230.30,3.974
231.14,3.981
231.98,3.991
232.81,3.994
233.65,4.001
234.49,4.004
235.32,4.008
236.16,4.008
237.00,4.008
237.83,4.008
238.67,4.001
239.51,3.994
240.35,3.987
241.18,3.974
242.02,3.960
242.86,3.943
243.69,3.923
244.53,3.896
245.37,3.862
246.21,3.828
247.04,3.790
247.88,3.746
248.72,3.698
249.55,3.644
250.39,3.580
251.23,3.508
251.90,3.456
252.79,3.378
253.74,3.294
254.58,3.219
255.41,3.155
256.25,3.100
257.09,3.046
257.92,3.002
258.76,2.961
259.60,2.927
260.44,2.896
261.27,2.876
262.11,2.859
262.95,2.845
263.78,2.839
264.62,2.828
265.46,2.828
266.34,2.834
267.59,2.847
268.53,2.863
269.48,2.881
270.58,2.908
271.32,2.927
272.15,2.954
272.99,2.985
273.82,3.011
274.67,3.039
275.50,3.070
276.34,3.100
277.18,3.124
278.01,3.155
278.85,3.179
279.69,3.209
280.52,3.236
281.36,3.260
282.20,3.291
283.04,3.311
283.87,3.342
284.71,3.362
285.55,3.393
286.38,3.413
287.22,3.440
288.06,3.461
288.90,3.484
289.73,3.508
290.57,3.525
291.41,3.539
292.24,3.546
293.08,3.563
293.92,3.569
294.75,3.576
295.59,3.580
296.43,3.583
297.27,3.586
298.10,3.583
298.94,3.580
299.78,3.580
300.61,3.576
301.45,3.566
302.29,3.559
303.12,3.546
303.96,3.529
304.80,3.512
305.64,3.495
306.47,3.464
307.31,3.440
308.15,3.403
308.98,3.362
309.82,3.321
310.66,3.274
311.50,3.219
312.33,3.158
313.17,3.077
314.01,2.988
314.84,2.886
315.68,2.795
316.52,2.693
317.40,2.601
318.41,2.478
319.27,2.378
320.07,2.289
320.98,2.182
321.68,2.085
322.38,1.996
323.21,1.867
324.05,1.731
324.89,1.605
325.73,1.459
##END=
