##TITLE=1,3-Diphenylguanidine
##JCAMP-DX=4.24
##DATA TYPE=UV/VIS SPECTRUM
##ORIGIN=INSTITUTE OF ENERGY PROBLEMS OF CHEMICAL PHYSICS, RAS
##OWNER=INEP CP RAS, NIST OSRD
Collection (C) 2007 copyright by the U.S. Secretary of Commerce
on behalf of the United States of America. All rights reserved.
##CAS REGISTRY NO=102-06-7
##MOLFORM=C13H13N3
##MP=65
##SOURCE REFERENCE=RAS UV No. 20164
##$NIST SQUIB=1969FIH/156
##$NIST SOURCE=TYUGLMTE
##SPECTROMETER/DATA SYSTEM=SF-4
##XUNITS=Wavelength (nm)
##YUNITS=Logarithm epsilon
##XFACTOR=1.0
##YFACTOR=1.0
##FIRSTX=213.57
##LASTX=322
##FIRSTY=4.288
##MAXX=322
##MINX=213.57
##MAXY=4.288
##MINY=2.712
##NPOINTS=106
##$REF AUTHOR=Fihtenholts, V.S.; et al.
##$REF JOURNAL=Atlas of UV Absorption Spectra of Substances Used in Synthetic Rubber Manufacture
##$REF PAGE=156
##$REF DATE=1969
##XYPOINTS=(XY..XY)
213.57,4.288
214.60,4.263
215.62,4.228
216.64,4.196
217.66,4.167
218.68,4.145
219.70,4.120
220.72,4.100
221.74,4.089
222.77,4.077
223.79,4.067
224.81,4.059
225.83,4.055
226.85,4.048
227.87,4.049
228.89,4.052
229.91,4.058
230.94,4.063
231.96,4.070
232.98,4.078
234.00,4.089
235.02,4.096
236.04,4.106
237.06,4.118
238.09,4.130
239.11,4.139
240.13,4.149
241.15,4.160
242.17,4.171
243.19,4.182
244.21,4.192
245.23,4.201
246.26,4.211
247.28,4.221
248.30,4.230
249.32,4.239
250.34,4.248
251.36,4.254
252.38,4.260
253.40,4.264
254.43,4.269
255.45,4.270
256.47,4.270
257.49,4.269
258.51,4.267
259.53,4.263
260.55,4.258
261.57,4.250
262.60,4.241
263.62,4.230
264.64,4.218
265.66,4.206
266.68,4.191
267.70,4.175
268.72,4.161
269.74,4.146
270.77,4.130
271.79,4.111
272.81,4.087
273.83,4.066
274.85,4.045
275.87,4.023
276.89,4.000
277.91,3.975
278.94,3.951
279.96,3.925
280.98,3.896
282.00,3.865
283.02,3.845
284.02,3.816
284.96,3.788
285.82,3.760
286.85,3.726
287.70,3.695
288.73,3.658
289.94,3.605
291.19,3.560
292.08,3.525
293.23,3.488
294.26,3.456
295.28,3.427
296.30,3.397
297.32,3.370
298.34,3.342
299.24,3.323
300.38,3.297
301.18,3.280
302.19,3.259
303.17,3.243
304.47,3.217
305.38,3.194
306.51,3.166
307.35,3.143
308.28,3.120
309.31,3.092
310.49,3.063
311.62,3.038
312.64,3.012
313.68,2.989
315.10,2.950
315.98,2.922
316.97,2.891
318.00,2.856
319.13,2.817
320.47,2.770
322.00,2.712
##END=
