##TITLE=2,5-Diisopropyl-p-xylene
##JCAMP-DX=4.24
##DATA TYPE=UV/VIS SPECTRUM
##ORIGIN=INSTITUTE OF ENERGY PROBLEMS OF CHEMICAL PHYSICS, RAS
##OWNER=INEP CP RAS, NIST OSRD
Collection (C) 2007 copyright by the U.S. Secretary of Commerce
on behalf of the United States of America. All rights reserved.
##CAS REGISTRY NO=10375-96-9
##MOLFORM=C14H22
##MP=37.5
##BP=240
##SOURCE REFERENCE=RAS UV No. 20047
##$NIST SQUIB=1963KUS/98
##$NIST SOURCE=TYUGLMTE
##SPECTROMETER/DATA SYSTEM=unknown
##XUNITS=Wavelength (nm)
##YUNITS=Logarithm epsilon
##XFACTOR=1.0
##YFACTOR=1.0
##FIRSTX=234.55
##LASTX=286.31
##FIRSTY=2.193
##MAXX=286.31
##MINX=234.55
##MAXY=2.797
##MINY=1.095
##NPOINTS=327
##$REF AUTHOR=Kusakov, M.M.; et al.
##$REF JOURNAL=Ultraviolet Absorption Spectra of Aromatic Hydrocarbons
##$REF PAGE=98
##$REF DATE=1963
##XYPOINTS=(XY..XY)
234.55,2.193
234.57,2.152
234.59,2.115
234.63,2.074
234.69,2.043
234.78,2.012
234.86,1.992
234.97,1.969
235.08,1.945
235.22,1.918
235.40,1.891
235.59,1.866
235.76,1.846
235.93,1.829
236.09,1.812
236.22,1.798
236.41,1.782
236.67,1.757
236.89,1.736
237.16,1.712
237.42,1.689
237.72,1.666
238.02,1.642
238.36,1.625
238.75,1.611
239.13,1.607
239.51,1.608
239.99,1.619
240.29,1.629
240.63,1.642
241.02,1.658
241.36,1.674
241.71,1.693
242.01,1.708
242.33,1.725
242.65,1.739
242.99,1.756
243.30,1.773
243.59,1.790
243.89,1.805
244.20,1.819
244.50,1.835
244.75,1.854
245.05,1.869
245.35,1.884
245.61,1.900
245.87,1.916
246.12,1.929
246.38,1.944
246.64,1.959
246.90,1.973
247.11,1.986
247.37,2.000
247.58,2.012
247.84,2.024
248.06,2.037
248.27,2.048
248.48,2.061
248.70,2.074
248.91,2.084
249.13,2.095
249.34,2.107
249.56,2.118
249.77,2.128
249.98,2.139
250.16,2.149
250.36,2.159
250.54,2.168
250.76,2.178
250.97,2.188
251.23,2.195
251.49,2.203
251.70,2.211
252.00,2.217
252.30,2.222
252.60,2.229
252.86,2.235
253.07,2.244
253.29,2.252
253.46,2.260
253.59,2.269
253.63,2.278
253.72,2.287
253.80,2.295
253.89,2.304
253.97,2.312
254.02,2.320
254.10,2.328
254.23,2.335
254.36,2.343
254.49,2.350
254.60,2.357
254.72,2.364
254.87,2.371
255.05,2.377
255.22,2.383
255.43,2.389
255.60,2.395
255.82,2.401
256.03,2.406
256.20,2.412
256.46,2.417
256.67,2.422
256.93,2.426
257.19,2.431
257.44,2.435
257.66,2.439
257.88,2.444
258.05,2.449
258.18,2.455
258.26,2.461
258.39,2.467
258.52,2.472
258.65,2.478
258.78,2.483
258.90,2.489
259.03,2.494
259.20,2.499
259.38,2.503
259.51,2.509
259.72,2.513
259.89,2.518
260.06,2.522
260.23,2.526
260.41,2.531
260.62,2.535
260.83,2.539
260.96,2.544
261.18,2.547
261.35,2.551
261.56,2.555
261.74,2.559
261.95,2.563
262.16,2.567
262.38,2.571
262.59,2.575
262.85,2.578
263.06,2.582
263.28,2.585
263.49,2.589
263.71,2.592
263.84,2.596
264.05,2.600
264.18,2.604
264.35,2.607
264.48,2.611
264.62,2.615
264.74,2.618
264.84,2.622
264.95,2.626
265.05,2.630
265.14,2.633
265.29,2.638
265.41,2.642
265.51,2.645
265.61,2.648
265.77,2.652
265.90,2.656
266.01,2.659
266.13,2.663
266.24,2.666
266.37,2.670
266.53,2.674
266.67,2.676
266.82,2.681
266.96,2.685
267.09,2.688
267.26,2.692
267.43,2.695
267.65,2.700
267.85,2.706
268.02,2.714
268.13,2.720
268.30,2.734
268.48,2.748
268.64,2.757
268.82,2.766
268.98,2.772
269.15,2.774
269.33,2.774
269.50,2.772
269.67,2.767
269.84,2.757
270.01,2.751
270.18,2.749
270.36,2.747
270.53,2.746
270.70,2.743
270.87,2.741
271.04,2.738
271.21,2.733
271.38,2.727
271.56,2.723
271.73,2.718
271.90,2.713
272.07,2.708
272.24,2.705
272.41,2.701
272.59,2.697
272.76,2.697
272.93,2.695
273.10,2.693
273.27,2.689
273.44,2.687
273.61,2.685
273.79,2.683
273.96,2.681
274.13,2.680
274.30,2.679
274.47,2.678
274.64,2.678
274.82,2.678
274.99,2.679
275.16,2.680
275.33,2.682
275.50,2.685
275.67,2.687
275.84,2.686
276.02,2.690
276.19,2.694
276.36,2.699
276.53,2.705
276.70,2.715
276.87,2.726
277.05,2.740
277.12,2.749
277.19,2.757
277.23,2.765
277.27,2.772
277.32,2.777
277.40,2.784
277.52,2.789
277.69,2.794
277.86,2.797
278.03,2.797
278.20,2.797
278.37,2.796
278.55,2.794
278.72,2.788
278.89,2.778
278.99,2.761
279.04,2.751
279.10,2.734
279.14,2.722
279.21,2.707
279.30,2.690
279.42,2.663
279.53,2.638
279.64,2.613
279.79,2.576
279.85,2.560
279.96,2.538
280.01,2.527
280.05,2.513
280.13,2.499
280.22,2.473
280.30,2.449
280.39,2.433
280.48,2.411
280.56,2.392
280.65,2.373
280.73,2.361
280.82,2.334
280.91,2.322
280.99,2.295
281.08,2.275
281.16,2.262
281.25,2.242
281.33,2.220
281.42,2.209
281.51,2.181
281.59,2.156
281.68,2.143
281.76,2.114
281.85,2.078
281.93,2.071
282.02,2.040
282.11,2.007
282.19,1.986
282.28,1.969
282.36,1.946
282.45,1.918
282.53,1.895
282.62,1.874
282.71,1.866
282.79,1.851
282.88,1.827
282.96,1.813
283.05,1.796
283.14,1.775
283.22,1.756
283.31,1.739
283.39,1.722
283.48,1.708
283.56,1.693
283.65,1.674
283.74,1.654
283.82,1.633
283.91,1.620
283.99,1.607
284.08,1.583
284.16,1.564
284.25,1.543
284.34,1.532
284.42,1.510
284.51,1.487
284.59,1.475
284.68,1.456
284.76,1.449
284.85,1.422
284.94,1.415
285.02,1.386
285.11,1.378
285.19,1.362
285.28,1.346
285.37,1.321
285.45,1.312
285.54,1.293
285.62,1.274
285.71,1.254
285.79,1.222
285.88,1.211
285.97,1.199
286.05,1.163
286.14,1.150
286.22,1.137
286.31,1.095
##END=
