##TITLE=Bibenzyl
##JCAMP-DX=4.24
##DATA TYPE=UV/VIS SPECTRUM
##ORIGIN=INSTITUTE OF ENERGY PROBLEMS OF CHEMICAL PHYSICS, RAS
##OWNER=INEP CP RAS, NIST OSRD
Collection (C) 2007 copyright by the U.S. Secretary of Commerce
on behalf of the United States of America. All rights reserved.
##CAS REGISTRY NO=103-29-7
##MOLFORM=C14H14
##MP=52
##SOURCE REFERENCE=RAS UV No. 19068
##$NIST SQUIB=1969LAN135
##$NIST SOURCE=TYUGLMTE
##SPECTROMETER/DATA SYSTEM=Beckman DU
##XUNITS=Wavelength (nm)
##YUNITS=Logarithm epsilon
##XFACTOR=1.0
##YFACTOR=1.0
##FIRSTX=210.09
##LASTX=339.24
##FIRSTY=4.097
##MAXX=339.24
##MINX=210.09
##MAXY=4.131
##MINY=1.282
##NPOINTS=153
##$REF AUTHOR=Lang (editor), L.
##$REF JOURNAL=Absorption Spectra in the Ultraviolet and Visible Region
##$REF VOLUME=12
##$REF PAGE=135
##$REF DATE=1969
##XYPOINTS=(XY..XY)
210.09,4.097
211.27,4.114
212.61,4.127
214.13,4.131
215.64,4.127
216.82,4.110
217.99,4.090
218.83,4.066
219.84,4.043
220.68,4.019
221.52,3.992
222.03,3.961
222.53,3.934
222.87,3.904
223.21,3.873
223.54,3.843
223.88,3.813
224.22,3.782
224.55,3.752
224.75,3.726
225.06,3.691
225.39,3.660
225.56,3.630
225.89,3.601
226.25,3.572
226.64,3.539
227.15,3.510
227.58,3.481
228.25,3.454
228.92,3.427
229.43,3.400
230.10,3.373
230.77,3.346
231.45,3.319
231.95,3.292
232.79,3.265
233.46,3.237
234.30,3.214
235.15,3.190
236.15,3.166
237.00,3.139
237.50,3.112
238.00,3.085
238.51,3.058
239.01,3.028
239.35,2.997
239.69,2.967
240.02,2.936
240.36,2.906
240.56,2.876
240.86,2.845
241.04,2.813
241.26,2.783
241.54,2.754
241.87,2.723
242.21,2.693
242.96,2.664
243.71,2.644
244.73,2.649
245.74,2.669
246.75,2.693
247.59,2.720
248.26,2.747
249.10,2.774
249.94,2.801
250.78,2.828
251.63,2.855
252.47,2.879
253.31,2.906
254.32,2.930
255.16,2.957
256.00,2.984
257.01,3.007
257.85,3.031
258.69,3.055
259.70,3.078
260.54,3.102
261.55,3.122
262.56,3.146
263.73,3.166
264.91,3.183
266.09,3.200
267.10,3.221
268.27,3.241
269.45,3.258
270.63,3.275
271.97,3.292
273.32,3.309
274.50,3.325
275.67,3.342
276.85,3.359
278.03,3.380
279.20,3.396
280.38,3.413
281.73,3.430
283.07,3.444
284.42,3.454
285.93,3.464
287.44,3.471
288.79,3.481
290.30,3.488
291.65,3.501
293.16,3.505
294.67,3.515
296.19,3.512
297.70,3.508
299.22,3.501
300.56,3.491
302.07,3.484
303.59,3.484
305.10,3.484
306.61,3.484
308.13,3.481
309.47,3.468
310.82,3.451
311.83,3.430
312.84,3.407
313.51,3.380
314.52,3.356
315.53,3.336
316.54,3.315
317.54,3.295
319.06,3.285
320.40,3.271
321.75,3.258
322.76,3.237
323.60,3.210
324.27,3.183
324.94,3.156
325.45,3.129
325.95,3.099
326.39,3.074
326.79,3.041
327.17,3.010
327.58,2.969
327.91,2.929
328.46,2.852
329.29,2.738
329.99,2.629
330.49,2.554
331.17,2.429
331.84,2.314
332.51,2.199
333.18,2.084
333.86,1.962
334.53,1.830
335.20,1.732
335.87,1.647
336.55,1.570
337.22,1.485
337.89,1.394
338.57,1.333
339.24,1.282
##END=
