##TITLE=Benzene, isothiocyanato-
##JCAMP-DX=4.24
##DATA TYPE=UV/VIS SPECTRUM
##ORIGIN=INSTITUTE OF ENERGY PROBLEMS OF CHEMICAL PHYSICS, RAS
##OWNER=INEP CP RAS, NIST OSRD
Collection (C) 2007 copyright by the U.S. Secretary of Commerce
on behalf of the United States of America. All rights reserved.
##CAS REGISTRY NO=103-72-0
##MOLFORM=C7H5NS
##BP=95/ 12 mm
##SOURCE REFERENCE=RAS UV No. 19985
##$NIST SQUIB=1965LAN7
##$NIST SOURCE=TYUGLMTE
##SPECTROMETER/DATA SYSTEM=SF-4
##XUNITS=Wavelength (nm)
##YUNITS=Logarithm epsilon
##XFACTOR=1.0
##YFACTOR=1.0
##FIRSTX=215.61
##LASTX=349.31
##FIRSTY=4.459
##MAXX=349.31
##MINX=215.61
##MAXY=4.493
##MINY=0.996
##NPOINTS=185
##$REF AUTHOR=Lang (editor), L.
##$REF JOURNAL=Absorption Spectra in the Ultraviolet and Visible Region
##$REF VOLUME=6
##$REF PAGE=7
##$REF DATE=1965
##XYPOINTS=(XY..XY)
215.61,4.459
216.80,4.479
218.32,4.486
219.85,4.493
221.38,4.483
222.74,4.466
223.58,4.442
224.43,4.418
225.11,4.391
225.79,4.364
226.13,4.334
226.64,4.307
227.15,4.276
227.66,4.246
228.00,4.215
228.34,4.185
228.84,4.155
229.18,4.124
229.52,4.094
229.69,4.063
230.03,4.033
230.37,4.002
230.71,3.972
230.88,3.942
231.22,3.911
231.56,3.881
231.73,3.850
231.90,3.820
232.24,3.789
232.41,3.759
232.75,3.729
232.92,3.698
233.09,3.668
233.43,3.637
233.93,3.607
234.44,3.576
235.12,3.549
236.65,3.539
238.01,3.556
239.19,3.576
240.04,3.600
241.06,3.624
242.08,3.647
242.76,3.674
243.78,3.698
244.62,3.725
245.64,3.749
246.66,3.773
247.68,3.796
248.70,3.820
249.71,3.844
250.56,3.867
251.58,3.887
252.60,3.911
253.62,3.931
254.80,3.952
256.33,3.962
257.86,3.969
259.39,3.972
260.74,3.989
261.93,4.009
263.12,4.026
264.31,4.043
265.66,4.057
267.19,4.063
268.72,4.063
270.24,4.060
271.77,4.053
273.30,4.043
274.83,4.043
276.18,4.057
277.71,4.060
279.24,4.050
280.59,4.036
281.61,4.013
282.63,3.989
283.31,3.962
284.16,3.935
284.67,3.904
285.18,3.877
285.68,3.850
286.19,3.820
286.53,3.789
287.04,3.762
287.38,3.732
287.89,3.705
288.23,3.674
288.57,3.644
288.91,3.614
289.42,3.587
289.76,3.556
290.10,3.526
290.60,3.499
290.94,3.468
291.28,3.438
291.62,3.407
292.13,3.380
292.64,3.350
293.15,3.323
293.66,3.292
294.17,3.265
294.68,3.238
295.19,3.211
295.70,3.184
296.37,3.157
296.88,3.127
297.56,3.100
298.24,3.073
298.75,3.046
299.60,3.018
300.28,2.991
301.12,2.968
301.63,2.941
302.48,2.914
302.99,2.887
303.50,2.860
304.35,2.832
304.86,2.802
305.37,2.772
305.88,2.745
306.38,2.717
306.89,2.687
307.23,2.657
307.74,2.630
308.42,2.603
308.93,2.575
309.44,2.548
309.95,2.521
310.46,2.494
311.30,2.467
311.81,2.440
312.66,2.417
313.34,2.389
314.02,2.362
314.87,2.339
315.38,2.312
316.23,2.288
316.90,2.261
317.58,2.234
318.43,2.207
318.94,2.180
319.79,2.156
320.47,2.129
321.15,2.102
321.99,2.075
322.50,2.048
323.18,2.021
323.86,1.994
324.71,1.967
325.39,1.940
326.24,1.913
326.91,1.886
327.76,1.859
328.44,1.832
328.95,1.804
329.80,1.777
330.31,1.750
331.16,1.727
331.67,1.700
332.17,1.673
332.85,1.646
333.36,1.615
333.87,1.588
334.72,1.561
335.23,1.534
335.74,1.507
336.59,1.480
337.10,1.453
337.77,1.426
338.45,1.399
339.13,1.372
339.81,1.345
340.49,1.318
341.17,1.291
341.85,1.263
342.69,1.236
343.37,1.209
344.05,1.182
344.90,1.155
345.41,1.128
346.09,1.101
346.94,1.074
347.61,1.047
348.29,1.020
349.31,0.996
##END=
