##TITLE=trans-Stilbene
##JCAMP-DX=4.24
##DATA TYPE=UV/VIS SPECTRUM
##ORIGIN=INSTITUTE OF ENERGY PROBLEMS OF CHEMICAL PHYSICS, RAS
##OWNER=INEP CP RAS, NIST OSRD
Collection (C) 2007 copyright by the U.S. Secretary of Commerce
on behalf of the United States of America. All rights reserved.
##CAS REGISTRY NO=103-30-0
##MOLFORM=C14H12
##MP=123
##BP=307; 166(12)
##SOURCE REFERENCE=RAS UV No. 684
##$NIST SQUIB=1946ROD/FEL896-899
##$NIST SOURCE=TSGMTE
##SPECTROMETER/DATA SYSTEM=Beckman DU
##XUNITS=Wavelength (nm)
##YUNITS=Logarithm epsilon
##XFACTOR=1.000000
##YFACTOR=1.000000
##FIRSTX=230.0000
##LASTX=319.0000
##FIRSTY=4.13001
##MAXX=319
##MINX=230
##MAXY=4.43
##MINY=3.12
##NPOINTS=90
##$REF AUTHOR=Rodebush, W.H.; Feldman, I.
##$REF TITLE=Ultraviolet absorption spectra of organic molecules. III. Mechanical interference of substituent groups with resonance configurations
##$REF JOURNAL=J. Am. Chem. Soc.
##$REF VOLUME=68
##$REF PAGE=896-899
##$REF DATE=1946
##XYPOINTS=(XY..XY)
230.0000,4.130012
231.0000,4.110000
232.0000,4.090000
233.0000,4.070000
234.0000,4.040000
235.0000,4.020000
236.0000,3.990000
237.0000,3.960000
238.0000,3.930000
239.0000,3.900000
240.0000,3.860002
241.0000,3.820000
242.0000,3.770000
243.0000,3.720000
244.0000,3.660000
245.0000,3.600000
246.0000,3.500000
247.0000,3.390000
248.0000,3.280000
249.0000,3.170000
250.0000,3.120014
251.0000,3.120000
252.0000,3.140000
253.0000,3.190000
254.0000,3.310000
255.0000,3.410000
256.0000,3.490000
257.0000,3.560000
258.0000,3.620000
259.0000,3.680000
260.0000,3.729999
261.0000,3.770000
262.0000,3.820000
263.0000,3.850000
264.0000,3.890000
265.0000,3.920000
266.0000,3.950000
267.0000,3.980000
268.0000,4.010000
269.0000,4.040000
270.0000,4.070001
271.0000,4.090000
272.0000,4.110000
273.0000,4.130000
274.0000,4.160000
275.0000,4.180000
276.0000,4.200000
277.0000,4.210000
278.0000,4.230000
279.0000,4.250000
280.0000,4.270003
281.0000,4.280000
282.0000,4.300000
283.0000,4.310000
284.0000,4.320000
285.0000,4.340000
286.0000,4.350000
287.0000,4.360000
288.0000,4.370000
289.0000,4.380000
290.0000,4.389998
291.0000,4.410000
292.0000,4.410000
293.0000,4.420000
294.0000,4.430000
295.0000,4.430000
296.0000,4.430000
297.0000,4.430000
298.0000,4.430000
299.0000,4.420000
300.0000,4.410001
301.0000,4.400000
302.0000,4.390000
303.0000,4.380000
304.0000,4.370000
305.0000,4.350000
306.0000,4.340000
307.0000,4.330000
308.0000,4.310000
309.0000,4.300000
310.0000,4.280009
311.0000,4.260000
312.0000,4.240000
313.0000,4.220000
314.0000,4.200000
315.0000,4.170000
316.0000,4.150000
317.0000,4.120000
318.0000,4.090000
319.0000,4.060000
##END=
