##TITLE=Acetamide, N-(4-bromophenyl)-
##JCAMP-DX=4.24
##DATA TYPE=UV/VIS SPECTRUM
##ORIGIN=INSTITUTE OF ENERGY PROBLEMS OF CHEMICAL PHYSICS, RAS
##OWNER=INEP CP RAS, NIST OSRD
Collection (C) 2007 copyright by the U.S. Secretary of Commerce
on behalf of the United States of America. All rights reserved.
##CAS REGISTRY NO=103-88-8
##MOLFORM=C8H8BrNO
##MP=167
##SOURCE REFERENCE=RAS UV No. 19752
##$NIST SQUIB=1961LAN189
##$NIST SOURCE=TYUGLMTE
##SPECTROMETER/DATA SYSTEM=Beckman Model DU
##XUNITS=Wavelength (nm)
##YUNITS=Logarithm epsilon
##XFACTOR=1.0
##YFACTOR=1.0
##FIRSTX=208.89
##LASTX=295.87
##FIRSTY=4.192
##MAXX=295.87
##MINX=208.89
##MAXY=4.338
##MINY=2.432
##NPOINTS=130
##$REF AUTHOR=Lang (editor), L.
##$REF JOURNAL=Absorption Spectra in the Ultraviolet and Visible Region
##$REF VOLUME=2
##$REF PAGE=189
##$REF DATE=1961
##XYPOINTS=(XY..XY)
208.89,4.192
209.23,4.161
209.57,4.130
209.91,4.100
210.25,4.069
210.59,4.038
210.77,4.007
211.11,3.977
211.62,3.949
211.96,3.919
212.13,3.888
212.47,3.857
212.99,3.827
213.33,3.796
213.67,3.765
213.84,3.735
214.18,3.704
214.53,3.673
214.87,3.642
215.21,3.612
215.55,3.581
215.89,3.550
216.58,3.523
217.94,3.509
219.31,3.526
220.34,3.550
221.19,3.578
221.87,3.605
222.73,3.632
223.41,3.659
224.27,3.687
224.95,3.714
225.80,3.741
226.66,3.769
227.34,3.796
228.03,3.823
228.88,3.850
229.56,3.878
230.42,3.905
231.27,3.932
231.96,3.960
232.81,3.987
233.49,4.014
234.18,4.042
235.03,4.065
235.72,4.093
236.57,4.120
237.25,4.147
237.94,4.175
238.96,4.195
239.99,4.219
241.01,4.243
242.21,4.263
243.41,4.284
244.60,4.304
245.97,4.314
247.34,4.325
248.70,4.335
250.24,4.338
251.78,4.328
253.32,4.318
254.68,4.301
255.88,4.284
256.91,4.263
257.93,4.239
258.96,4.215
259.81,4.188
260.66,4.164
261.35,4.137
262.03,4.110
262.89,4.086
263.40,4.059
263.74,4.028
264.25,4.001
264.77,3.970
265.28,3.943
265.79,3.912
266.30,3.885
266.65,3.854
267.16,3.827
267.67,3.796
268.01,3.765
268.53,3.738
269.04,3.711
269.38,3.680
269.89,3.649
270.41,3.622
270.92,3.591
271.43,3.561
271.77,3.530
272.28,3.503
272.63,3.472
273.14,3.445
273.65,3.417
274.16,3.387
274.51,3.356
275.19,3.329
275.70,3.301
276.56,3.277
277.07,3.250
277.92,3.226
278.61,3.199
279.46,3.172
280.32,3.148
281.17,3.121
282.03,3.097
282.88,3.069
283.73,3.046
284.42,3.018
285.27,2.991
285.96,2.964
286.81,2.936
287.32,2.909
288.01,2.882
288.52,2.854
288.86,2.824
289.37,2.797
289.89,2.769
290.40,2.742
290.91,2.715
291.42,2.687
291.77,2.657
292.28,2.629
292.79,2.602
293.30,2.571
293.82,2.544
294.33,2.517
294.67,2.486
295.35,2.459
295.87,2.432
##END=
