##TITLE=4-Acetamidophenol
##JCAMP-DX=4.24
##DATA TYPE=UV/VIS SPECTRUM
##ORIGIN=INSTITUTE OF ENERGY PROBLEMS OF CHEMICAL PHYSICS, RAS
##OWNER=INEP CP RAS, NIST OSRD
Collection (C) 2007 copyright by the U.S. Secretary of Commerce
on behalf of the United States of America. All rights reserved.
##CAS REGISTRY NO=103-90-2
##MOLFORM=C8H9NO2
##MP=169-170
##SOURCE REFERENCE=RAS UV No. 19635
##$NIST SQUIB=1965LAN93
##$NIST SOURCE=TYUGLMTE
##SPECTROMETER/DATA SYSTEM=Hilger Uvispek
##XUNITS=Wavelength (nm)
##YUNITS=Logarithm epsilon
##XFACTOR=1.0
##YFACTOR=1.0
##FIRSTX=209.29
##LASTX=314.36
##FIRSTY=4.117
##MAXX=314.36
##MINX=209.29
##MAXY=4.162
##MINY=1.554
##NPOINTS=156
##$REF AUTHOR=Lang (editor), L.
##$REF JOURNAL=Absorption Spectra in the Ultraviolet and Visible Region
##$REF VOLUME=5
##$REF PAGE=93
##$REF DATE=1965
##XYPOINTS=(XY..XY)
209.29,4.117
209.80,4.087
210.14,4.056
210.47,4.025
210.98,3.998
211.32,3.967
211.82,3.937
212.16,3.906
212.52,3.878
213.01,3.845
213.41,3.816
213.85,3.787
214.19,3.756
214.55,3.728
214.99,3.696
215.37,3.667
215.88,3.640
216.22,3.609
216.72,3.582
217.23,3.555
217.74,3.528
218.41,3.500
218.84,3.487
219.43,3.476
220.15,3.483
220.78,3.494
221.62,3.521
222.47,3.545
223.31,3.572
224.16,3.599
225.00,3.623
225.84,3.650
226.69,3.674
227.53,3.698
228.38,3.722
229.22,3.749
230.24,3.773
231.08,3.800
231.93,3.824
232.77,3.851
233.78,3.875
234.63,3.903
235.64,3.926
236.66,3.950
237.67,3.974
238.68,3.998
239.70,4.018
240.71,4.042
241.72,4.063
242.91,4.083
244.09,4.104
245.27,4.121
246.62,4.138
247.97,4.148
249.32,4.162
250.84,4.158
252.36,4.148
253.89,4.138
255.24,4.127
256.42,4.110
257.60,4.093
258.61,4.073
259.63,4.052
260.64,4.029
261.66,4.005
262.67,3.981
263.51,3.957
264.53,3.933
265.37,3.906
266.22,3.882
266.89,3.855
267.74,3.831
268.41,3.804
269.09,3.776
269.76,3.749
270.44,3.722
271.11,3.695
271.79,3.667
272.47,3.640
273.14,3.613
273.99,3.586
274.66,3.558
275.51,3.534
276.35,3.507
277.20,3.483
278.21,3.459
279.05,3.436
280.07,3.412
281.08,3.391
282.26,3.371
283.45,3.350
284.80,3.337
286.15,3.323
287.50,3.309
288.85,3.292
290.20,3.279
291.55,3.265
292.91,3.248
294.09,3.231
295.27,3.211
296.45,3.194
297.47,3.170
298.48,3.146
299.32,3.122
300.00,3.095
300.68,3.067
301.35,3.040
301.86,3.013
302.53,2.986
303.04,2.958
303.38,2.928
303.89,2.900
304.39,2.873
304.73,2.843
305.07,2.812
305.57,2.781
305.74,2.751
306.08,2.720
306.42,2.689
306.59,2.658
306.93,2.628
307.09,2.597
307.43,2.566
307.60,2.536
307.77,2.505
307.94,2.474
308.11,2.444
308.28,2.413
308.45,2.382
308.61,2.352
308.95,2.321
309.12,2.290
309.29,2.260
309.46,2.229
309.63,2.198
309.80,2.168
310.14,2.137
310.30,2.106
310.47,2.076
310.64,2.045
310.81,2.014
311.15,1.984
311.32,1.953
311.49,1.922
311.66,1.892
311.99,1.861
312.16,1.830
312.50,1.800
312.67,1.769
312.84,1.738
313.18,1.708
313.34,1.677
313.68,1.646
313.85,1.616
314.19,1.585
314.36,1.554
##END=
