##TITLE=p-Anisidine
##JCAMP-DX=4.24
##DATA TYPE=UV/VIS SPECTRUM
##ORIGIN=INSTITUTE OF ENERGY PROBLEMS OF CHEMICAL PHYSICS, RAS
##OWNER=INEP CP RAS, NIST OSRD
Collection (C) 2007 copyright by the U.S. Secretary of Commerce
on behalf of the United States of America. All rights reserved.
##CAS REGISTRY NO=104-94-9
##MOLFORM=C7H9NO
##MP=57.2
##BP=243
##SOURCE REFERENCE=RAS UV No. 432
##$NIST SQUIB=1951GRA220-226
##$NIST SOURCE=TSGMTE
##SPECTROMETER/DATA SYSTEM=n.i.g.
##XUNITS=Wavelength (nm)
##YUNITS=Logarithm epsilon
##XFACTOR=1.000000
##YFACTOR=1.000000
##FIRSTX=342.4417
##LASTX=230.6867
##FIRSTY=1.03047
##MAXX=342.442
##MINX=230.687
##MAXY=3.99903
##MINY=1.03047
##NPOINTS=350
##$REF AUTHOR=Grammaticakis, P.
##$REF TITLE=Contribution a l'etude de l'absorption dans l'ultraviolet moyen et le visible des arylamines isomeres et de leurs derives N substitues (Premier memoire)
##$REF JOURNAL=Bull. Soc. Chim. Fr.
##$REF VOLUME=18
##$REF PAGE=220-226
##$REF DATE=1951
##XYPOINTS=(XY..XY)
342.4417,1.030470
341.9016,1.083700
341.6366,1.114624
341.4189,1.149761
340.2405,1.244885
339.8898,1.286802
339.6994,1.304290
339.5059,1.312336
338.5727,1.409622
338.5513,1.423930
338.5296,1.438471
338.5076,1.453129
338.5076,1.453129
338.3758,1.454822
338.2264,1.456744
338.0682,1.458780
338.0682,1.458780
337.8979,1.475805
337.7863,1.482709
337.6377,1.485408
337.5245,1.561411
337.0076,1.609341
336.7689,1.627630
336.6030,1.631955
336.2489,1.740405
336.2489,1.740405
336.1892,1.729396
336.1379,1.718507
336.1275,1.743014
336.1035,1.707855
335.9975,1.745737
335.8500,1.748687
335.8500,1.748687
335.6333,1.763855
335.4081,1.779137
335.1658,1.794647
334.2257,1.886680
334.0386,1.917859
333.9171,1.933324
333.7569,1.946331
333.7012,1.984595
333.6964,1.987895
333.6913,1.991429
333.6860,1.995079
333.2201,2.027462
332.9450,2.046458
332.5746,2.067641
332.1368,2.095332
332.1368,2.095332
331.9716,2.130438
331.7980,2.165659
331.6075,2.201109
331.6075,2.201109
331.4128,2.204725
331.2100,2.208339
330.9907,2.211949
330.9907,2.211949
330.7189,2.237062
330.4306,2.262288
330.1343,2.287744
329.2533,2.357762
328.9684,2.375666
328.6836,2.393803
328.3992,2.412056
327.3396,2.485167
327.2246,2.487756
327.1016,2.490343
326.9623,2.492925
326.9623,2.492925
326.7582,2.507180
326.5459,2.521666
326.3174,2.536263
325.4487,2.612048
325.2514,2.623682
325.0540,2.635550
324.8567,2.647534
324.8567,2.647534
324.6689,2.651830
324.4730,2.656356
324.2612,2.660995
322.8859,2.722993
322.5962,2.735863
322.3363,2.750604
321.8835,2.779855
319.9561,2.849549
319.8383,2.851242
319.7048,2.853164
319.5635,2.855199
319.5635,2.855199
319.4008,2.865541
319.1626,2.874578
318.6455,2.890057
318.6455,2.890057
318.5751,2.890715
318.5044,2.891607
318.4337,2.892615
315.3202,2.959834
315.2160,2.960482
315.1040,2.961360
314.9769,2.962350
314.9769,2.962350
314.6841,2.975855
314.4905,2.982864
314.2303,2.989387
314.2303,2.989387
314.1268,2.990034
314.0156,2.990913
313.8893,2.991903
313.8893,2.991903
313.8163,2.996230
313.7430,3.000791
313.6696,3.005468
313.6696,3.005468
313.1603,3.015001
312.9723,3.019157
312.9433,3.021497
310.1384,3.058367
309.2851,3.064620
308.2668,3.073616
307.4027,3.079512
303.2506,3.108037
302.7328,3.111768
302.2179,3.114451
301.2676,3.118384
301.2676,3.118384
300.0488,3.120593
298.8262,3.122798
297.6068,3.124999
295.7032,3.129580
294.8181,3.128240
293.9513,3.127021
293.0959,3.126037
293.0959,3.126037
292.7476,3.122261
292.4000,3.118602
292.0529,3.115176
292.0529,3.115176
291.6460,3.113981
291.2401,3.112786
290.8470,3.101107
290.8434,3.104408
290.8395,3.107941
290.8355,3.111591
290.8355,3.111591
289.3676,3.083789
289.1683,3.082686
288.9691,3.081700
288.7699,3.080948
288.7699,3.080948
288.4716,3.074545
288.1865,3.068148
287.9083,3.061753
287.9083,3.061753
287.6554,3.060630
287.4090,3.059625
287.1754,3.058859
285.6135,3.022618
285.4231,3.017982
285.2326,3.013580
285.0423,3.009293
284.1972,2.995340
283.9519,2.993169
283.7129,2.991116
283.4864,2.989302
283.4864,2.989302
283.1653,2.980944
282.8448,2.972820
282.5248,2.964812
280.0551,2.890443
279.4748,2.876524
279.1989,2.868666
278.9892,2.860135
276.8743,2.780639
276.8743,2.780639
276.8710,2.783940
276.8674,2.787473
276.8638,2.791123
276.3903,2.766812
275.9080,2.752984
275.4273,2.739157
275.4273,2.739157
275.2476,2.737142
275.0679,2.735360
274.8883,2.733695
274.5046,2.703649
274.5013,2.706949
274.4979,2.710483
274.4943,2.714133
273.7397,2.670302
273.6357,2.664025
273.4698,2.657023
273.1006,2.643296
273.1006,2.643296
273.0560,2.637665
273.0168,2.632269
272.9888,2.626995
272.9888,2.626995
272.8140,2.623252
272.6394,2.619509
272.4649,2.615767
272.4649,2.615767
272.4186,2.612077
272.3780,2.608390
272.3486,2.604707
272.3486,2.604707
272.2556,2.603639
272.1739,2.602692
272.0975,2.601981
270.9560,2.555361
270.6722,2.537103
270.4498,2.525047
270.0984,2.508857
269.7333,2.473046
269.7282,2.478443
269.7229,2.484073
269.7174,2.489819
269.4597,2.472930
269.3033,2.472864
269.1361,2.472794
268.9636,2.472721
268.2234,2.445663
267.6611,2.435634
267.3355,2.430601
266.9666,2.426248
266.7015,2.422987
266.5312,2.422914
266.3611,2.422840
266.1913,2.422767
262.9349,2.445988
262.5634,2.457961
262.2375,2.466925
261.6788,2.480562
261.6788,2.480562
261.5545,2.488527
261.4301,2.496726
261.3058,2.505040
261.3058,2.505040
261.2342,2.505688
261.1573,2.506566
261.0700,2.507556
261.0700,2.507556
260.8546,2.537038
260.7135,2.553153
260.5257,2.569713
260.5257,2.569713
260.3317,2.576034
260.2005,2.581684
260.0193,2.591507
260.0193,2.591507
259.8312,2.614398
259.7274,2.623459
259.6187,2.626459
258.9744,2.704823
258.8234,2.745286
258.6672,2.785980
258.5010,2.826786
258.5010,2.826786
258.3821,2.831082
258.2580,2.835609
258.1237,2.840247
258.1237,2.840247
257.9584,2.865361
257.7830,2.890586
257.6026,2.916042
257.6026,2.916042
257.4328,2.928568
257.2631,2.941211
257.0935,2.954086
257.0935,2.954086
256.8681,3.007585
256.7570,3.027926
256.6644,3.032544
256.3973,3.081187
256.3881,3.091826
256.3788,3.102697
256.3694,3.113686
256.3694,3.113686
256.2938,3.115379
256.2080,3.117300
256.1172,3.119336
255.7460,3.160064
255.7102,3.167932
255.6645,3.175912
255.6135,3.184123
255.3352,3.222273
255.3293,3.229242
255.3231,3.236445
255.3169,3.243764
254.6041,3.270695
254.5061,3.284535
254.4122,3.293600
254.2421,3.305657
254.2421,3.305657
254.1972,3.306316
254.1523,3.307207
254.1072,3.308215
253.6166,3.340494
253.5436,3.347800
253.4658,3.355105
253.3782,3.362404
252.4273,3.399704
252.3537,3.408602
252.2751,3.417615
252.1868,3.426856
251.2729,3.456304
251.0331,3.465704
250.7997,3.473825
250.5609,3.483225
250.5609,3.483225
250.4221,3.487508
250.2738,3.492019
250.1208,3.496644
250.1208,3.496644
250.0445,3.503579
249.9586,3.510742
249.8679,3.518019
248.6140,3.569315
248.2940,3.584557
247.8458,3.603348
247.3683,3.625852
245.5889,3.692599
245.2890,3.703944
244.8506,3.718131
244.2594,3.738066
242.1219,3.805128
241.7730,3.814909
241.4206,3.824687
241.0604,3.834460
238.6508,3.895578
238.1371,3.903148
237.8480,3.906526
237.5348,3.908609
235.9229,3.934996
235.6565,3.934849
235.3908,3.934702
235.1256,3.934556
234.1304,3.955501
233.7848,3.957367
233.5604,3.959416
233.2646,3.963406
233.2646,3.963406
232.9796,3.963925
232.6869,3.964672
232.3907,3.965534
231.8078,3.981458
231.6228,3.982032
231.4340,3.982837
231.2372,3.983754
231.2372,3.983754
230.6867,3.999033
##END=
