##TITLE=1,3,5-triphenyl-1H-1,2,4-triazole
##JCAMP-DX=4.24
##DATA TYPE=UV/VIS SPECTRUM
##ORIGIN=INSTITUTE OF ENERGY PROBLEMS OF CHEMICAL PHYSICS, RAS
##OWNER=INEP CP RAS, NIST OSRD
Collection (C) 2007 copyright by the U.S. Secretary of Commerce
on behalf of the United States of America. All rights reserved.
##CAS REGISTRY NO=1043-46-5
##MOLFORM=C20H15N3
##MP=104-105
##SOURCE REFERENCE=RAS UV No. 22713
##$NIST SQUIB=1977HUI/514
##$NIST SOURCE=TYUGLMTE
##SPECTROMETER/DATA SYSTEM=unknown
##XUNITS=Wavelength (nm)
##YUNITS=Logarithm epsilon
##XFACTOR=1.0
##YFACTOR=1.0
##FIRSTX=203.191
##LASTX=322.531
##FIRSTY=4.12
##MAXX=322.531
##MINX=203.191
##MAXY=4.656
##MINY=2.419
##NPOINTS=88
##$REF AUTHOR=Huisgen, R.; et al.
##$REF JOURNAL=Chem. Ber.
##$REF VOLUME=110
##$REF PAGE=514
##$REF DATE=1977
##XYPOINTS=(XY..XY)
203.191,4.120
204.228,4.164
205.276,4.240
206.335,4.359
207.405,4.524
207.446,4.529
207.877,4.575
208.310,4.610
208.745,4.634
209.181,4.649
209.620,4.656
210.060,4.656
210.502,4.651
210.946,4.641
211.392,4.628
211.840,4.612
212.290,4.595
212.741,4.576
213.195,4.557
213.651,4.538
214.108,4.519
214.567,4.501
215.029,4.484
216.113,4.444
217.287,4.409
218.474,4.381
219.674,4.360
220.887,4.347
222.113,4.339
223.354,4.335
224.608,4.334
225.876,4.334
227.159,4.336
228.456,4.339
229.769,4.344
231.096,4.350
232.439,4.359
233.798,4.370
235.172,4.384
236.563,4.400
237.970,4.415
239.395,4.426
240.836,4.427
240.884,4.430
242.343,4.440
243.820,4.450
245.316,4.458
246.829,4.465
248.362,4.469
249.914,4.471
251.485,4.471
253.076,4.468
254.687,4.463
256.319,4.456
257.972,4.448
258.265,4.448
259.943,4.434
261.643,4.422
263.366,4.411
265.112,4.399
266.881,4.384
268.673,4.367
270.490,4.344
272.332,4.316
274.198,4.281
276.091,4.238
276.110,4.238
278.029,4.196
279.975,4.152
281.948,4.107
283.950,4.060
285.980,4.011
288.039,3.961
290.128,3.909
292.248,3.855
294.399,3.800
296.582,3.743
298.797,3.684
300.709,3.631
302.986,3.556
305.299,3.469
307.647,3.370
310.032,3.256
312.453,3.126
314.913,2.978
317.412,2.812
319.951,2.625
322.531,2.419
##END=
