##TITLE=3-Iodothiophene
##JCAMP-DX=4.24
##DATA TYPE=UV/VIS SPECTRUM
##ORIGIN=INSTITUTE OF ENERGY PROBLEMS OF CHEMICAL PHYSICS, RAS
##OWNER=INEP CP RAS, NIST OSRD
Collection (C) 2007 copyright by the U.S. Secretary of Commerce
on behalf of the United States of America. All rights reserved.
##CAS REGISTRY NO=10486-61-0
##MOLFORM=C4H3IS
##BP=77
##SOURCE REFERENCE=RAS UV No. 19759
##$NIST SQUIB=1961LAN347
##$NIST SOURCE=TYUGLMTE
##SPECTROMETER/DATA SYSTEM=unknown
##XUNITS=Wavelength (nm)
##YUNITS=Logarithm epsilon
##XFACTOR=1.0
##YFACTOR=1.0
##FIRSTX=206.94
##LASTX=318.88
##FIRSTY=3.744
##MAXX=318.88
##MINX=206.94
##MAXY=3.744
##MINY=0.954
##NPOINTS=138
##$REF AUTHOR=Lang (editor), L.
##$REF JOURNAL=Absorption Spectra in the Ultraviolet and Visible Region
##$REF VOLUME=2
##$REF PAGE=347
##$REF DATE=1961
##XYPOINTS=(XY..XY)
206.94,3.744
207.45,3.717
208.13,3.690
208.81,3.663
209.48,3.635
209.99,3.608
210.84,3.584
211.52,3.557
212.36,3.533
213.21,3.506
214.23,3.482
215.24,3.462
216.77,3.451
218.29,3.451
219.64,3.465
220.83,3.482
222.18,3.499
223.54,3.516
224.89,3.533
226.25,3.547
227.60,3.560
228.96,3.577
230.48,3.584
231.84,3.598
233.36,3.605
234.72,3.615
236.24,3.618
237.59,3.629
239.12,3.639
240.64,3.649
242.00,3.663
243.35,3.673
244.88,3.680
246.40,3.683
247.92,3.687
249.45,3.680
250.80,3.666
251.99,3.646
253.17,3.625
254.02,3.601
254.87,3.577
255.55,3.550
256.22,3.523
256.73,3.496
257.24,3.465
257.58,3.434
258.09,3.407
258.59,3.376
258.93,3.346
259.27,3.315
259.78,3.284
260.12,3.254
260.46,3.223
260.96,3.196
261.30,3.165
261.64,3.134
261.98,3.104
262.32,3.073
262.66,3.042
263.00,3.012
263.34,2.981
263.50,2.950
263.84,2.920
264.18,2.889
264.69,2.862
265.03,2.831
265.37,2.801
265.88,2.773
266.38,2.743
266.72,2.712
267.23,2.685
267.74,2.657
268.25,2.630
268.75,2.603
269.26,2.576
269.77,2.548
270.45,2.521
271.13,2.494
271.63,2.467
272.48,2.439
273.16,2.412
273.83,2.385
274.68,2.358
275.36,2.330
276.21,2.306
276.71,2.279
277.73,2.255
278.24,2.228
279.25,2.204
279.93,2.177
280.78,2.153
281.62,2.129
282.47,2.102
283.32,2.078
284.17,2.051
285.01,2.024
285.69,1.996
286.71,1.972
287.38,1.945
288.23,1.921
289.08,1.894
289.92,1.870
290.60,1.843
291.45,1.819
292.29,1.795
293.14,1.768
293.99,1.744
294.66,1.717
295.51,1.693
296.36,1.669
297.20,1.642
297.88,1.615
298.73,1.591
299.41,1.564
300.25,1.540
301.10,1.516
301.61,1.489
302.62,1.465
303.30,1.437
304.15,1.414
304.99,1.386
305.84,1.363
306.69,1.339
307.37,1.311
308.21,1.288
309.06,1.260
309.91,1.236
310.75,1.209
311.60,1.185
312.28,1.158
313.12,1.134
313.97,1.110
314.82,1.083
315.66,1.056
316.51,1.032
317.36,1.005
318.20,0.981
318.88,0.954
##END=
