##TITLE=Piperazine, 2,5-dimethyl-
##JCAMP-DX=4.24
##DATA TYPE=UV/VIS SPECTRUM
##ORIGIN=INSTITUTE OF ENERGY PROBLEMS OF CHEMICAL PHYSICS, RAS
##OWNER=INEP CP RAS, NIST OSRD
Collection (C) 2007 copyright by the U.S. Secretary of Commerce
on behalf of the United States of America. All rights reserved.
##CAS REGISTRY NO=106-55-8
##MOLFORM=C6H14N2
##MP=114
##BP=162
##SOURCE REFERENCE=RAS UV No. 20195
##$NIST SQUIB=1969BOL/220
##$NIST SOURCE=TYUGLMTE
##SPECTROMETER/DATA SYSTEM=unknown
##XUNITS=Wavelength (nm)
##YUNITS=Logarithm epsilon
##XFACTOR=1.0
##YFACTOR=1.0
##FIRSTX=211.36
##LASTX=334.99
##FIRSTY=3.312
##MAXX=334.99
##MINX=211.36
##MAXY=3.312
##MINY=0.045
##NPOINTS=180
##$REF AUTHOR=Bol'shakov, G.F.; et al.
##$REF JOURNAL=Ultraviolet spectra of heteroorganic compounds
##$REF PAGE=220
##$REF DATE=1969
##XYPOINTS=(XY..XY)
211.36,3.312
211.53,3.307
211.69,3.303
211.86,3.303
212.03,3.299
212.20,3.295
212.36,3.295
212.53,3.291
212.70,3.286
212.86,3.286
213.37,3.270
214.37,3.249
215.37,3.228
216.37,3.207
217.38,3.186
218.38,3.165
219.38,3.144
220.38,3.127
221.38,3.106
222.39,3.085
223.39,3.064
224.39,3.048
225.39,3.027
226.40,3.006
227.40,2.989
228.40,2.964
229.40,2.939
230.41,2.918
231.41,2.897
232.41,2.872
233.41,2.851
234.42,2.826
235.42,2.801
236.42,2.771
237.42,2.738
238.43,2.708
239.43,2.675
240.43,2.650
241.43,2.612
242.44,2.583
243.44,2.541
244.44,2.503
245.44,2.470
246.44,2.428
247.45,2.386
248.45,2.348
249.45,2.298
250.45,2.256
251.46,2.214
252.46,2.164
253.46,2.110
254.46,2.055
255.47,2.001
256.47,1.950
257.47,1.883
258.47,1.825
259.48,1.762
260.48,1.682
261.48,1.620
262.48,1.553
263.49,1.523
264.49,1.494
265.49,1.469
266.49,1.452
267.50,1.439
268.50,1.427
269.50,1.414
270.50,1.402
271.51,1.393
272.51,1.381
273.51,1.364
274.51,1.356
275.51,1.339
276.52,1.322
277.52,1.301
278.52,1.268
279.52,1.230
280.53,1.176
281.53,1.109
282.53,1.012
283.53,0.924
284.54,0.820
285.54,0.728
286.54,0.623
287.21,0.518
287.38,0.510
287.54,0.501
287.71,0.493
287.88,0.485
288.04,0.480
288.21,0.472
288.38,0.464
288.55,0.455
288.71,0.447
289.21,0.422
290.22,0.392
291.22,0.359
292.22,0.346
293.22,0.317
294.23,0.313
295.23,0.300
296.23,0.300
297.23,0.309
298.24,0.321
299.24,0.334
300.24,0.346
301.24,0.359
302.58,0.372
302.75,0.372
302.91,0.372
303.08,0.376
303.25,0.376
303.42,0.376
303.58,0.376
303.75,0.380
303.92,0.380
304.08,0.380
304.25,0.380
304.42,0.384
304.58,0.384
304.75,0.384
304.92,0.388
305.09,0.388
305.25,0.388
305.59,0.392
305.92,0.405
306.26,0.413
306.59,0.426
306.92,0.439
307.26,0.443
307.59,0.447
307.93,0.451
308.26,0.451
308.59,0.443
308.93,0.430
309.26,0.418
309.60,0.413
309.93,0.413
310.26,0.418
310.60,0.422
310.93,0.430
311.27,0.439
311.60,0.447
311.94,0.459
312.27,0.468
312.60,0.468
312.94,0.464
313.27,0.455
313.61,0.447
313.94,0.426
314.27,0.418
314.61,0.397
314.94,0.388
315.28,0.372
315.61,0.363
315.95,0.359
316.28,0.355
316.61,0.359
316.95,0.363
317.28,0.372
317.62,0.392
317.95,0.401
318.28,0.401
318.62,0.397
318.95,0.388
319.29,0.380
319.62,0.367
321.79,0.321
322.79,0.296
323.63,0.267
324.47,0.238
325.30,0.208
326.14,0.175
327.14,0.150
328.31,0.124
329.31,0.099
330.65,0.083
332.15,0.070
333.49,0.053
334.99,0.045
##END=
