##TITLE=p-Chloroaniline
##JCAMP-DX=4.24
##DATA TYPE=UV/VIS SPECTRUM
##ORIGIN=INSTITUTE OF ENERGY PROBLEMS OF CHEMICAL PHYSICS, RAS
##OWNER=INEP CP RAS, NIST OSRD
Collection (C) 2007 copyright by the U.S. Secretary of Commerce
on behalf of the United States of America. All rights reserved.
##CAS REGISTRY NO=106-47-8
##MOLFORM=C6H6ClN
##MP=72.5
##BP=232
##SOURCE REFERENCE=RAS UV No. 132
##$NIST SQUIB=1951GRA534-545
##$NIST SOURCE=TSGMTE
##SPECTROMETER/DATA SYSTEM=n.i.g.
##XUNITS=Wavelength (nm)
##YUNITS=Logarithm epsilon
##XFACTOR=1.000000
##YFACTOR=1.000000
##FIRSTX=337.3164
##LASTX=217.7127
##FIRSTY=0.830999
##MAXX=337.316
##MINX=217.713
##MAXY=3.89825
##MINY=0.830999
##NPOINTS=285
##$REF AUTHOR=Grammaticakis, P.
##$REF TITLE=Contribution a l'etude de l'absorption dans l'ultraviolet moyen et le visible des arylamines isomeres et de leurs derives N-substitues (2^e memoire)
##$REF JOURNAL=Bull. Soc. Chim. Fr.
##$REF VOLUME=18
##$REF PAGE=534-545
##$REF DATE=1951
##XYPOINTS=(XY..XY)
337.3164,0.830999
336.7687,0.896008
336.3131,0.949907
335.9351,0.994185
335.6208,1.030316
335.3560,1.059783
335.1271,1.084065
334.9203,1.104637
334.7221,1.122982
334.5187,1.140580
334.2970,1.158908
334.0432,1.179443
334.0432,1.179443
333.8448,1.185757
333.6480,1.200311
333.3629,1.233631
332.9002,1.296231
332.1721,1.398638
332.1721,1.398638
331.8320,1.412235
331.4834,1.426080
331.1172,1.440049
331.1172,1.440049
331.0673,1.453115
331.0082,1.466430
330.9308,1.479867
330.2182,1.507848
330.1132,1.528036
329.9901,1.548222
329.8580,1.568408
329.2124,1.678033
329.1844,1.701455
329.1122,1.665959
328.9732,1.753683
328.5243,1.852177
328.5243,1.852177
327.8122,1.933135
327.2709,1.994596
326.8659,2.040027
326.5633,2.072897
326.3298,2.096675
326.1324,2.114828
325.9383,2.130824
325.7147,2.148133
325.7147,2.148133
325.5601,2.155249
325.3542,2.171590
325.0768,2.197182
324.7076,2.232048
324.2271,2.276213
323.6159,2.329700
322.8554,2.392534
321.9275,2.464739
321.9275,2.464739
320.9435,2.520238
320.1938,2.562169
319.5835,2.595202
319.0198,2.624010
318.4112,2.653265
317.6678,2.687637
316.7015,2.731799
316.7015,2.731799
316.3577,2.736977
316.0743,2.739418
315.6089,2.741215
315.6089,2.741215
315.3636,2.761386
315.1022,2.781556
314.8329,2.801724
314.8329,2.801724
313.9633,2.823508
312.5157,2.868790
310.3309,2.934184
310.3309,2.934184
309.5269,2.953956
308.0670,2.993726
305.1153,3.065981
305.1153,3.065981
304.3809,3.071108
303.6499,3.076485
302.9224,3.081987
302.9224,3.081987
302.4013,3.093705
301.8820,3.105424
301.3644,3.117143
301.3644,3.117143
299.9604,3.123723
298.5544,3.130425
297.1540,3.137376
297.1540,3.137376
296.0644,3.137237
294.9828,3.137098
293.9091,3.136960
293.9091,3.136960
293.0617,3.130677
292.2049,3.124393
291.3461,3.118108
291.3461,3.118108
290.0144,3.095468
288.6809,3.072700
287.3528,3.049683
287.3528,3.049683
287.2304,3.043494
287.1011,3.037305
286.9582,3.031113
285.7043,3.012426
285.5246,3.005274
285.3519,2.998372
285.1929,2.991596
285.1929,2.991596
284.8902,2.988915
284.5948,2.986484
284.3134,2.984180
284.3134,2.984180
284.1328,2.972539
283.9701,2.967134
283.6861,2.963333
283.6861,2.963333
282.7250,2.935706
282.2504,2.918620
281.8519,2.897429
279.5425,2.829771
279.4560,2.828803
279.3760,2.828085
279.3090,2.827493
279.3090,2.827493
278.0210,2.786348
277.3404,2.761375
274.2225,2.695663
273.4669,2.689524
272.5921,2.681745
272.1475,2.679434
271.2304,2.684510
270.3132,2.689835
269.3901,2.695283
269.3901,2.695283
267.5800,2.760253
267.1173,2.781336
267.1173,2.781336
266.3048,2.886375
265.8677,2.940766
265.6523,2.961948
265.5073,2.967360
265.5073,2.967360
264.8994,3.028218
264.4280,3.075257
264.0545,3.111883
263.7411,3.141503
263.4504,3.167523
263.1455,3.193351
262.7897,3.222391
262.3470,3.258052
262.3470,3.258052
262.1370,3.268117
261.9274,3.278183
261.7181,3.288248
261.7181,3.288248
261.4241,3.319080
261.1250,3.350035
260.8152,3.381239
260.8152,3.381239
260.5765,3.385709
260.3270,3.390302
260.0721,3.395143
260.0721,3.395143
260.0097,3.407497
259.9359,3.419974
259.8565,3.432700
259.1134,3.462874
258.8341,3.470288
258.5552,3.477951
258.2769,3.485738
258.2769,3.485738
258.0979,3.497096
257.9192,3.508703
257.7406,3.520435
257.7406,3.520435
257.1243,3.539720
256.7988,3.552694
256.4862,3.562303
256.4862,3.562303
256.3281,3.573311
255.8008,3.593981
254.8190,3.634397
254.8190,3.634397
254.7194,3.641133
254.6198,3.647994
254.5202,3.655105
254.5202,3.655105
253.8772,3.671348
253.1436,3.696677
251.6996,3.752801
251.6996,3.752801
251.4781,3.755006
251.2464,3.757209
251.0099,3.759411
251.0099,3.759411
250.8171,3.768520
250.6193,3.777878
250.4113,3.787358
250.4113,3.787358
250.0263,3.794043
249.6320,3.800851
249.2336,3.807907
248.2524,3.826806
247.9956,3.835570
247.7393,3.844085
247.4836,3.852475
247.4836,3.852475
246.6551,3.864667
245.8321,3.876858
245.0145,3.889050
245.0145,3.889050
244.4134,3.892283
243.8251,3.895394
243.2447,3.898255
243.2447,3.898255
242.3825,3.898091
241.5313,3.897928
240.6958,3.897767
240.6958,3.897767
239.2200,3.883619
238.5504,3.875487
238.1021,3.866400
238.1021,3.866400
237.5027,3.862292
237.0238,3.856710
236.5418,3.852624
236.5418,3.852624
236.5405,3.857112
236.3719,3.857078
236.2096,3.835226
236.1988,3.857044
236.0324,3.800902
236.0167,3.857007
235.7715,3.818181
235.6569,3.799870
235.5096,3.805285
235.2825,3.799088
234.9093,3.798431
234.9093,3.798431
234.7301,3.795194
234.5602,3.792209
234.3952,3.789349
234.3952,3.789349
233.8136,3.768366
233.6546,3.716818
233.2890,3.748641
233.0005,3.717639
232.8729,3.737417
232.8729,3.737417
232.8393,3.733482
232.8148,3.729549
232.7947,3.725618
232.3501,3.718211
231.7034,3.718658
231.7034,3.718658
231.6450,3.713762
231.5911,3.709117
231.5461,3.704598
231.5461,3.704598
230.8504,3.694311
227.8206,3.664697
226.6743,3.655886
225.5437,3.647201
225.2964,3.644902
224.7776,3.644788
224.2528,3.644671
223.7263,3.644553
221.0300,3.665263
220.6031,3.667409
220.1698,3.669553
219.7342,3.671697
219.7342,3.671697
219.1052,3.690357
218.5760,3.707044
218.1578,3.717898
218.1578,3.717898
218.0448,3.734246
217.9459,3.741496
217.9258,3.717843
217.8548,3.716870
217.7837,3.716147
217.7767,3.745862
217.7127,3.715548
##END=
