##TITLE=Parachlorophenol
##JCAMP-DX=4.24
##DATA TYPE=UV/VIS SPECTRUM
##ORIGIN=INSTITUTE OF ENERGY PROBLEMS OF CHEMICAL PHYSICS, RAS
##OWNER=INEP CP RAS, NIST OSRD
Collection (C) 2007 copyright by the U.S. Secretary of Commerce
on behalf of the United States of America. All rights reserved.
##CAS REGISTRY NO=106-48-9
##MOLFORM=C6H5ClO
##MP=42.7
##BP=22.0
##SOURCE REFERENCE=RAS UV No. 7904
##$NIST SQUIB=1968KAM/LEW2059-2069
##$NIST SOURCE=TSGMTE
##SPECTROMETER/DATA SYSTEM=n.i.g.
##XUNITS=Wavelength (nm)
##YUNITS=Logarithm epsilon
##XFACTOR=1.000000
##YFACTOR=1.000000
##FIRSTX=241.9539
##LASTX=292.0248
##FIRSTY=2.51354
##MAXX=292.025
##MINX=241.954
##MAXY=3.60734
##MINY=2.19464
##NPOINTS=204
##$REF AUTHOR=Kammerer, H.; Lewenz, W.
##$REF TITLE=Zum additiven verhalten der C-Banden-Maxima mehrfach substituierter Phenole und anisole bei der absorption im UV -bereich
##$REF JOURNAL=Spectrochim. Acta, Part A
##$REF VOLUME=24
##$REF PAGE=2059-2069
##$REF DATE=1968
##XYPOINTS=(XY..XY)
241.9539,2.513537
242.1520,2.500535
242.3525,2.486880
242.5576,2.472259
244.3737,2.426479
244.5425,2.426640
244.7160,2.426805
244.8917,2.426973
245.4919,2.439201
245.6605,2.443126
245.8338,2.446741
246.0093,2.449774
246.7035,2.450400
246.8413,2.450524
246.9836,2.450653
247.1283,2.450783
247.9040,2.472105
248.9525,2.498265
249.9126,2.536022
250.9529,2.575195
250.9529,2.575195
251.1283,2.606064
251.3586,2.613780
251.7769,2.630070
251.7769,2.630070
251.7773,2.625686
251.7778,2.620884
251.7783,2.615840
251.7783,2.615840
252.0351,2.639186
252.2933,2.648115
252.5514,2.656864
252.5514,2.656864
252.9704,2.690223
253.4520,2.718256
254.0038,2.734666
254.4774,2.758801
254.6633,2.769410
255.1558,2.793924
256.2264,2.846771
256.2264,2.846771
256.8351,2.888866
257.6975,2.924723
258.2781,2.962216
258.8311,2.993061
259.4731,3.015624
260.0106,3.040619
260.3680,3.065894
260.3680,3.065894
260.9970,3.090638
261.5014,3.114744
262.0266,3.137073
262.1979,3.152708
262.8549,3.174028
263.3428,3.197357
263.6879,3.219710
263.6879,3.219710
264.0860,3.229499
264.3389,3.239592
264.4533,3.250488
264.4533,3.250488
264.8518,3.262369
265.0732,3.273743
265.2571,3.286198
265.2571,3.286198
265.3404,3.286208
265.4260,3.286220
265.5162,3.286232
265.5162,3.286232
265.6960,3.296303
265.8897,3.305955
265.9338,3.302693
265.9448,3.301987
265.9582,3.301242
265.9762,3.300417
266.1838,3.322564
266.3534,3.336404
266.4083,3.336411
266.4677,3.336418
266.5295,3.336425
266.5295,3.336425
266.8817,3.352318
267.2297,3.367787
267.5699,3.382743
267.8981,3.397113
268.2105,3.410831
269.3009,3.436049
269.5703,3.441762
269.7856,3.445451
269.8262,3.447428
269.8692,3.449342
269.9167,3.451219
270.5944,3.460990
270.9949,3.466581
271.3954,3.472100
271.7958,3.477550
272.2572,3.484783
272.5252,3.490239
272.7786,3.496722
273.2347,3.509573
273.4872,3.518628
273.7094,3.526865
273.9340,3.534926
274.1632,3.542796
274.4164,3.550300
274.5937,3.558093
274.9030,3.567600
275.4343,3.572929
275.4343,3.572929
275.4836,3.581878
275.6958,3.588668
276.0151,3.596549
276.3518,3.602490
276.5428,3.604800
276.7112,3.606595
277.0832,3.607336
277.0832,3.607336
277.6030,3.600974
277.9277,3.593890
278.1799,3.585427
278.3624,3.577797
278.5377,3.570027
278.7176,3.562094
278.8999,3.553970
279.0702,3.548154
279.2769,3.539990
279.4696,3.531783
279.5248,3.522588
279.8687,3.519969
280.1101,3.514626
280.3818,3.508710
280.5754,3.502485
280.5754,3.502485
280.6898,3.501909
280.8042,3.501283
280.9186,3.500631
281.0018,3.500194
281.7419,3.505368
282.2367,3.515351
282.5384,3.524606
282.7498,3.532838
282.9734,3.538581
283.1970,3.544228
283.4207,3.549757
283.4207,3.549757
283.5618,3.550325
283.7309,3.550542
284.0728,3.550596
284.0728,3.550596
284.3695,3.545589
284.5859,3.540113
284.7802,3.533401
284.8695,3.524783
284.9671,3.520031
285.0499,3.513217
285.1891,3.498193
285.3203,3.488273
285.4106,3.477733
285.5033,3.466877
285.6007,3.455715
285.6991,3.447402
285.8206,3.435069
285.9421,3.422347
286.0637,3.409181
286.1530,3.397671
286.2137,3.387000
286.2790,3.376061
286.3466,3.364839
286.4367,3.350667
286.5264,3.337466
286.6184,3.323815
286.7151,3.309645
286.8155,3.293517
286.9048,3.279358
286.9965,3.264723
287.0927,3.249577
287.1820,3.232857
287.2715,3.216046
287.3634,3.198458
287.4599,3.180078
287.5486,3.162328
287.6099,3.141784
287.6758,3.120161
287.7441,3.097281
287.9261,3.075729
288.0150,3.052096
288.1040,3.027103
288.1929,3.000583
288.2920,2.973463
288.3573,2.956369
288.4902,2.933620
288.7336,2.883903
288.9985,2.848131
289.1729,2.810722
289.3520,2.769653
289.5334,2.723998
289.8908,2.677302
290.0462,2.631469
290.3750,2.571633
290.6830,2.502934
291.1140,2.404666
291.4176,2.345744
291.7212,2.277142
292.0248,2.194636
##END=
