##TITLE=1,4-Benzoquinone
##JCAMP-DX=4.24
##DATA TYPE=UV/VIS SPECTRUM
##ORIGIN=INSTITUTE OF ENERGY PROBLEMS OF CHEMICAL PHYSICS, RAS
##OWNER=INEP CP RAS, NIST OSRD
Collection (C) 2007 copyright by the U.S. Secretary of Commerce
on behalf of the United States of America. All rights reserved.
##CAS REGISTRY NO=106-51-4
##MOLFORM=C6H4O2
##MP=115.7
##BP=sub
##SOURCE REFERENCE=RAS UV No. 558
##$NIST SQUIB=1935GUB196
##$NIST SOURCE=TSGMTE
##SPECTROMETER/DATA SYSTEM=Spectrophotometer SF-16
##XUNITS=Wavelength (nm)
##YUNITS=Logarithm epsilon
##XFACTOR=1.000000
##YFACTOR=1.000000
##FIRSTX=220.0000
##LASTX=389.0000
##FIRSTY=3.67001
##MAXX=389
##MINX=220
##MAXY=4.07
##MINY=2.24
##NPOINTS=170
##$REF AUTHOR=Guben, I.
##$REF JOURNAL=Methods of Organic Chemistry (in Rus.)
##$REF VOLUME=3
##$REF PAGE=196
##$REF DATE=1935
##XYPOINTS=(XY..XY)
220.0000,3.670005
221.0000,3.730000
222.0000,3.760000
223.0000,3.790000
224.0000,3.810000
225.0000,3.840000
226.0000,3.860000
227.0000,3.880000
228.0000,3.900000
229.0000,3.920000
230.0000,3.930001
231.0000,3.950000
232.0000,3.960000
233.0000,3.980000
234.0000,3.990000
235.0000,4.010000
236.0000,4.020000
237.0000,4.030000
238.0000,4.040000
239.0000,4.050000
240.0000,4.049993
241.0000,4.050000
242.0000,4.060000
243.0000,4.060000
244.0000,4.060000
245.0000,4.060000
246.0000,4.070000
247.0000,4.070000
248.0000,4.070000
249.0000,4.060000
250.0000,4.049993
251.0000,4.040000
252.0000,4.020000
253.0000,4.010000
254.0000,3.990000
255.0000,3.970000
256.0000,3.950000
257.0000,3.920000
258.0000,3.870000
259.0000,3.840000
260.0000,3.790004
261.0000,3.750000
262.0000,3.680000
263.0000,3.580000
264.0000,3.510000
265.0000,3.470000
266.0000,3.410000
267.0000,3.390000
268.0000,3.340000
269.0000,3.300000
270.0000,3.250005
271.0000,3.220000
272.0000,3.180000
273.0000,3.150000
274.0000,3.120000
275.0000,3.090000
276.0000,3.070000
277.0000,3.040000
278.0000,3.020000
279.0000,3.010000
280.0000,2.990001
281.0000,2.990000
282.0000,2.990000
283.0000,2.990000
284.0000,3.000000
285.0000,3.010000
286.0000,3.010000
287.0000,3.020000
288.0000,3.020000
289.0000,3.030000
290.0000,3.029992
291.0000,3.030000
292.0000,3.030000
293.0000,3.020000
294.0000,3.010000
295.0000,3.000000
296.0000,3.000000
297.0000,2.980000
298.0000,2.960000
299.0000,2.940000
300.0000,2.919998
301.0000,2.890000
302.0000,2.870000
303.0000,2.850000
304.0000,2.820000
305.0000,2.790000
306.0000,2.750000
307.0000,2.730000
308.0000,2.670000
309.0000,2.650000
310.0000,2.570006
311.0000,2.520000
312.0000,2.480000
313.0000,2.430000
314.0000,2.400000
315.0000,2.370000
316.0000,2.340000
317.0000,2.320000
318.0000,2.300000
319.0000,2.290000
320.0000,2.270003
321.0000,2.270000
322.0000,2.270000
323.0000,2.260000
324.0000,2.260000
325.0000,2.260000
326.0000,2.260000
327.0000,2.260000
328.0000,2.260000
329.0000,2.270000
330.0000,2.280009
331.0000,2.280000
332.0000,2.290000
333.0000,2.300000
334.0000,2.300000
335.0000,2.310000
336.0000,2.310000
337.0000,2.320000
338.0000,2.330000
339.0000,2.330000
340.0000,2.340008
341.0000,2.340000
342.0000,2.350000
343.0000,2.360000
344.0000,2.360000
345.0000,2.370000
346.0000,2.380000
347.0000,2.380000
348.0000,2.390000
349.0000,2.390000
350.0000,2.400002
351.0000,2.400000
352.0000,2.410000
353.0000,2.420000
354.0000,2.420000
355.0000,2.430000
356.0000,2.430000
357.0000,2.440000
358.0000,2.440000
359.0000,2.440000
360.0000,2.439995
361.0000,2.450000
362.0000,2.450000
363.0000,2.450000
364.0000,2.450000
365.0000,2.450000
366.0000,2.440000
367.0000,2.440000
368.0000,2.440000
369.0000,2.430000
370.0000,2.429994
371.0000,2.430000
372.0000,2.420000
373.0000,2.420000
374.0000,2.410000
375.0000,2.410000
376.0000,2.400000
377.0000,2.390000
378.0000,2.380000
379.0000,2.380000
380.0000,2.360006
381.0000,2.350000
382.0000,2.340000
383.0000,2.330000
384.0000,2.320000
385.0000,2.300000
386.0000,2.290000
387.0000,2.270000
388.0000,2.250000
389.0000,2.240000
##END=
