##TITLE=Phenol, 4-methyl-
##JCAMP-DX=4.24
##DATA TYPE=UV/VIS SPECTRUM
##ORIGIN=INSTITUTE OF ENERGY PROBLEMS OF CHEMICAL PHYSICS, RAS
##OWNER=INEP CP RAS, NIST OSRD
Collection (C) 2007 copyright by the U.S. Secretary of Commerce
on behalf of the United States of America. All rights reserved.
##CAS REGISTRY NO=106-44-5
##MOLFORM=C7H8O
##MP=35-36
##SOURCE REFERENCE=RAS UV No. 19730
##$NIST SQUIB=1961LAN143
##$NIST SOURCE=TYUGLMTE
##SPECTROMETER/DATA SYSTEM=Beckman DU
##XUNITS=Wavelength (nm)
##YUNITS=Logarithm epsilon
##XFACTOR=1.0
##YFACTOR=1.0
##FIRSTX=225.68
##LASTX=296.6
##FIRSTY=3.715
##MAXX=296.6
##MINX=225.68
##MAXY=3.718
##MINY=1.828
##NPOINTS=190
##$REF AUTHOR=Lang (editor), L.
##$REF JOURNAL=Absorption Spectra in the Ultraviolet and Visible Region
##$REF VOLUME=2
##$REF PAGE=143
##$REF DATE=1961
##XYPOINTS=(XY..XY)
225.68,3.715
225.85,3.718
226.02,3.718
226.53,3.667
227.38,3.565
228.23,3.443
229.08,3.347
229.93,3.239
230.78,3.086
231.63,2.953
232.49,2.855
233.34,2.743
234.19,2.644
235.04,2.562
235.89,2.488
236.74,2.443
237.59,2.389
238.44,2.352
239.29,2.314
240.14,2.287
240.99,2.270
241.84,2.253
242.69,2.243
243.54,2.236
244.39,2.229
245.24,2.229
246.09,2.236
246.94,2.240
247.79,2.253
248.64,2.263
249.49,2.274
250.34,2.291
251.19,2.301
252.04,2.321
252.89,2.338
253.74,2.365
254.60,2.406
255.45,2.447
256.30,2.498
257.15,2.539
258.00,2.583
258.85,2.617
259.70,2.651
260.55,2.681
261.40,2.715
262.25,2.749
263.10,2.780
263.95,2.811
264.97,2.868
265.14,2.872
265.31,2.875
265.48,2.882
265.65,2.885
265.82,2.889
265.99,2.895
266.16,2.899
266.33,2.906
266.50,2.909
266.67,2.923
266.84,2.926
267.01,2.936
267.18,2.943
267.35,2.950
267.52,2.957
267.69,2.963
267.86,2.974
268.03,2.980
268.20,2.987
268.37,2.991
268.54,3.001
268.71,3.004
268.88,3.004
269.05,3.011
269.22,3.018
269.39,3.025
269.56,3.031
269.73,3.038
269.90,3.045
270.07,3.052
270.24,3.062
270.41,3.076
270.75,3.089
270.92,3.096
271.09,3.106
271.43,3.120
271.60,3.120
271.77,3.120
272.11,3.113
272.28,3.103
272.45,3.099
272.62,3.096
273.13,3.099
273.30,3.103
273.47,3.110
273.64,3.116
273.81,3.130
273.98,3.140
274.15,3.150
274.32,3.167
274.49,3.174
274.66,3.201
274.83,3.215
275.00,3.218
275.34,3.205
275.51,3.191
275.69,3.188
275.86,3.181
276.03,3.181
276.20,3.181
276.37,3.181
276.54,3.184
276.71,3.184
276.88,3.195
277.05,3.198
277.22,3.201
277.39,3.215
277.56,3.218
277.73,3.235
277.90,3.259
278.07,3.259
278.24,3.252
278.41,3.235
278.58,3.232
278.75,3.229
278.92,3.222
279.09,3.218
279.26,3.218
279.43,3.222
279.60,3.225
279.77,3.232
279.94,3.246
280.11,3.269
280.45,3.300
280.62,3.313
280.79,3.324
280.96,3.330
281.13,3.337
281.30,3.337
281.47,3.334
281.98,3.256
282.15,3.232
282.32,3.218
282.49,3.191
282.66,3.157
282.83,3.150
283.00,3.140
283.17,3.130
283.34,3.120
283.51,3.113
283.68,3.106
283.85,3.106
284.02,3.099
284.19,3.099
284.36,3.099
284.53,3.099
284.70,3.099
284.87,3.099
285.04,3.103
285.21,3.106
285.38,3.110
285.55,3.113
285.72,3.116
285.89,3.120
286.06,3.123
286.23,3.140
286.57,3.171
286.74,3.188
286.91,3.215
287.42,3.290
287.59,3.293
287.76,3.290
287.93,3.269
288.10,3.252
288.27,3.215
288.61,3.140
288.78,3.099
288.95,3.082
290.48,2.834
290.99,2.664
291.50,2.559
292.01,2.447
292.52,2.379
293.03,2.280
293.54,2.219
294.05,2.141
294.56,2.070
295.07,2.019
295.58,1.947
296.09,1.893
296.60,1.828
##END=
