##TITLE=p-Bromoaniline
##JCAMP-DX=4.24
##DATA TYPE=UV/VIS SPECTRUM
##ORIGIN=INSTITUTE OF ENERGY PROBLEMS OF CHEMICAL PHYSICS, RAS
##OWNER=INEP CP RAS, NIST OSRD
Collection (C) 2007 copyright by the U.S. Secretary of Commerce
on behalf of the United States of America. All rights reserved.
##CAS REGISTRY NO=106-40-1
##MOLFORM=C6H6BrN
##MP=66.4
##BP=dec
##SOURCE REFERENCE=RAS UV No. 4399
##$NIST SQUIB=1956GIR606-613
##$NIST SOURCE=TSGMTE
##SPECTROMETER/DATA SYSTEM=n.i.g.
##XUNITS=Wavelength (nm)
##YUNITS=Logarithm epsilon
##XFACTOR=1.000000
##YFACTOR=1.000000
##FIRSTX=226.9750
##LASTX=315.0297
##FIRSTY=3.83354
##MAXX=315.03
##MINX=226.975
##MAXY=4.12758
##MINY=2.61049
##NPOINTS=642
##$REF AUTHOR=Girault-Vexlearschi, G.
##$REF TITLE=Influence de la ramification des chaines hydrocarbonees sur la basicite des amines. IV. Spectres d'absorption des alcoylarylamines
##$REF JOURNAL=Bull. Soc. Chim. Fr.
##$REF VOLUME=23
##$REF PAGE=606-613
##$REF DATE=1956
##XYPOINTS=(XY..XY)
226.9750,3.833541
227.2437,3.843799
227.2463,3.840560
227.3711,3.847507
227.3740,3.843864
227.5150,3.850819
227.5177,3.847580
227.8952,3.864373
227.8978,3.861134
228.0388,3.868089
228.0418,3.864446
228.1665,3.871393
228.1691,3.868154
228.2942,3.874696
228.2968,3.871457
228.4352,3.881651
228.4378,3.878413
228.5626,3.885359
228.5655,3.881716
228.6903,3.888663
228.6929,3.885424
228.9590,3.898921
228.9616,3.895683
229.0867,3.902225
229.0893,3.898986
229.2333,3.902298
229.4857,3.912548
229.4883,3.909310
229.6323,3.912621
230.0284,3.926588
230.0313,3.922944
230.1561,3.929891
230.1587,3.926653
233.2017,4.012405
233.2043,4.009166
233.3482,4.012478
233.4730,4.019425
233.4759,4.015781
233.6007,4.022728
233.6033,4.019490
233.7447,4.026040
233.7473,4.022801
234.0023,4.029813
234.0052,4.026169
234.1489,4.029886
234.5453,4.043448
234.5479,4.040209
234.8030,4.047221
234.8059,4.043577
234.9469,4.050532
234.9495,4.047294
235.0746,4.053836
235.0772,4.050597
235.2020,4.057544
235.2049,4.053901
235.3486,4.057617
235.6039,4.064224
235.7476,4.067940
235.7505,4.064297
235.8753,4.071244
235.8779,4.068005
236.0030,4.074547
236.0056,4.071308
236.1495,4.074620
236.2769,4.078328
236.4046,4.081632
236.4072,4.078393
236.5512,4.081705
236.8062,4.088716
236.9339,4.092020
236.9365,4.088781
237.0805,4.092093
237.2082,4.095396
237.3385,4.095461
237.4821,4.099177
237.7401,4.102546
237.7427,4.099307
237.8867,4.102618
240.8482,4.127581
240.9811,4.124407
241.2580,4.124545
241.3909,4.121371
245.3678,4.079203
245.3704,4.075965
245.5007,4.076029
245.9160,4.066111
246.0463,4.066176
246.4616,4.056257
246.5919,4.056322
246.5945,4.053084
246.7410,4.053156
246.7440,4.049513
246.8743,4.049578
246.8769,4.046339
247.0072,4.046404
247.5720,4.032915
247.7023,4.032980
247.7049,4.029741
248.4026,4.013078
248.4052,4.009839
248.5381,4.006665
248.5411,4.003022
248.9482,4.003224
248.9508,3.999986
249.0837,3.996812
249.0867,3.993168
249.2332,3.993241
249.2358,3.990002
249.5020,3.983250
249.5046,3.980011
249.6511,3.980084
249.6538,3.976845
249.7840,3.976910
249.7870,3.973267
250.0691,3.966927
250.0720,3.963283
250.2023,3.963348
250.2049,3.960110
250.3352,3.960174
250.3378,3.956936
250.4873,3.953365
250.4899,3.950126
250.6202,3.950191
250.6228,3.946952
250.7560,3.943374
250.7586,3.940135
250.8889,3.940200
250.8915,3.936961
251.0381,3.937034
251.0411,3.933391
251.1713,3.933455
251.1740,3.930217
251.3069,3.927043
251.3098,3.923399
251.4564,3.923472
251.4590,3.920233
251.5919,3.917060
251.5948,3.913416
251.7277,3.910242
251.7303,3.907003
251.8769,3.907076
251.8798,3.903433
252.1456,3.897085
252.1512,3.890203
252.2977,3.890276
252.3007,3.886632
252.4310,3.886697
252.4336,3.883458
252.5665,3.880284
252.5694,3.876641
252.7160,3.876714
252.7212,3.870236
252.8515,3.870301
252.8544,3.866658
252.9873,3.863484
252.9899,3.860245
253.1394,3.856675
253.1420,3.853436
253.2723,3.853501
253.2749,3.850262
253.4082,3.846683
253.4108,3.843445
253.5600,3.840279
253.5629,3.836635
253.8287,3.830287
253.8316,3.826644
253.9782,3.826717
253.9834,3.820240
254.1166,3.816661
254.1192,3.813422
254.2495,3.813487
254.2521,3.810248
254.4016,3.806678
254.4043,3.803439
254.5372,3.800265
254.5401,3.796622
254.6730,3.793448
254.6756,3.790209
254.9580,3.783464
254.9635,3.776582
255.0938,3.776647
255.0990,3.770170
255.2486,3.766599
255.2512,3.763360
255.3815,3.763425
255.3841,3.760186
255.5173,3.756608
255.5199,3.753369
255.6531,3.749790
255.6583,3.743313
255.8049,3.743386
255.8078,3.739742
255.9407,3.736568
255.9463,3.729686
256.0766,3.729751
256.0818,3.723274
256.3642,3.716529
256.3668,3.713291
256.5000,3.709712
256.5026,3.706473
256.6518,3.703307
256.6574,3.696425
256.7876,3.696490
256.7932,3.689608
256.9261,3.686434
256.9287,3.683195
257.0753,3.683268
257.0808,3.676386
257.2137,3.673212
257.2192,3.666330
257.3495,3.666395
257.3521,3.663156
257.5017,3.659585
257.5069,3.653108
257.6372,3.653173
257.6401,3.649529
257.7730,3.646355
257.7785,3.639473
257.9277,3.636307
257.9333,3.629425
258.0636,3.629490
258.0688,3.623013
258.2020,3.619434
258.2046,3.616195
258.3512,3.616268
258.3567,3.609386
258.4896,3.606212
258.4925,3.602569
258.6254,3.599395
258.6310,3.592512
258.7802,3.589347
258.7828,3.586108
258.9160,3.582529
258.9212,3.576052
259.0544,3.572473
259.0570,3.569234
259.2062,3.566069
259.2118,3.559187
259.3447,3.556013
259.3476,3.552369
259.4805,3.549195
259.4831,3.545957
259.6297,3.546029
259.6378,3.535909
259.7710,3.532330
259.7737,3.529091
259.9066,3.525917
260.0531,3.525990
260.0750,3.498866
260.4740,3.488940
260.4766,3.485701
260.6261,3.482130
260.6313,3.475653
260.7645,3.472074
260.7671,3.468836
260.9000,3.465662
260.9056,3.458780
261.0551,3.455209
261.0577,3.451970
261.1906,3.448796
261.1961,3.441914
261.3290,3.438740
261.3346,3.431858
261.4838,3.428692
261.4867,3.425049
261.6196,3.421875
261.6277,3.411754
261.7580,3.411819
261.7636,3.404937
261.9128,3.401771
261.9183,3.394889
262.0512,3.391715
262.0567,3.384833
262.1896,3.381659
262.1952,3.374777
262.3444,3.371611
262.3525,3.361490
262.4854,3.358316
262.4883,3.354673
262.6212,3.351499
262.6268,3.344616
262.7760,3.341451
262.7815,3.334568
262.9118,3.334633
262.9170,3.328156
263.0502,3.324577
263.0584,3.314456
263.2049,3.314529
263.2131,3.304408
263.3460,3.301234
263.3515,3.294352
263.4818,3.294417
263.4874,3.287535
263.6365,3.284369
263.6421,3.277487
263.7724,3.277552
263.7805,3.267431
263.9108,3.267496
263.9190,3.257375
264.0681,3.254209
264.0737,3.247327
264.2040,3.247392
264.2092,3.240914
264.3424,3.237335
264.3450,3.234097
264.4942,3.230931
264.4997,3.224049
264.6326,3.220875
264.6382,3.213993
264.7685,3.214058
264.7740,3.207175
264.9232,3.204010
264.9258,3.200771
265.0561,3.200836
265.0616,3.193953
265.1945,3.190780
265.1975,3.187136
265.3304,3.183962
265.3330,3.180724
265.4795,3.180796
265.4851,3.173914
265.6183,3.170335
265.6235,3.163858
265.7538,3.163923
265.7594,3.157041
265.9085,3.153875
265.9115,3.150231
266.0418,3.150296
266.0444,3.147058
266.1773,3.143884
266.1802,3.140240
266.3294,3.137074
266.3320,3.133836
266.4623,3.133900
266.4678,3.127018
266.6007,3.123844
266.6037,3.120201
266.7502,3.120274
266.7528,3.117035
266.8831,3.117100
266.8857,3.113861
267.0190,3.110282
267.0216,3.107044
267.3040,3.100299
267.3066,3.097061
267.5890,3.090316
267.5916,3.087077
267.7219,3.087142
267.7245,3.083904
267.8548,3.083968
267.8577,3.080325
268.0069,3.077159
268.0095,3.073920
268.1398,3.073985
268.1427,3.070342
268.2730,3.070406
268.2756,3.067168
268.5581,3.060423
268.5607,3.057185
268.6910,3.057249
268.6936,3.054011
268.8401,3.054083
268.8431,3.050440
268.9734,3.050505
268.9760,3.047266
269.1089,3.044092
269.2555,3.044165
269.2584,3.040522
269.3913,3.037348
269.5216,3.037412
269.5245,3.033769
269.6711,3.033842
269.8040,3.030668
269.8066,3.027429
269.9369,3.027494
269.9398,3.023851
270.2167,3.023988
270.3496,3.020814
270.4799,3.020879
270.7623,3.014135
271.3024,3.011163
271.4489,3.011236
271.5818,3.008062
272.2659,3.008402
272.3991,3.004823
272.5294,3.004888
272.6786,3.001722
272.8089,3.001787
272.9418,2.998613
273.0883,2.998686
273.2216,2.995107
275.7949,2.996387
275.9222,3.000095
276.1991,3.000233
276.3268,3.003536
276.4734,3.003609
276.6010,3.006913
277.4154,3.007318
277.5401,3.014265
277.5427,3.011026
277.6841,3.017576
277.6867,3.014337
277.8144,3.017641
277.9418,3.021349
278.3489,3.021552
278.6206,3.028167
279.0222,3.035251
279.0277,3.028369
279.2828,3.035381
279.4268,3.038692
279.6874,3.038822
279.8310,3.042538
279.9587,3.045842
279.9613,3.042603
280.0890,3.045907
280.2326,3.049623
280.4932,3.049753
280.6372,3.053064
280.7675,3.053129
280.8952,3.056432
281.0417,3.056505
281.1691,3.060213
281.2994,3.060278
281.4434,3.063590
281.5711,3.066893
281.5737,3.063655
281.7014,3.066958
281.8450,3.070674
281.9727,3.073978
281.9753,3.070739
282.1030,3.074043
282.2470,3.077354
282.5075,3.077484
282.6512,3.081200
282.7815,3.081265
283.0531,3.087880
283.1805,3.091588
283.1834,3.087945
283.3108,3.091653
283.4385,3.094957
283.7154,3.095094
283.8430,3.098398
284.1199,3.098535
284.2473,3.102244
284.3912,3.105555
284.3939,3.102316
284.6518,3.105685
284.7958,3.108996
285.2030,3.109199
285.3277,3.116146
285.3303,3.112907
285.6020,3.119522
285.6046,3.116283
285.8596,3.123295
285.8626,3.119652
286.0062,3.123368
286.1339,3.126671
286.5411,3.126874
286.6688,3.130177
286.9456,3.130315
287.0730,3.134023
287.4802,3.134226
287.7518,3.140841
288.4196,3.141173
288.6909,3.148193
289.3749,3.148533
289.5026,3.151836
290.1837,3.155820
290.1867,3.152176
290.3140,3.155885
290.4417,3.159188
290.7186,3.159326
290.8463,3.162629
292.4749,3.163439
292.6023,3.167147
294.2310,3.167957
294.3805,3.164386
295.4554,3.164921
295.7375,3.158581
296.0143,3.158719
296.1476,3.155140
296.4244,3.155278
296.4271,3.152039
296.9645,3.152306
297.0974,3.149132
297.2277,3.149197
297.3772,3.145627
297.5075,3.145691
297.6404,3.142517
297.7870,3.142590
297.9199,3.139416
298.0502,3.139481
298.0531,3.135838
298.4603,3.136040
298.6095,3.132874
298.7398,3.132939
298.7424,3.129700
298.8727,3.129765
299.0222,3.126195
299.1525,3.126259
299.4345,3.119920
299.5648,3.119984
299.5678,3.116341
299.8446,3.116479
299.9775,3.113305
300.1078,3.113369
300.1134,3.106487
300.2599,3.106560
300.3928,3.103386
300.6697,3.103524
300.6723,3.100285
300.8026,3.100350
300.8056,3.096707
300.9358,3.096771
301.3512,3.086853
301.4977,3.086926
301.5003,3.083687
301.6306,3.083752
301.6332,3.080513
301.7635,3.080578
301.8968,3.076999
301.8994,3.073761
302.0459,3.073833
302.5942,3.060741
302.5971,3.057098
302.7274,3.057162
302.8766,3.053997
303.0069,3.054061
303.0098,3.050418
303.2919,3.044078
303.2948,3.040435
303.4251,3.040500
303.4277,3.037261
303.5580,3.037326
303.7072,3.034160
303.7101,3.030516
303.8430,3.027342
303.9733,3.027407
303.9759,3.024169
304.1225,3.024241
304.2557,3.020663
304.2583,3.017424
304.8065,3.004332
304.8095,3.000688
304.9587,2.997522
305.0889,2.997587
305.2218,2.994413
305.2274,2.987531
305.3766,2.984365
305.5069,2.984430
305.7893,2.977686
305.7919,2.974447
305.9222,2.974512
305.9251,2.970868
306.0580,2.967694
306.2046,2.967767
306.2072,2.964529
306.3404,2.960950
306.3430,2.957711
306.4759,2.954537
306.6062,2.954602
306.7557,2.951031
306.8860,2.951096
307.0189,2.947922
307.1655,2.947995
307.1710,2.941113
307.3039,2.937939
307.3121,2.927818
307.7274,2.917900
307.7300,2.914661
307.8603,2.914726
307.8632,2.911082
308.1401,2.911220
308.1427,2.907981
308.2759,2.904403
308.2811,2.897925
308.5661,2.887942
308.5743,2.877821
308.7075,2.874243
309.5463,2.844285
309.6955,2.841119
309.6981,2.837880
310.1134,2.827962
310.1163,2.824318
310.3821,2.817971
310.3850,2.814327
310.5316,2.814400
310.5368,2.807923
310.8030,2.801170
310.8056,2.797931
310.9521,2.798004
310.9577,2.791122
311.2238,2.784369
311.2290,2.777892
311.3593,2.777957
311.3622,2.774313
311.5114,2.771148
311.5140,2.767909
311.6443,2.767974
311.6499,2.761092
311.9323,2.754347
311.9349,2.751108
312.0652,2.751173
312.0707,2.744291
312.2036,2.741117
312.2065,2.737473
312.3531,2.737546
312.3583,2.731069
312.4886,2.731134
312.4916,2.727490
312.6245,2.724316
312.6271,2.721078
312.7736,2.721151
312.7792,2.714268
312.9121,2.711095
312.9150,2.707451
313.0453,2.707516
313.0505,2.701038
313.2000,2.697468
313.2026,2.694229
313.3355,2.691055
313.3385,2.687412
313.4714,2.684238
313.4740,2.680999
313.6235,2.677429
313.6261,2.674190
313.7564,2.674255
313.7619,2.667373
314.0440,2.661033
314.0469,2.657389
314.1798,2.654215
314.1824,2.650977
314.3157,2.647398
314.3183,2.644159
314.4675,2.640994
314.4730,2.634111
314.6059,2.630938
314.6088,2.627294
314.7391,2.627359
314.7447,2.620477
315.0268,2.614137
315.0297,2.610493
##END=
