##TITLE=1-Butene
##JCAMP-DX=4.24
##DATA TYPE=UV/VIS SPECTRUM
##ORIGIN=INSTITUTE OF ENERGY PROBLEMS OF CHEMICAL PHYSICS, RAS
##OWNER=INEP CP RAS, NIST OSRD
Collection (C) 2007 copyright by the U.S. Secretary of Commerce
on behalf of the United States of America. All rights reserved.
##CAS REGISTRY NO=106-98-9
##MOLFORM=C4H8
##MP=-185.3
##BP=-6.2
##SOURCE REFERENCE=RAS UV No. 20
##$NIST SQUIB=1962SAM/MAR783-786
##$NIST SOURCE=TSGMTE
##SPECTROMETER/DATA SYSTEM=n.i.g.
##XUNITS=Wavelength (nm)
##YUNITS=Logarithm epsilon
##XFACTOR=1.000000
##YFACTOR=1.000000
##FIRSTX=148.1694
##LASTX=195.8584
##FIRSTY=2.78286
##MAXX=195.858
##MINX=148.169
##MAXY=3.07109
##MINY=0.766041
##NPOINTS=279
##$REF AUTHOR=Samson, J.A.R.; Marmo, F.F.; Watanabe, K.
##$REF TITLE=Absorption and photoionization coefficients of propylene and butene-1 in the vacuum ultraviolet
##$REF JOURNAL=J. Chem. Phys.
##$REF VOLUME=36
##$REF NUMBER=3
##$REF PAGE=783-786
##$REF DATE=1962
##XYPOINTS=(XY..XY)
148.1694,2.782857
148.4288,2.790172
148.6941,2.797817
148.9866,2.802493
148.9866,2.802493
149.0213,2.805315
149.0559,2.808054
149.0881,2.802485
149.0905,2.810746
149.1471,2.801899
149.2061,2.801280
149.2651,2.800596
149.3748,2.800009
149.4514,2.800682
149.5299,2.801290
149.6121,2.801865
149.6121,2.801865
149.7127,2.809543
149.8450,2.816404
150.0057,2.817668
150.1650,2.816321
150.3071,2.814194
150.4606,2.812462
150.7081,2.813865
150.8509,2.817043
150.8509,2.817043
150.9277,2.819394
150.9295,2.816892
151.0118,2.816710
151.0959,2.816466
151.0959,2.816466
151.1700,2.808602
151.3052,2.796743
151.4857,2.782416
151.6955,2.767305
151.9188,2.753334
152.1397,2.742670
152.3422,2.737635
152.3422,2.737635
152.6081,2.742931
152.7936,2.749653
152.9473,2.756525
152.9473,2.756525
153.0066,2.756833
153.0658,2.757106
153.1250,2.757307
153.1250,2.757307
153.1594,2.759214
153.1596,2.760160
153.1599,2.761069
153.1601,2.761906
153.3041,2.752452
153.4436,2.747075
153.5778,2.742989
153.5778,2.742989
153.9781,2.711533
154.2919,2.685232
154.5322,2.664083
154.7122,2.647775
154.8449,2.635703
154.9433,2.627017
155.0204,2.620683
155.0894,2.615549
155.1633,2.610384
155.1633,2.610384
155.3217,2.605135
155.4500,2.599825
155.6589,2.593199
155.6589,2.593199
155.8204,2.596124
155.9837,2.598928
156.1508,2.601663
156.1508,2.601663
156.2293,2.601127
156.3116,2.600489
156.3957,2.599799
156.3957,2.599799
156.4241,2.596247
156.4697,2.593957
156.5716,2.590972
156.6392,2.590962
156.8597,2.592964
157.0820,2.594853
157.3081,2.596683
157.3081,2.596683
157.8336,2.604000
157.9517,2.602273
158.0868,2.601401
158.1881,2.600472
158.3749,2.623285
158.6761,2.643518
159.2226,2.659149
159.2226,2.659149
159.7936,2.659866
160.2616,2.662362
160.8388,2.665709
160.8388,2.665709
160.9387,2.677333
161.0701,2.686610
161.3443,2.695719
161.3443,2.695719
161.5023,2.714012
161.7367,2.729105
162.0578,2.744304
162.0578,2.744304
162.1730,2.758349
162.2883,2.771924
162.4035,2.785066
162.5188,2.797808
162.6340,2.810180
162.6340,2.810180
162.8338,2.815514
163.0560,2.820046
163.2730,2.826350
163.2730,2.826350
163.3914,2.826341
163.5097,2.826331
163.6281,2.826322
163.6281,2.826322
163.7052,2.821622
163.7861,2.816808
163.8689,2.811910
163.9351,2.807093
163.9356,2.808755
163.9360,2.810348
163.9365,2.811904
163.9365,2.811904
164.2206,2.812365
164.3940,2.813115
164.6053,2.814794
164.6053,2.814794
164.7185,2.836701
164.7962,2.846642
164.9050,2.853781
164.9050,2.853781
165.3428,2.860300
165.6625,2.867401
165.8848,2.874943
166.0304,2.882793
166.1201,2.890824
166.1745,2.898922
166.2144,2.906975
166.2603,2.914883
166.3331,2.922551
166.3331,2.922551
166.4726,2.927095
166.6159,2.931568
166.7611,2.935948
166.7611,2.935948
166.8794,2.935941
166.9978,2.935933
167.1161,2.935926
167.1161,2.935926
167.2881,2.931300
167.4091,2.926003
167.7445,2.921477
167.7445,2.921477
168.1203,2.925695
168.4527,2.931884
168.7452,2.939460
169.0008,2.947860
169.2230,2.956553
169.4149,2.965046
169.5799,2.972884
169.7213,2.979642
169.8422,2.984918
169.8422,2.984918
170.2102,2.991082
170.5604,2.997244
170.8971,3.003380
171.2243,3.009468
171.5462,3.015488
171.8668,3.021421
172.1902,3.027248
172.5205,3.032952
172.8619,3.038517
173.2184,3.043926
173.2184,3.043926
173.4770,3.051524
173.6786,3.056989
173.9014,3.060718
174.2235,3.063071
174.7231,3.064386
175.4783,3.064987
175.4783,3.064987
175.9416,3.067180
176.3825,3.069432
176.8512,3.071087
176.8512,3.071087
177.2901,3.066338
177.6330,3.060860
177.9017,3.054787
178.1175,3.048263
178.3019,3.041436
178.4766,3.034465
178.6631,3.027519
178.6631,3.027519
178.8531,3.023462
179.1947,3.014810
179.5876,3.004422
179.9312,2.995379
180.1253,2.991008
180.1253,2.991008
180.1847,2.988561
180.3254,2.983577
180.5278,2.976537
180.7724,2.967918
181.0396,2.958220
181.3099,2.947980
181.5636,2.937785
181.7812,2.928279
181.7812,2.928279
182.1260,2.921537
182.4427,2.911712
182.7147,2.900869
182.9255,2.891260
182.9255,2.891260
183.0417,2.881652
183.1580,2.871827
183.2746,2.861774
183.3916,2.851483
183.5093,2.840943
183.6277,2.830140
183.7469,2.819061
183.7469,2.819061
183.8826,2.809274
184.0220,2.799262
184.1648,2.789011
184.3107,2.778511
184.4592,2.767749
184.6100,2.756711
184.7628,2.745381
184.9173,2.733745
185.0730,2.721783
185.2297,2.709478
185.3869,2.696808
185.5444,2.683751
185.7018,2.670281
185.8588,2.656373
186.0149,2.641996
186.1699,2.627116
186.3234,2.611698
186.4750,2.595700
186.4750,2.595700
186.8165,2.589470
187.2187,2.587146
187.7072,2.583795
187.7072,2.583795
187.9070,2.567018
188.1055,2.549633
188.3013,2.531563
188.4934,2.512717
188.6802,2.492995
188.8606,2.472276
189.0331,2.450423
189.1967,2.427273
189.3498,2.402632
189.4912,2.376267
189.6197,2.347894
189.7339,2.317164
189.8326,2.283635
189.9144,2.246746
189.9144,2.246746
190.0972,2.201332
190.2818,2.150321
190.4702,2.092346
190.4702,2.092346
190.7349,2.042325
191.0520,1.987985
191.4161,1.928626
191.8219,1.863351
192.2640,1.790975
192.7370,1.709887
193.2357,1.617791
193.7546,1.511268
194.2884,1.384810
194.2884,1.384810
194.9810,1.122514
195.8584,0.766041
##END=
