##TITLE=1,3-Butadiene
##JCAMP-DX=4.24
##DATA TYPE=UV/VIS SPECTRUM
##ORIGIN=INSTITUTE OF ENERGY PROBLEMS OF CHEMICAL PHYSICS, RAS
##OWNER=INEP CP RAS, NIST OSRD
Collection (C) 2007 copyright by the U.S. Secretary of Commerce
on behalf of the United States of America. All rights reserved.
##CAS REGISTRY NO=106-99-0
##MOLFORM=C4H6
##MP=-109
##BP=-4.4
##SOURCE REFERENCE=RAS UV No. 1478
##$NIST SQUIB=1961ROS/SYM1-7
##$NIST SOURCE=TSGMTE
##SPECTROMETER/DATA SYSTEM=Unicam SP 500
##XUNITS=Wavelength (nm)
##YUNITS=Logarithm epsilon
##XFACTOR=1.000000
##YFACTOR=1.000000
##FIRSTX=200.6193
##LASTX=333.0485
##FIRSTY=4.32919
##MAXX=333.048
##MINX=200.619
##MAXY=4.47885
##MINY=2.69033
##NPOINTS=502
##$REF AUTHOR=Rosenbaum, J.; Symons, M.C.R.
##$REF TITLE=Unstable intermediates. Part XI. Allylic carbonium ions
##$REF JOURNAL=J. Chem. Soc.
##$REF PAGE=1-7
##$REF DATE=1961
##XYPOINTS=(XY..XY)
200.6193,4.329190
200.9298,4.323158
200.9298,4.329190
201.2058,4.320289
202.3445,4.292436
202.3445,4.298908
202.6205,4.289356
202.6205,4.292436
202.9311,4.282740
202.9311,4.286255
203.2071,4.276418
203.2071,4.279590
203.4832,4.269600
203.4832,4.276418
204.0697,4.259374
204.0697,4.269600
204.3458,4.259374
204.9324,4.248902
204.9324,4.252701
205.2084,4.242064
205.2084,4.248902
205.4844,4.231160
205.4844,4.238170
205.7950,4.223586
205.7950,4.231160
206.0710,4.219976
206.0710,4.223586
206.3471,4.219976
206.6576,4.208496
206.6576,4.216335
206.9336,4.204757
206.9336,4.208496
207.2097,4.204757
207.5202,4.196704
207.5202,4.200512
208.9349,4.172114
208.9349,4.176143
210.0736,4.150856
210.0736,4.155087
210.3841,4.146047
210.3841,4.150856
212.3854,4.109055
212.3854,4.113710
212.6614,4.104349
212.6614,4.109055
212.9375,4.098993
212.9375,4.104349
216.3879,4.035258
216.6640,4.035258
216.9745,4.023307
216.9745,4.028972
217.2506,4.017567
217.2506,4.023307
217.5266,4.011018
217.5266,4.017567
217.8371,4.005112
218.1132,3.999125
218.1132,4.005112
218.3892,3.992289
218.3892,3.999125
218.6998,3.992289
220.3905,3.953058
220.7010,3.945450
220.7010,3.953058
220.9771,3.938574
220.9771,3.945450
221.2531,3.938574
221.8397,3.923591
222.1157,3.916357
222.1157,3.923591
222.4263,3.916357
222.7023,3.909001
222.9783,3.900573
222.9783,3.909001
223.2544,3.892942
223.5649,3.892942
224.1170,3.877266
224.4275,3.868193
224.4275,3.877266
224.7036,3.868193
225.2902,3.851579
225.5662,3.851579
225.8422,3.841947
226.1528,3.833202
226.1528,3.841947
226.4288,3.833202
226.9809,3.814012
227.2914,3.814012
227.5675,3.804680
227.8435,3.804680
228.1541,3.795142
228.4301,3.784156
228.4301,3.795142
228.7061,3.784156
229.0167,3.774152
229.2927,3.774152
229.5687,3.763912
230.4314,3.753425
230.4314,3.763912
230.7074,3.741315
231.2940,3.730261
231.2940,3.741315
231.8806,3.718917
231.8806,3.730261
232.4326,3.705791
232.4326,3.718917
233.0192,3.705791
233.2953,3.693781
233.8818,3.693781
234.1579,3.681430
234.7445,3.681430
235.0205,3.667101
235.8831,3.653954
235.8831,3.667101
237.0218,3.640398
237.0218,3.653954
238.7470,3.626404
238.7470,3.640398
244.7508,3.626404
245.0614,3.640398
245.9240,3.640398
246.2000,3.653954
247.0627,3.653954
247.3387,3.667101
247.9253,3.667101
248.2013,3.681430
248.4773,3.681430
248.7879,3.693781
249.3400,3.693781
249.9265,3.718917
250.2026,3.718917
250.5131,3.730261
250.7892,3.730261
251.0652,3.741315
251.3412,3.741315
251.6518,3.753425
251.9278,3.753425
252.5144,3.774152
252.7904,3.774152
253.3770,3.795142
253.6531,3.795142
254.2051,3.814012
254.5157,3.824277
254.5157,3.814012
254.7917,3.824277
255.3783,3.841947
255.6543,3.841947
257.1035,3.885175
257.3796,3.885175
258.2422,3.916357
258.2422,3.909001
258.5182,3.923591
258.5182,3.916357
258.7943,3.923591
259.6569,3.953058
259.6569,3.945450
259.9674,3.959710
259.9674,3.953058
260.2435,3.959710
260.5195,3.973516
260.5195,3.966261
261.1061,3.986121
261.3821,3.992289
261.3821,3.986121
262.2447,4.017567
262.2447,4.011018
262.5208,4.023307
262.5208,4.017567
263.9700,4.057559
263.9700,4.052257
264.2460,4.062797
264.2460,4.057559
264.8326,4.078770
264.8326,4.073722
265.6952,4.098993
265.6952,4.094176
266.5578,4.118316
266.5578,4.113710
266.8339,4.123440
266.8339,4.118316
267.1099,4.132403
267.1099,4.127945
267.6965,4.146047
267.6965,4.141728
268.2486,4.159276
268.2486,4.155087
268.5591,4.168047
268.5591,4.163942
269.1112,4.180632
269.1112,4.176143
269.4217,4.188499
269.4217,4.184583
269.9738,4.200512
269.9738,4.196704
270.2843,4.208496
270.2843,4.204757
270.8364,4.219976
270.8364,4.216335
271.1470,4.227167
271.1470,4.223586
271.6990,4.238170
271.6990,4.234680
271.9751,4.245496
271.9751,4.242064
272.5617,4.259374
272.5617,4.252701
272.8377,4.266354
272.8377,4.262673
273.4243,4.276418
273.4243,4.272822
273.7003,4.282740
273.7003,4.279590
274.0109,4.289356
274.0109,4.286255
274.2869,4.295874
274.2869,4.292436
274.5629,4.301920
274.5629,4.298908
274.8735,4.308253
274.8735,4.304912
275.1495,4.314131
275.1495,4.311202
275.4256,4.320289
275.4256,4.317402
275.7016,4.326362
275.7016,4.323158
276.0121,4.332001
276.0121,4.329190
276.2882,4.337913
276.2882,4.335141
276.5642,4.343405
276.5642,4.340668
276.8748,4.349165
276.8748,4.346464
277.1508,4.354849
277.1508,4.349165
277.4268,4.360132
277.4268,4.357499
277.7374,4.365676
277.7374,4.363076
278.0134,4.371150
278.0134,4.368260
278.5655,4.378762
278.5655,4.376239
278.8760,4.384074
278.8760,4.381582
279.1521,4.389322
279.1521,4.386552
279.7386,4.396927
279.7386,4.394204
280.0147,4.401725
280.0147,4.399332
280.8773,4.411456
280.8773,4.409117
281.1533,4.414073
281.1533,4.411456
282.0160,4.425797
282.0160,4.421259
282.2920,4.428329
282.2920,4.425797
282.6025,4.430567
282.6025,4.428329
282.8786,4.432794
282.8786,4.430567
283.1546,4.435009
283.1546,4.432794
284.0172,4.444300
284.0172,4.441860
284.3278,4.446458
284.3278,4.444300
284.6038,4.451007
284.6038,4.448605
284.8799,4.455246
284.8799,4.453132
285.1904,4.457613
285.1904,4.455246
287.1917,4.472560
287.4677,4.474582
287.4677,4.472560
288.0543,4.476595
288.0543,4.474582
288.6064,4.476595
288.9169,4.478848
291.1942,4.478848
291.4703,4.476595
291.7808,4.474582
291.7808,4.476595
292.0568,4.472560
292.0568,4.474582
292.3329,4.470274
292.3329,4.472560
292.6089,4.468232
292.6089,4.470274
292.9195,4.463860
292.9195,4.468232
293.1955,4.459705
293.1955,4.461788
293.4715,4.453132
293.4715,4.459705
293.7821,4.448605
293.7821,4.453132
294.0581,4.444300
294.0581,4.446458
294.3342,4.437488
294.3342,4.441860
294.6447,4.430567
294.6447,4.437488
294.9207,4.421259
294.9207,4.430567
295.1968,4.411456
295.1968,4.418686
295.5073,4.404104
295.5073,4.409117
295.7834,4.396927
295.7834,4.404104
296.0594,4.386552
296.0594,4.394204
296.3354,4.376239
296.3354,4.384074
296.6460,4.371150
296.6460,4.373702
296.9220,4.360132
296.9220,4.368260
297.1981,4.351849
297.1981,4.357499
297.5086,4.346464
297.5086,4.349165
297.7846,4.337913
297.7846,4.343405
298.0607,4.329190
298.0607,4.335141
298.3712,4.320289
298.3712,4.326362
298.6472,4.314131
298.6472,4.317402
298.9233,4.304912
298.9233,4.311202
299.2338,4.295874
299.2338,4.301920
299.5099,4.289356
299.5099,4.295874
299.7859,4.279590
299.7859,4.286255
300.0619,4.272822
300.0619,4.276418
300.3725,4.262673
300.3725,4.269600
300.6485,4.256050
300.6485,4.259374
300.9246,4.245496
300.9246,4.252701
301.2351,4.238170
301.2351,4.242064
301.5111,4.227167
301.5111,4.234680
301.7872,4.219976
301.7872,4.227167
302.0977,4.212203
302.0977,4.219976
302.3738,4.204757
302.3738,4.212203
302.6498,4.196704
302.6498,4.200512
302.9258,4.188499
302.9258,4.192862
303.2364,4.180632
303.2364,4.184583
303.5124,4.172114
303.5124,4.176143
303.7885,4.163942
303.7885,4.168047
304.0990,4.155087
304.0990,4.159276
304.3750,4.146047
304.3750,4.150856
304.6511,4.132403
304.6511,4.141728
304.9616,4.127945
304.9616,4.132403
305.2377,4.118316
305.2377,4.123440
305.5137,4.109055
305.5137,4.113710
305.8242,4.098993
305.8242,4.104349
306.1003,4.094176
306.1003,4.098993
306.3763,4.083759
306.3763,4.089305
306.6524,4.073722
306.6524,4.078770
307.2389,4.052257
307.2389,4.062797
307.5150,4.046213
307.5150,4.052257
307.8255,4.035258
307.8255,4.040770
308.1016,4.028972
308.1016,4.035258
308.3776,4.017567
308.3776,4.023307
308.6881,4.011018
308.6881,4.017567
308.9642,3.999125
308.9642,4.005112
309.2402,3.992289
309.2402,3.999125
309.8268,3.973516
309.8268,3.979864
310.6894,3.945450
310.6894,3.953058
311.8281,3.909001
311.8281,3.916357
312.6907,3.885175
312.9667,3.877266
312.9667,3.885175
313.2773,3.859965
313.2773,3.868193
313.5533,3.851579
313.5533,3.859965
313.8293,3.851579
314.1054,3.833202
314.1054,3.841947
314.4159,3.824277
314.4159,3.833202
314.6920,3.814012
314.6920,3.824277
314.9680,3.804680
314.9680,3.814012
315.2785,3.804680
316.1412,3.763912
316.1412,3.774152
316.4172,3.763912
316.6932,3.753425
316.9693,3.741315
316.9693,3.753425
317.2798,3.730261
317.5559,3.718917
317.5559,3.730261
317.8319,3.705791
318.1424,3.693781
318.1424,3.705791
318.4185,3.693781
318.6945,3.681430
319.0051,3.667101
319.0051,3.681430
319.2811,3.653954
319.2811,3.667101
319.5571,3.653954
320.1437,3.626404
320.4197,3.610103
320.4197,3.626404
320.6958,3.610103
321.0063,3.595081
321.2824,3.595081
321.5584,3.579520
321.8689,3.561321
321.8689,3.579520
322.1450,3.544478
322.1450,3.561321
322.4210,3.544478
322.7316,3.526956
323.0076,3.506359
323.0076,3.526956
323.2836,3.506359
323.5942,3.487193
323.8702,3.467141
323.8702,3.487193
324.1463,3.443419
324.1463,3.467141
324.7328,3.421186
324.7328,3.443419
325.0089,3.421186
325.2849,3.397753
325.5955,3.372983
325.5955,3.397753
325.8715,3.372983
326.1475,3.343317
326.4581,3.343317
326.7341,3.315130
327.0102,3.284986
327.0102,3.315130
327.5967,3.248368
327.5967,3.284986
328.1488,3.213006
328.1488,3.248368
328.7354,3.174507
328.7354,3.213006
329.3220,3.126678
329.3220,3.174507
329.8740,3.079235
329.8740,3.126678
330.4606,3.079235
330.7367,3.025966
331.0127,3.025966
331.3232,2.957013
331.5993,2.957013
331.8753,2.884922
332.4619,2.798435
332.4619,2.884922
332.7379,2.798435
333.0485,2.690331
##END=
