##TITLE=1-Propanethiol
##JCAMP-DX=4.24
##DATA TYPE=UV/VIS SPECTRUM
##ORIGIN=INSTITUTE OF ENERGY PROBLEMS OF CHEMICAL PHYSICS, RAS
##OWNER=INEP CP RAS, NIST OSRD
Collection (C) 2007 copyright by the U.S. Secretary of Commerce
on behalf of the United States of America. All rights reserved.
##CAS REGISTRY NO=107-03-9
##MOLFORM=C3H8S
##BP=67.8
##SOURCE REFERENCE=RAS UV No. 20092
##$NIST SQUIB=1969BOL/82
##$NIST SOURCE=TYUGLMTE
##SPECTROMETER/DATA SYSTEM=unknown
##XUNITS=Wavelength (nm)
##YUNITS=Logarithm epsilon
##XFACTOR=1.0
##YFACTOR=1.0
##FIRSTX=208.98
##LASTX=293.17
##FIRSTY=2.49
##MAXX=293.17
##MINX=208.98
##MAXY=2.49
##MINY=0.041
##NPOINTS=145
##$REF AUTHOR=Bol'shakov, G.F.; et al.
##$REF JOURNAL=Ultraviolet spectra of heteroorganic compounds
##$REF PAGE=82
##$REF DATE=1969
##XYPOINTS=(XY..XY)
208.98,2.490
209.15,2.480
209.35,2.468
209.55,2.456
209.83,2.442
210.00,2.435
210.17,2.427
210.33,2.419
210.50,2.411
210.67,2.403
210.83,2.395
211.00,2.388
211.17,2.380
211.83,2.346
212.50,2.306
213.17,2.275
213.83,2.233
214.50,2.199
215.17,2.160
215.83,2.131
216.50,2.113
217.17,2.097
217.83,2.094
218.50,2.092
219.17,2.092
219.83,2.092
220.50,2.094
221.17,2.097
221.83,2.105
222.50,2.108
223.17,2.113
223.83,2.121
224.50,2.121
225.17,2.128
225.83,2.131
226.50,2.134
227.17,2.134
227.83,2.134
228.50,2.131
229.17,2.131
229.83,2.131
230.50,2.131
231.17,2.128
231.83,2.126
232.50,2.118
233.17,2.113
233.83,2.102
234.50,2.097
235.17,2.087
235.83,2.081
236.50,2.071
237.17,2.060
237.83,2.045
238.50,2.029
239.17,2.019
239.83,2.003
240.50,1.990
241.17,1.974
241.83,1.948
242.50,1.932
243.17,1.917
243.83,1.896
244.50,1.877
245.17,1.851
245.83,1.830
246.50,1.799
247.17,1.778
247.83,1.744
248.50,1.718
249.17,1.692
249.84,1.655
250.50,1.624
251.17,1.592
251.84,1.558
252.50,1.516
253.17,1.482
253.84,1.443
254.50,1.414
255.17,1.378
255.84,1.351
256.50,1.312
257.17,1.283
257.84,1.249
258.50,1.218
259.17,1.179
259.84,1.155
260.50,1.124
261.17,1.092
261.84,1.066
262.50,1.030
263.17,1.001
263.84,0.967
264.50,0.938
265.17,0.912
265.84,0.883
266.50,0.854
267.17,0.820
267.84,0.797
268.50,0.771
269.17,0.745
269.84,0.718
270.50,0.692
271.17,0.666
271.84,0.642
272.50,0.614
273.17,0.590
273.84,0.567
274.50,0.540
275.17,0.522
275.84,0.499
276.50,0.475
277.17,0.452
277.84,0.433
278.50,0.407
279.17,0.386
280.04,0.357
281.17,0.318
281.34,0.315
281.50,0.310
281.67,0.308
281.84,0.302
282.00,0.297
282.17,0.295
282.34,0.289
282.50,0.287
282.67,0.281
282.84,0.276
283.00,0.274
283.17,0.268
283.34,0.266
283.84,0.250
284.50,0.234
285.17,0.216
285.84,0.200
286.50,0.182
287.17,0.166
287.84,0.148
288.50,0.130
289.17,0.117
289.84,0.104
290.50,0.090
291.17,0.080
291.84,0.067
292.50,0.054
293.17,0.041
##END=
