##TITLE=5H-Benzocycloheptene,6,7,8,9-tetrahydro-
##JCAMP-DX=4.24
##DATA TYPE=UV/VIS SPECTRUM
##ORIGIN=INSTITUTE OF ENERGY PROBLEMS OF CHEMICAL PHYSICS, RAS
##OWNER=INEP CP RAS, NIST OSRD
Collection (C) 2007 copyright by the U.S. Secretary of Commerce
on behalf of the United States of America. All rights reserved.
##CAS REGISTRY NO=1075-16-7
##MOLFORM=C11H14
##SOURCE REFERENCE=RAS UV No. 15658
##$NIST SQUIB=1970HUM/STE99
##$NIST SOURCE=TYUGLMTE
##SPECTROMETER/DATA SYSTEM=Jarrell-Ash Robin Vacuum UV
##XUNITS=Wavelength (nm)
##YUNITS=Logarithm epsilon
##XFACTOR=1.0
##YFACTOR=1.0
##FIRSTX=238.13
##LASTX=283.66
##FIRSTY=1.812
##MAXX=283.66
##MINX=238.13
##MAXY=2.41
##MINY=0.297
##NPOINTS=617
##$REF AUTHOR=Humby, C.M.; Stevens, R.D.S.
##$REF JOURNAL=Spectroscopy Letters
##$REF VOLUME=3
##$REF PAGE=99
##$REF DATE=1970
##XYPOINTS=(XY..XY)
238.13,1.812
238.19,1.815
238.25,1.815
238.31,1.816
238.36,1.816
238.42,1.818
238.48,1.821
238.54,1.822
238.59,1.823
238.65,1.823
238.71,1.825
238.77,1.828
238.83,1.829
238.88,1.831
238.94,1.831
239.00,1.832
239.06,1.833
239.11,1.836
239.17,1.838
239.23,1.838
239.29,1.839
239.35,1.842
239.40,1.845
239.46,1.845
239.52,1.846
239.58,1.847
239.64,1.851
239.70,1.851
239.75,1.853
239.81,1.857
239.87,1.858
239.93,1.859
239.99,1.859
240.05,1.861
240.10,1.865
240.16,1.866
240.22,1.866
240.28,1.869
240.34,1.871
240.40,1.872
240.45,1.874
240.51,1.875
240.57,1.877
240.63,1.879
240.69,1.881
240.75,1.884
240.81,1.885
240.87,1.886
240.92,1.887
240.98,1.891
241.04,1.893
241.10,1.893
241.16,1.894
241.22,1.894
241.28,1.895
241.34,1.897
241.40,1.899
241.46,1.900
241.51,1.901
241.57,1.905
241.63,1.905
241.69,1.906
241.75,1.907
241.81,1.909
241.87,1.911
241.93,1.912
241.99,1.913
242.05,1.915
242.11,1.916
242.17,1.917
242.23,1.919
242.29,1.921
242.34,1.922
242.40,1.923
242.46,1.923
242.52,1.925
242.58,1.928
242.64,1.929
242.70,1.930
242.76,1.932
242.82,1.933
242.88,1.935
242.94,1.936
243.00,1.937
243.06,1.939
243.12,1.939
243.18,1.940
243.24,1.941
243.30,1.944
243.36,1.946
243.42,1.946
243.48,1.947
243.54,1.949
243.60,1.950
243.66,1.951
243.72,1.952
243.78,1.953
243.84,1.955
243.90,1.956
243.96,1.956
244.02,1.957
244.08,1.959
244.14,1.960
244.20,1.962
244.26,1.962
244.33,1.962
244.39,1.965
244.45,1.966
244.51,1.967
244.57,1.968
244.63,1.968
244.69,1.970
244.75,1.971
244.81,1.973
244.87,1.974
244.93,1.976
244.99,1.977
245.05,1.977
245.11,1.978
245.18,1.981
245.24,1.982
245.30,1.983
245.36,1.983
245.42,1.985
245.48,1.987
245.54,1.987
245.60,1.989
245.66,1.991
245.72,1.992
245.79,1.993
245.85,1.995
245.91,1.996
245.97,1.997
246.03,1.998
246.09,2.000
246.15,2.002
246.22,2.002
246.28,2.005
246.34,2.006
246.40,2.007
246.46,2.009
246.52,2.011
246.58,2.012
246.65,2.012
246.71,2.015
246.77,2.017
246.83,2.018
246.89,2.020
246.95,2.021
247.02,2.024
247.08,2.026
247.14,2.026
247.20,2.028
247.26,2.030
247.33,2.031
247.39,2.034
247.45,2.034
247.51,2.036
247.57,2.039
247.64,2.040
247.70,2.042
247.76,2.043
247.82,2.046
247.89,2.048
247.95,2.049
248.01,2.052
248.07,2.053
248.13,2.055
248.20,2.057
248.26,2.059
248.32,2.060
248.38,2.063
248.45,2.067
248.51,2.068
248.57,2.071
248.64,2.073
248.70,2.073
248.76,2.077
248.82,2.078
248.89,2.081
248.95,2.084
249.01,2.085
249.07,2.088
249.14,2.088
249.20,2.092
249.26,2.092
249.33,2.095
249.39,2.098
249.45,2.099
249.52,2.101
249.58,2.104
249.64,2.107
249.70,2.108
249.77,2.111
249.83,2.114
249.89,2.116
249.96,2.118
250.02,2.119
250.08,2.122
250.15,2.124
250.21,2.126
250.27,2.129
250.34,2.130
250.40,2.132
250.47,2.132
250.53,2.135
250.59,2.136
250.66,2.137
250.72,2.139
250.78,2.142
250.85,2.143
250.91,2.146
250.98,2.146
251.04,2.149
251.10,2.150
251.17,2.152
251.23,2.153
251.29,2.155
251.36,2.156
251.42,2.158
251.49,2.159
251.55,2.161
251.62,2.163
251.68,2.165
251.74,2.166
251.81,2.168
251.87,2.170
251.94,2.172
252.00,2.175
252.07,2.176
252.13,2.178
252.19,2.179
252.26,2.182
252.32,2.184
252.39,2.185
252.45,2.188
252.52,2.190
252.58,2.192
252.65,2.194
252.71,2.197
252.78,2.200
252.84,2.205
252.90,2.209
252.97,2.210
253.03,2.214
253.10,2.217
253.16,2.220
253.23,2.223
253.29,2.228
253.36,2.229
253.42,2.231
253.49,2.234
253.55,2.234
253.62,2.236
253.69,2.239
253.75,2.242
253.82,2.242
253.88,2.244
253.95,2.246
254.01,2.250
254.08,2.250
254.14,2.252
254.21,2.255
254.27,2.256
254.34,2.257
254.40,2.259
254.47,2.261
254.54,2.263
254.60,2.265
254.67,2.265
254.73,2.267
254.80,2.267
254.86,2.268
254.93,2.269
255.00,2.270
255.06,2.270
255.13,2.270
255.19,2.272
255.26,2.272
255.33,2.272
255.39,2.274
255.46,2.274
255.52,2.275
255.59,2.276
255.66,2.277
255.72,2.277
255.79,2.277
255.86,2.279
255.92,2.280
255.99,2.280
256.06,2.281
256.12,2.282
256.19,2.283
256.25,2.284
256.32,2.284
256.39,2.284
256.45,2.285
256.52,2.286
256.59,2.287
256.65,2.287
256.72,2.288
256.79,2.289
256.86,2.289
256.92,2.290
256.99,2.291
257.06,2.292
257.12,2.294
257.19,2.295
257.26,2.296
257.32,2.298
257.39,2.300
257.46,2.302
257.53,2.304
257.59,2.305
257.66,2.306
257.73,2.307
257.79,2.308
257.86,2.310
257.93,2.312
258.00,2.312
258.06,2.314
258.13,2.314
258.20,2.315
258.27,2.317
258.33,2.317
258.40,2.318
258.47,2.319
258.54,2.321
258.61,2.321
258.67,2.323
258.74,2.324
258.81,2.325
258.88,2.327
258.94,2.329
259.01,2.333
259.08,2.338
259.15,2.340
259.22,2.343
259.29,2.348
259.35,2.350
259.42,2.352
259.49,2.353
259.56,2.356
259.63,2.357
259.69,2.359
259.76,2.361
259.83,2.362
259.90,2.363
259.97,2.365
260.04,2.366
260.11,2.368
260.17,2.369
260.24,2.370
260.31,2.372
260.38,2.374
260.45,2.374
260.52,2.377
260.59,2.379
260.66,2.381
260.72,2.382
260.79,2.383
260.86,2.385
260.93,2.386
261.00,2.388
261.07,2.389
261.14,2.390
261.21,2.392
261.28,2.393
261.35,2.396
261.41,2.398
261.48,2.399
261.55,2.400
261.62,2.400
261.69,2.401
261.76,2.403
261.83,2.404
261.90,2.406
261.97,2.407
262.04,2.408
262.11,2.409
262.18,2.410
262.25,2.409
262.32,2.407
262.39,2.404
262.46,2.403
262.53,2.402
262.60,2.401
262.67,2.399
262.74,2.397
262.81,2.397
262.88,2.396
263.02,2.385
263.09,2.384
263.16,2.382
263.23,2.381
263.30,2.378
263.37,2.377
263.44,2.374
263.51,2.372
263.58,2.369
263.65,2.365
263.72,2.363
263.79,2.360
263.86,2.358
263.93,2.358
264.00,2.357
264.07,2.344
264.14,2.340
264.21,2.338
264.29,2.337
264.36,2.335
264.43,2.333
264.50,2.332
264.57,2.331
264.64,2.331
264.71,2.330
264.78,2.330
264.85,2.330
264.92,2.330
265.00,2.330
265.07,2.330
265.14,2.330
265.21,2.331
265.28,2.332
265.35,2.334
265.42,2.337
265.49,2.339
265.57,2.340
265.64,2.339
265.71,2.339
265.78,2.339
265.85,2.338
265.92,2.337
266.00,2.337
266.07,2.337
266.14,2.336
266.21,2.334
266.28,2.333
266.35,2.331
266.43,2.330
266.50,2.328
266.57,2.327
266.64,2.324
266.71,2.321
266.79,2.316
266.86,2.311
266.93,2.307
267.00,2.301
267.08,2.294
267.15,2.288
267.22,2.284
267.29,2.280
267.37,2.276
267.44,2.273
267.51,2.273
267.58,2.274
267.66,2.273
267.73,2.270
267.80,2.268
267.87,2.266
267.95,2.264
268.02,2.262
268.09,2.261
268.16,2.261
268.24,2.267
268.31,2.274
268.38,2.277
268.46,2.277
268.53,2.278
268.60,2.283
268.68,2.290
268.75,2.293
268.82,2.299
268.90,2.305
268.97,2.309
269.04,2.316
269.12,2.324
269.19,2.329
269.26,2.333
269.34,2.336
269.41,2.340
269.48,2.340
269.56,2.332
269.63,2.321
269.70,2.314
269.78,2.307
269.85,2.298
269.93,2.292
270.00,2.291
270.07,2.290
270.15,2.289
270.22,2.288
270.29,2.288
270.37,2.288
270.44,2.287
270.52,2.287
270.59,2.286
270.67,2.285
270.74,2.284
270.81,2.280
270.89,2.274
270.96,2.265
271.04,2.197
271.11,2.177
271.19,2.156
271.26,2.145
271.34,2.137
271.41,2.125
271.48,2.110
271.56,2.097
271.63,2.082
271.71,2.069
271.78,2.059
271.86,2.047
271.93,2.037
272.01,2.026
272.08,2.015
272.16,2.005
272.23,1.996
272.31,1.985
272.38,1.978
272.46,1.973
272.53,1.967
272.61,1.958
272.69,1.950
272.76,1.940
272.84,1.929
272.91,1.920
272.99,1.912
273.06,1.902
273.14,1.893
273.21,1.884
273.29,1.874
273.37,1.863
273.44,1.859
273.52,1.853
273.59,1.842
273.67,1.832
273.74,1.822
273.82,1.812
273.90,1.801
273.97,1.789
274.05,1.776
274.12,1.767
274.20,1.758
274.28,1.747
274.35,1.736
274.43,1.726
274.51,1.713
274.58,1.705
274.66,1.696
274.74,1.684
274.81,1.672
274.89,1.655
274.97,1.640
275.04,1.629
275.12,1.622
275.20,1.613
275.27,1.603
275.35,1.591
275.43,1.581
275.50,1.571
275.58,1.563
275.66,1.553
275.73,1.539
275.81,1.525
275.89,1.511
275.96,1.502
276.04,1.490
276.12,1.477
276.20,1.467
276.27,1.461
276.35,1.454
276.43,1.447
276.51,1.437
276.58,1.430
276.66,1.419
276.74,1.412
276.82,1.404
276.89,1.397
276.97,1.389
277.05,1.381
277.13,1.373
277.21,1.360
277.28,1.356
277.36,1.348
277.44,1.339
277.52,1.330
277.60,1.321
277.67,1.317
277.75,1.307
277.83,1.298
277.91,1.293
277.99,1.283
278.06,1.273
278.14,1.262
278.22,1.262
278.30,1.257
278.38,1.252
278.46,1.241
278.54,1.236
278.61,1.230
278.69,1.224
278.77,1.218
278.85,1.207
278.93,1.201
279.01,1.195
279.25,1.176
279.64,1.129
280.04,1.076
280.52,1.015
280.99,0.956
281.48,0.875
282.04,0.790
282.60,0.686
283.09,0.519
283.66,0.297
##END=
