##TITLE=Acetaldoxime
##JCAMP-DX=4.24
##DATA TYPE=UV/VIS SPECTRUM
##ORIGIN=INSTITUTE OF ENERGY PROBLEMS OF CHEMICAL PHYSICS, RAS
##OWNER=INEP CP RAS, NIST OSRD
Collection (C) 2007 copyright by the U.S. Secretary of Commerce
on behalf of the United States of America. All rights reserved.
##CAS REGISTRY NO=107-29-9
##MOLFORM=C2H5NO
##MP=45
##BP=115
##SOURCE REFERENCE=RAS UV No. 2847
##$NIST SQUIB=1948GRA979-990
##$NIST SOURCE=TSGMTE
##SPECTROMETER/DATA SYSTEM=n.i.g.
##XUNITS=Wavelength (nm)
##YUNITS=Logarithm epsilon
##XFACTOR=1.000000
##YFACTOR=1.000000
##FIRSTX=254.8698
##LASTX=226.4632
##FIRSTY=0.139155
##MAXX=254.87
##MINX=226.463
##MAXY=2.01771
##MINY=0.139155
##NPOINTS=65
##$REF AUTHOR=Grammaticakis, P.
##$REF TITLE=Contribution a l'etude de l'absorption dans l'ultraviolet moyen et dans le visible des chromophores complexes. I. Effets spectraux de phenylation
##$REF JOURNAL=Bull. Soc. Chim. Fr.
##$REF VOLUME=15
##$REF PAGE=979-990
##$REF DATE=1948
##XYPOINTS=(XY..XY)
254.8698,0.139155
254.2735,0.187295
253.9424,0.217984
253.6616,0.249321
253.6616,0.249321
253.5432,0.252076
253.4249,0.254814
253.3068,0.257535
253.3068,0.257535
253.2122,0.267453
252.9946,0.286995
252.6697,0.314962
252.2538,0.350073
251.7630,0.391129
251.2132,0.436910
250.6204,0.486147
250.0002,0.537643
249.3679,0.590139
248.7386,0.642415
248.1272,0.693243
247.5479,0.741388
247.0152,0.785615
246.5430,0.824692
246.1451,0.857393
245.8354,0.882479
245.6277,0.898720
245.5359,0.904883
245.5359,0.904883
245.4636,0.922881
245.3167,0.935935
244.9701,0.955250
244.9701,0.955250
244.5068,0.991824
244.0401,1.028299
243.5706,1.064679
243.0985,1.100966
242.6242,1.137164
242.1483,1.173282
241.6710,1.209322
241.1927,1.245286
240.7139,1.281179
240.2348,1.317006
239.7558,1.352771
239.2774,1.388478
238.7998,1.424130
238.3235,1.459732
237.8487,1.495289
237.8487,1.495289
237.3444,1.520638
236.7416,1.557700
236.2422,1.584350
236.2422,1.584350
235.6113,1.622714
234.9416,1.660286
234.2407,1.697220
233.5161,1.733671
232.7751,1.769794
232.0251,1.805744
231.2729,1.841677
230.5254,1.877746
230.5254,1.877746
229.5008,1.912865
228.4814,1.947874
227.4685,1.982811
226.4632,2.017711
##END=
