##TITLE=2,4,4-Trimethyl-1-pentene
##JCAMP-DX=4.24
##DATA TYPE=UV/VIS SPECTRUM
##ORIGIN=INSTITUTE OF ENERGY PROBLEMS OF CHEMICAL PHYSICS, RAS
##OWNER=INEP CP RAS, NIST OSRD
Collection (C) 2007 copyright by the U.S. Secretary of Commerce
on behalf of the United States of America. All rights reserved.
##CAS REGISTRY NO=107-39-1
##MOLFORM=C8H16
##MP=-93.5
##BP=101.4
##SOURCE REFERENCE=RAS UV No. 1313
##$NIST SQUIB=1959TUR30-33
##$NIST SOURCE=TSGMTE
##SPECTROMETER/DATA SYSTEM=n.i.g.
##XUNITS=Wavelength (nm)
##YUNITS=Logarithm epsilon
##XFACTOR=1.000000
##YFACTOR=1.000000
##FIRSTX=175.6094
##LASTX=206.6716
##FIRSTY=3.70022
##MAXX=206.672
##MINX=175.609
##MAXY=3.89028
##MINY=3.4388
##NPOINTS=65
##$REF AUTHOR=Turner, D.W.
##$REF TITLE=Spectrophotometry in the far-ultraviolet region. Part II. Absorption spectra of steroids and triterpenoids
##$REF JOURNAL=J. Chem. Soc.
##$REF PAGE=30-33
##$REF DATE=1959
##XYPOINTS=(XY..XY)
175.6094,3.700222
176.4158,3.709706
177.3587,3.717380
178.3258,3.725258
179.2050,3.735204
179.8842,3.748897
179.8842,3.748897
180.7728,3.756022
181.6264,3.764138
182.4488,3.773080
183.2438,3.782686
184.0154,3.792804
184.7673,3.803292
185.5036,3.814018
186.2279,3.824861
186.9443,3.835712
187.6565,3.846469
188.3685,3.857044
189.0841,3.867355
189.8071,3.877326
189.8071,3.877326
190.5008,3.883259
190.8298,3.886647
192.1830,3.888447
192.6661,3.890281
193.2691,3.882276
194.3249,3.873125
195.3409,3.862234
195.3409,3.862234
195.8345,3.854465
196.5803,3.842079
197.4312,3.826688
198.2404,3.810069
198.8607,3.794270
199.1452,3.781645
199.1452,3.781645
199.2054,3.790078
199.2487,3.781331
199.2795,3.790123
199.3525,3.780886
199.3568,3.790170
199.4407,3.790221
199.4407,3.790221
199.4444,3.787914
199.4482,3.785530
199.4522,3.783003
199.4563,3.780375
199.4563,3.780375
199.6415,3.766671
199.9381,3.752455
200.5044,3.738948
200.5044,3.738948
201.3933,3.707866
202.1513,3.679451
202.7954,3.653696
203.3422,3.630453
203.8088,3.609434
204.2119,3.590205
204.5684,3.572194
204.8952,3.554688
205.2089,3.536843
205.5266,3.517662
205.8651,3.495962
206.2411,3.470293
206.6716,3.438804
##END=
