##TITLE=1,2,3,4,5,6,7,8-Octahydroanthracene
##JCAMP-DX=4.24
##DATA TYPE=UV/VIS SPECTRUM
##ORIGIN=INSTITUTE OF ENERGY PROBLEMS OF CHEMICAL PHYSICS, RAS
##OWNER=INEP CP RAS, NIST OSRD
Collection (C) 2007 copyright by the U.S. Secretary of Commerce
on behalf of the United States of America. All rights reserved.
##CAS REGISTRY NO=1079-71-6
##MOLFORM=C14H18
##MP=78
##BP=294
##SOURCE REFERENCE=RAS UV No. 8975
##$NIST SQUIB=1966JOHd3/6C
##$NIST SOURCE=TSGMTE
##SPECTROMETER/DATA SYSTEM=Unicam SP 500
##XUNITS=Wavelength (nm)
##YUNITS=Logarithm epsilon
##XFACTOR=1.000000
##YFACTOR=1.000000
##FIRSTX=294.8092
##LASTX=185.3589
##FIRSTY=1.12161
##MAXX=294.809
##MINX=185.359
##MAXY=4.63929
##MINY=1.12161
##NPOINTS=362
##$REF AUTHOR=Johnson, E.A.
##$REF TITLE=1,2,3,4,5,6,7,8-Octahydroanthracene
##$REF BOOK TITLE=UV Atlas of Organic Compounds - Vol. 2
##$REF PAGE=D3/6
##$REF DATE=1966
##$REF PUBLISHER=Plenum Press
##$REF LOCATION=New York
##XYPOINTS=(XY..XY)
294.8092,1.121609
294.6519,1.155409
294.4948,1.189207
294.3379,1.223005
294.1811,1.256797
294.0245,1.290584
293.8680,1.324369
293.7118,1.358148
293.5556,1.391921
293.3997,1.425689
293.2739,1.514476
293.2439,1.459450
293.1349,1.514218
293.0883,1.493203
292.9862,1.513904
292.9220,1.516549
292.8327,1.513476
292.8327,1.513476
292.8082,1.549126
292.7425,1.510328
292.6920,1.581711
292.6475,1.507066
292.5736,1.614300
292.5427,1.503748
292.4530,1.646893
292.3304,1.679486
292.2058,1.712079
292.0792,1.744668
291.9509,1.777254
291.8209,1.809834
291.6892,1.842405
291.5560,1.874967
291.4214,1.907517
291.2854,1.940054
291.1481,1.972576
291.0097,2.005081
290.8702,2.037568
290.7296,2.070034
290.5882,2.102478
290.4459,2.134897
290.3029,2.167292
290.1592,2.199658
290.0150,2.231995
289.8702,2.264302
289.7251,2.296575
289.7251,2.296575
289.5979,2.339876
289.4690,2.383284
289.3386,2.426704
289.2072,2.470044
289.0749,2.513211
288.9423,2.556112
288.8096,2.598654
288.6771,2.640745
288.5453,2.682292
288.4143,2.723201
288.2845,2.763380
288.1564,2.802736
288.0301,2.841177
287.9060,2.878609
287.7845,2.914939
287.6658,2.950075
287.5504,2.983925
287.4384,3.016393
287.3303,3.047389
287.2263,3.076820
287.1267,3.104592
287.0320,3.130612
286.9424,3.154788
286.8582,3.177027
286.7797,3.197235
286.7073,3.215321
286.6413,3.231192
286.5820,3.244753
286.5297,3.255914
286.4847,3.264580
286.4847,3.264580
286.3380,3.266118
286.1914,3.267599
286.1438,3.305375
286.1171,3.293314
286.0857,3.281197
286.0449,3.268966
286.0449,3.268966
285.7931,3.268982
285.5612,3.266935
285.3249,3.264831
285.0797,3.262614
285.0797,3.262614
284.8225,3.226017
284.5635,3.189394
284.3032,3.152748
284.0420,3.116084
283.7801,3.079406
283.5180,3.042720
283.2560,3.006029
283.2560,3.006029
283.0898,3.003979
282.9192,3.001871
282.7396,2.999651
282.5731,2.993250
282.4540,2.999089
282.2749,3.002140
281.8832,3.006115
281.8832,3.006115
281.5113,3.045811
281.1358,3.085393
280.7523,3.124919
280.7523,3.124919
280.5304,3.125959
280.3088,3.126999
280.2563,3.147261
280.2541,3.141619
280.2519,3.135978
280.2496,3.130336
280.0876,3.128039
280.0876,3.128039
279.8235,3.123287
279.5804,3.113862
279.1504,3.091684
279.1504,3.091684
278.9644,3.091107
278.7697,3.090417
278.5709,3.089669
278.5709,3.089669
277.4483,3.129244
277.1848,3.175829
275.9913,3.205492
275.9913,3.205492
275.8540,3.204143
275.7169,3.202680
275.5798,3.201160
275.5798,3.201160
275.1370,3.162574
274.6950,3.123953
274.2534,3.085304
273.8117,3.046633
273.3691,3.007948
272.9254,2.969257
272.9254,2.969257
272.6384,2.969713
272.3478,2.970055
272.0493,2.970341
272.0493,2.970341
271.9269,2.975944
271.7663,2.980409
271.4303,2.987565
271.4303,2.987565
271.1978,2.986811
270.9572,2.986058
270.7129,2.985306
270.7129,2.985306
270.4023,2.973008
270.0840,2.960654
269.7623,2.948187
269.7623,2.948187
269.3023,2.904148
269.0593,2.885283
268.8240,2.875422
268.8240,2.875422
268.1340,2.875204
267.4394,2.874929
266.7443,2.874541
266.7443,2.874541
266.0450,2.839400
265.5322,2.803287
265.0834,2.766479
264.5782,2.729257
263.8980,2.691900
263.8980,2.691900
263.2765,2.676397
262.7058,2.662828
262.3386,2.652264
262.3386,2.652264
261.2851,2.616240
260.9262,2.570762
259.9534,2.534732
259.9534,2.534732
259.2242,2.501677
258.5392,2.474431
257.5654,2.433360
257.5654,2.433360
256.7330,2.386893
256.2325,2.355616
255.6332,2.312723
255.6332,2.312723
255.2758,2.302872
254.8586,2.288297
254.5034,2.278446
254.5034,2.278446
253.9167,2.242199
253.3103,2.205918
252.6840,2.169568
252.0376,2.133113
251.3711,2.096517
250.6842,2.059744
250.6842,2.059744
250.3555,2.046312
249.9904,2.027868
249.7393,2.018020
249.7393,2.018020
247.9720,1.931058
246.8655,1.877181
246.2586,1.847993
246.0006,1.835097
245.9458,1.830100
245.9458,1.830100
245.7209,1.825171
245.3854,1.816717
244.6555,1.801229
244.5170,1.800215
243.1264,1.809422
242.4672,1.831389
242.0734,1.858121
242.0734,1.858121
241.8178,1.889564
241.5719,1.921024
241.3350,1.952502
241.1069,1.983995
240.8870,2.015504
240.6750,2.047026
240.4703,2.078562
240.2727,2.110110
240.0816,2.141669
239.8966,2.173239
239.7174,2.204818
239.5435,2.236406
239.3745,2.268002
239.2100,2.299604
239.0496,2.331213
238.8929,2.362826
238.7395,2.394444
238.5891,2.426064
238.4411,2.457687
238.2953,2.489311
238.1513,2.520936
238.0086,2.552560
237.8669,2.584182
237.7257,2.615802
237.5848,2.647419
237.4438,2.679032
237.3021,2.710640
237.1596,2.742241
237.0158,2.773836
236.8703,2.805423
236.7228,2.837001
236.5728,2.868570
236.4202,2.900128
236.2644,2.931674
236.1051,2.963208
235.9419,2.994729
235.7746,3.026235
235.6027,3.057726
235.4258,3.089201
235.2438,3.120660
235.0561,3.152100
234.8625,3.183521
234.6625,3.214923
234.4560,3.246304
234.2425,3.277664
234.0217,3.309001
233.7934,3.340314
233.7934,3.340314
233.1097,3.415569
232.5085,3.482475
231.9830,3.541589
231.5266,3.593464
231.1329,3.638659
230.7958,3.677728
230.5092,3.711227
230.2672,3.739713
230.0642,3.763740
229.8943,3.783864
229.7519,3.800642
229.6315,3.814630
229.5275,3.826382
229.4344,3.836455
229.3467,3.845405
229.3467,3.845405
228.4741,3.883129
227.2611,3.902592
225.2807,3.914268
225.2807,3.914268
224.6559,3.927940
223.7581,3.944831
223.3042,3.960368
223.3042,3.960368
222.9727,3.965197
222.6393,3.969913
222.3013,3.974573
222.3013,3.974573
220.7897,3.968145
219.6876,3.969028
218.1598,3.986539
218.1598,3.986539
217.8230,3.994696
217.3663,4.004574
216.9999,4.013588
216.9999,4.013588
215.6395,4.044516
214.3957,4.098399
213.7079,4.135753
213.7079,4.135753
213.0659,4.187503
212.4533,4.237473
211.8720,4.285391
211.3242,4.330985
210.8118,4.373985
210.3366,4.414120
209.9007,4.451119
209.5061,4.484710
209.1546,4.514622
208.8483,4.540585
208.5892,4.562326
208.3793,4.579575
208.2207,4.592062
208.1157,4.599514
208.1157,4.599514
207.4353,4.623964
206.7785,4.635305
205.6529,4.639294
205.6529,4.639294
204.1000,4.625062
202.5051,4.605308
201.0989,4.579187
200.1000,4.545854
200.1000,4.545854
200.0280,4.545597
199.9561,4.545283
199.8842,4.544855
199.8842,4.544855
199.2302,4.518163
198.2203,4.487128
197.3370,4.460808
197.3370,4.460808
196.9481,4.443753
196.2955,4.421033
195.7206,4.405370
195.7206,4.405370
195.3539,4.387951
194.7063,4.366296
194.2081,4.350947
194.2081,4.350947
193.7461,4.330236
192.8963,4.305133
192.4402,4.282713
192.4402,4.282713
191.8242,4.263010
191.1546,4.241152
190.1409,4.208667
188.5074,4.157085
188.5074,4.157085
187.9788,4.142790
187.3341,4.123496
186.8006,4.112450
186.8006,4.112450
186.8004,4.111092
186.8001,4.109620
186.7999,4.108091
186.7999,4.108091
186.0719,4.090178
185.3589,4.068959
##END=
