##TITLE=2,4,6-Octatriyne
##JCAMP-DX=4.24
##DATA TYPE=UV/VIS SPECTRUM
##ORIGIN=INSTITUTE OF ENERGY PROBLEMS OF CHEMICAL PHYSICS, RAS
##OWNER=INEP CP RAS, NIST OSRD
Collection (C) 2007 copyright by the U.S. Secretary of Commerce
on behalf of the United States of America. All rights reserved.
##CAS REGISTRY NO=1072-20-4
##MOLFORM=C8H6
##MP=127
##SOURCE REFERENCE=RAS UV No. 19929
##$NIST SQUIB=1966PER/BOHa8/1
##$NIST SOURCE=TYUGLMTE
##SPECTROMETER/DATA SYSTEM=Zeiss PMQ II
##XUNITS=Wavelength (nm)
##YUNITS=Logarithm epsilon
##XFACTOR=1.0
##YFACTOR=1.0
##FIRSTX=182.53
##LASTX=319.7
##FIRSTY=4.304
##MAXX=319.7
##MINX=182.53
##MAXY=5.154
##MINY=1.134
##NPOINTS=556
##$REF AUTHOR=Perkampus, H.-H.; Bohlmann, F.
##$REF JOURNAL=UV atlas of organic compounds
##$REF VOLUME=1
##$REF PAGE=A8/1
##$REF DATE=1966
##XYPOINTS=(XY..XY)
182.53,4.304
182.60,4.306
182.67,4.306
182.74,4.306
182.81,4.308
182.88,4.308
182.96,4.308
183.03,4.310
183.10,4.310
183.17,4.310
183.24,4.312
183.39,4.308
183.53,4.308
183.67,4.312
183.82,4.314
183.96,4.314
184.11,4.317
184.25,4.317
184.40,4.319
184.54,4.325
184.69,4.327
184.83,4.329
184.98,4.336
185.13,4.340
185.27,4.348
185.42,4.352
185.57,4.361
185.71,4.369
185.86,4.378
186.01,4.388
186.16,4.401
186.31,4.411
186.45,4.424
186.60,4.437
186.75,4.449
186.90,4.460
187.05,4.479
187.20,4.491
187.35,4.510
187.50,4.523
187.65,4.535
187.80,4.554
187.95,4.569
188.10,4.586
188.25,4.601
188.41,4.613
188.56,4.626
188.71,4.634
188.86,4.645
189.02,4.651
189.17,4.660
189.32,4.668
189.47,4.672
189.63,4.679
189.78,4.689
189.94,4.702
190.09,4.710
190.24,4.712
190.40,4.710
190.55,4.704
190.71,4.700
190.87,4.691
191.02,4.687
191.18,4.679
191.33,4.672
191.49,4.666
191.65,4.660
191.80,4.651
191.96,4.641
192.12,4.639
192.28,4.632
192.44,4.628
192.59,4.626
192.75,4.622
192.91,4.622
193.07,4.622
193.23,4.624
193.39,4.628
193.55,4.630
193.71,4.639
193.87,4.643
194.03,4.649
194.19,4.658
194.35,4.664
194.52,4.674
194.68,4.685
194.84,4.695
195.00,4.706
195.16,4.723
195.33,4.740
195.49,4.761
195.65,4.784
195.82,4.803
195.98,4.826
196.15,4.845
196.31,4.864
196.48,4.885
196.64,4.897
196.81,4.921
196.97,4.931
197.14,4.952
197.30,4.963
197.47,4.973
197.64,4.990
197.80,4.999
197.97,5.011
198.14,5.020
198.31,5.026
198.48,5.028
198.64,5.030
198.81,5.028
198.98,5.022
199.15,5.011
199.32,4.999
199.49,4.988
199.66,4.973
199.83,4.952
200.00,4.940
200.17,4.916
200.34,4.891
200.52,4.855
200.69,4.824
200.86,4.796
201.03,4.767
201.21,4.738
201.38,4.712
201.55,4.695
201.73,4.683
201.90,4.670
202.08,4.660
202.25,4.645
202.42,4.639
202.60,4.632
202.78,4.628
202.95,4.626
203.13,4.624
203.30,4.626
203.48,4.630
203.66,4.634
203.84,4.645
204.01,4.649
204.19,4.662
204.37,4.683
204.55,4.704
204.73,4.727
204.91,4.748
205.09,4.773
205.27,4.801
205.45,4.832
205.63,4.864
205.81,4.895
205.99,4.929
206.17,4.950
206.35,5.001
206.53,5.036
206.72,5.068
206.90,5.100
207.08,5.116
207.27,5.127
207.45,5.146
207.63,5.152
207.82,5.154
208.00,5.152
208.19,5.144
208.37,5.108
208.56,5.074
208.75,5.051
208.93,5.011
209.12,4.969
209.31,4.916
209.49,4.874
209.68,4.820
209.87,4.780
210.06,4.733
210.25,4.689
210.44,4.622
210.62,4.575
210.81,4.527
211.00,4.483
211.20,4.437
211.39,4.390
211.58,4.342
211.77,4.300
211.96,4.251
212.15,4.205
212.35,4.131
212.54,4.085
212.73,4.045
212.92,3.997
213.12,3.948
213.31,3.900
213.51,3.860
213.70,3.809
213.90,3.763
214.09,3.705
214.29,3.651
214.49,3.614
214.68,3.580
214.88,3.544
215.08,3.510
215.26,3.479
215.47,3.447
215.67,3.420
215.87,3.390
216.07,3.355
216.27,3.325
216.47,3.294
216.67,3.258
216.87,3.214
217.07,3.182
217.27,3.144
217.48,3.115
217.68,3.089
217.88,3.052
218.08,3.022
218.29,2.993
218.49,2.970
218.66,2.951
218.82,2.930
218.93,2.919
219.14,2.891
219.31,2.869
219.57,2.837
219.78,2.808
220.04,2.772
220.30,2.740
220.55,2.704
220.76,2.675
220.97,2.645
221.18,2.622
221.39,2.595
221.60,2.574
221.81,2.555
222.02,2.540
222.23,2.502
222.44,2.483
222.65,2.452
222.86,2.431
223.08,2.403
223.29,2.382
223.50,2.361
223.72,2.334
223.93,2.311
224.14,2.277
224.36,2.252
224.57,2.231
224.79,2.210
225.01,2.189
225.22,2.168
225.44,2.147
225.66,2.126
225.87,2.109
226.09,2.088
226.31,2.069
226.53,2.048
226.75,2.029
226.97,2.014
227.19,1.997
227.41,1.987
227.63,1.968
227.85,1.953
228.08,1.938
228.30,1.928
228.52,1.917
228.75,1.907
228.97,1.896
229.19,1.879
229.42,1.869
229.64,1.858
229.87,1.846
230.10,1.827
230.32,1.814
230.55,1.797
230.78,1.787
231.00,1.772
231.23,1.757
231.46,1.745
231.69,1.734
231.92,1.726
232.15,1.717
232.38,1.713
232.61,1.711
232.84,1.709
233.07,1.711
233.31,1.715
233.54,1.724
233.77,1.732
234.01,1.742
234.24,1.753
234.48,1.761
234.71,1.774
234.95,1.785
235.18,1.795
235.42,1.808
235.65,1.816
235.89,1.822
236.13,1.827
236.37,1.827
236.63,1.829
236.87,1.830
237.08,1.832
237.33,1.835
237.63,1.839
237.81,1.843
238.05,1.854
238.30,1.869
238.54,1.888
238.78,1.923
239.03,1.932
239.27,1.934
239.52,1.932
239.76,1.921
240.03,1.907
240.25,1.896
240.50,1.888
240.75,1.877
241.00,1.867
241.25,1.856
241.48,1.840
241.76,1.822
241.99,1.803
242.24,1.780
242.50,1.764
242.75,1.749
243.00,1.738
243.25,1.730
243.51,1.724
243.76,1.717
244.01,1.715
244.27,1.713
244.52,1.709
244.78,1.709
245.04,1.709
245.29,1.709
245.55,1.711
245.81,1.715
246.07,1.719
246.33,1.726
246.58,1.734
246.85,1.749
247.11,1.766
247.37,1.787
247.63,1.810
247.89,1.839
248.15,1.858
248.42,1.878
248.68,1.888
248.95,1.896
249.21,1.907
249.48,1.917
249.74,1.928
250.01,1.940
250.28,1.949
250.55,1.970
250.81,1.987
251.08,2.012
251.35,2.054
251.62,2.094
251.89,2.130
252.17,2.134
252.44,2.134
252.71,2.130
252.98,2.126
253.26,2.117
253.53,2.107
253.81,2.096
254.08,2.083
254.36,2.067
254.64,2.050
254.91,2.029
255.19,2.010
255.47,1.995
255.75,1.985
256.03,1.968
256.31,1.957
256.59,1.949
256.87,1.942
257.15,1.936
257.44,1.928
257.72,1.921
258.01,1.917
258.29,1.911
258.58,1.909
258.86,1.907
259.15,1.907
259.44,1.907
259.72,1.911
260.01,1.919
260.30,1.934
260.59,1.968
260.88,2.003
261.17,2.035
261.47,2.054
261.76,2.073
262.05,2.075
262.34,2.071
262.64,2.064
262.93,2.052
263.23,2.048
263.53,2.046
263.82,2.046
264.12,2.050
264.42,2.056
264.72,2.077
265.02,2.098
265.32,2.149
265.62,2.180
265.92,2.210
266.23,2.241
266.53,2.264
266.83,2.269
267.14,2.271
267.44,2.273
267.75,2.271
268.06,2.269
268.36,2.264
268.67,2.254
268.98,2.241
269.29,2.227
269.60,2.210
269.91,2.195
270.22,2.178
270.53,2.163
270.85,2.147
271.16,2.134
271.48,2.117
271.79,2.100
272.11,2.086
272.42,2.069
272.74,2.054
273.06,2.043
273.38,2.033
273.70,2.024
274.02,2.018
274.34,2.014
274.66,2.012
275.01,2.012
275.31,2.016
275.63,2.029
275.96,2.058
276.26,2.085
276.61,2.121
276.94,2.138
277.27,2.140
277.60,2.138
277.93,2.128
278.26,2.104
278.59,2.075
278.92,2.043
279.25,2.029
279.59,2.022
279.92,2.022
280.26,2.024
280.59,2.031
280.93,2.046
281.29,2.081
281.61,2.113
281.95,2.146
282.28,2.178
282.63,2.199
282.97,2.210
283.31,2.227
283.65,2.243
284.00,2.262
284.34,2.281
284.69,2.294
285.04,2.296
285.38,2.290
285.73,2.277
286.08,2.267
286.43,2.254
286.78,2.237
287.13,2.214
287.49,2.187
287.84,2.168
288.20,2.149
288.55,2.132
288.91,2.109
289.26,2.086
289.62,2.067
289.98,2.046
290.34,2.016
290.70,1.985
291.06,1.970
291.43,1.963
291.79,1.957
292.15,1.957
292.52,1.957
292.89,1.963
293.25,1.972
293.61,1.985
293.99,1.997
294.36,2.008
294.73,2.014
295.10,2.012
295.47,1.997
295.85,1.951
296.22,1.877
296.60,1.801
296.97,1.772
297.35,1.745
297.73,1.726
298.11,1.719
298.49,1.717
298.87,1.715
299.25,1.717
299.64,1.719
300.02,1.730
300.41,1.749
300.79,1.776
301.18,1.806
301.57,1.837
301.96,1.860
302.35,1.896
302.74,1.934
303.13,1.989
303.52,2.052
303.92,2.058
304.31,2.058
304.71,2.052
305.11,2.039
305.51,2.024
305.91,2.008
306.31,1.989
306.71,1.974
307.11,1.953
307.51,1.930
307.92,1.905
308.32,1.883
308.73,1.854
309.14,1.814
309.55,1.780
309.96,1.751
310.37,1.711
310.78,1.681
311.19,1.648
311.61,1.610
312.02,1.570
312.44,1.540
312.86,1.503
313.28,1.467
313.70,1.433
314.12,1.395
314.54,1.353
314.96,1.322
315.39,1.294
315.81,1.273
316.24,1.252
316.67,1.235
317.10,1.218
317.53,1.199
317.96,1.185
318.39,1.170
318.83,1.155
319.26,1.138
319.70,1.134
##END=
