##TITLE=Pyridine, 2,4,6-trimethyl-
##JCAMP-DX=4.24
##DATA TYPE=UV/VIS SPECTRUM
##ORIGIN=INSTITUTE OF ENERGY PROBLEMS OF CHEMICAL PHYSICS, RAS
##OWNER=INEP CP RAS, NIST OSRD
Collection (C) 2007 copyright by the U.S. Secretary of Commerce
on behalf of the United States of America. All rights reserved.
##CAS REGISTRY NO=108-75-8
##MOLFORM=C8H11N
##BP=170.6
##SOURCE REFERENCE=RAS UV No. 20188
##$NIST SQUIB=1969BOL/186
##$NIST SOURCE=TYUGLMTE
##SPECTROMETER/DATA SYSTEM=unknown
##XUNITS=Wavelength (nm)
##YUNITS=Logarithm epsilon
##XFACTOR=1.0
##YFACTOR=1.0
##FIRSTX=214.65
##LASTX=295.96
##FIRSTY=3.571
##MAXX=295.96
##MINX=214.65
##MAXY=3.571
##MINY=1.055
##NPOINTS=128
##$REF AUTHOR=Bol'shakov, G.F.; et al.
##$REF JOURNAL=Ultraviolet spectra of heteroorganic compounds
##$REF PAGE=186
##$REF DATE=1969
##XYPOINTS=(XY..XY)
214.65,3.571
214.81,3.567
214.98,3.563
215.15,3.558
215.32,3.550
215.49,3.546
215.66,3.542
215.82,3.533
215.99,3.529
216.50,3.517
217.17,3.487
217.85,3.454
218.52,3.416
219.19,3.378
219.87,3.345
220.54,3.299
221.21,3.244
221.89,3.198
222.56,3.148
223.23,3.106
223.91,3.056
224.58,3.002
225.25,2.960
225.93,2.935
226.60,2.897
227.27,2.868
227.95,2.838
228.62,2.830
229.29,2.830
229.97,2.830
230.64,2.834
231.31,2.843
231.99,2.855
232.66,2.868
233.32,2.870
234.01,2.872
234.68,2.872
235.39,2.875
236.03,2.884
236.72,2.898
237.37,2.914
238.05,2.926
238.72,2.935
239.39,2.939
240.07,2.943
240.74,2.951
241.41,2.964
242.09,2.977
242.76,2.989
243.43,3.002
244.14,3.015
244.78,3.027
245.42,3.040
246.13,3.056
246.80,3.073
247.47,3.090
248.15,3.098
248.82,3.115
249.49,3.131
250.17,3.144
250.84,3.161
251.52,3.177
252.19,3.198
252.86,3.211
253.54,3.228
254.21,3.244
254.88,3.265
255.56,3.274
256.23,3.295
256.90,3.316
257.58,3.332
258.25,3.345
258.92,3.362
259.60,3.383
260.27,3.395
260.94,3.399
261.62,3.399
262.29,3.395
262.96,3.383
263.64,3.383
264.31,3.378
264.98,3.383
265.66,3.391
266.33,3.391
267.00,3.391
267.68,3.383
268.35,3.374
269.02,3.374
269.70,3.374
270.37,3.374
271.04,3.374
271.72,3.353
272.39,3.307
273.06,3.253
273.74,3.190
274.41,3.136
275.08,3.090
275.76,3.031
276.45,2.987
277.10,2.943
277.78,2.907
278.49,2.866
279.10,2.834
279.80,2.792
280.47,2.734
281.14,2.671
281.82,2.604
282.49,2.411
283.16,2.323
283.84,2.206
284.51,2.123
285.19,2.043
285.86,1.980
286.53,1.930
287.21,1.871
287.88,1.830
288.55,1.788
289.23,1.746
289.90,1.691
290.57,1.645
291.25,1.587
291.92,1.528
292.59,1.461
293.27,1.403
293.94,1.336
294.61,1.260
295.29,1.160
295.96,1.055
##END=
