##TITLE=Cyclohexanone
##JCAMP-DX=4.24
##DATA TYPE=UV/VIS SPECTRUM
##ORIGIN=INSTITUTE OF ENERGY PROBLEMS OF CHEMICAL PHYSICS, RAS
##OWNER=INEP CP RAS, NIST OSRD
Collection (C) 2007 copyright by the U.S. Secretary of Commerce
on behalf of the United States of America. All rights reserved.
##CAS REGISTRY NO=108-94-1
##MOLFORM=C6H10O
##MP=-31
##BP=155.4
##SOURCE REFERENCE=RAS UV No. 883
##$NIST SQUIB=1953GRA865-872
##$NIST SOURCE=TSGMTE
##SPECTROMETER/DATA SYSTEM=n.i.g.
##XUNITS=Wavelength (nm)
##YUNITS=Logarithm epsilon
##XFACTOR=1.000000
##YFACTOR=1.000000
##FIRSTX=323.9411
##LASTX=219.2923
##FIRSTY=0.042182
##MAXX=323.941
##MINX=219.292
##MAXY=1.31277
##MINY=0.042182
##NPOINTS=122
##$REF AUTHOR=Grammaticakis, P.
##$REF TITLE=Contribution a l'etude de l'absorption dans l'U.-V. moyen et le visible des composes carbonyles aromatiques et de leurs derives. (2^e memoire)
##$REF JOURNAL=Bull. Soc. Chim. Fr.
##$REF VOLUME=20
##$REF PAGE=865-872
##$REF DATE=1953
##XYPOINTS=(XY..XY)
323.9411,0.042182
323.3074,0.079471
322.1359,0.153296
322.1359,0.153296
321.5870,0.176352
320.8397,0.215294
320.2952,0.238347
320.2952,0.238347
319.6160,0.276370
318.9123,0.314015
318.1866,0.351332
317.4412,0.388368
316.6784,0.425175
315.9004,0.461784
315.1094,0.498255
314.3076,0.534635
313.4972,0.570963
312.6803,0.607273
311.8589,0.643640
311.0351,0.680082
310.2109,0.716663
309.3881,0.753422
309.3881,0.753422
307.6445,0.813994
306.3579,0.857622
305.3851,0.889610
304.5894,0.915273
303.8376,0.939918
302.9996,0.968856
302.9996,0.968856
301.9064,0.999122
300.7509,1.029311
299.5343,1.059188
298.2576,1.088537
296.9222,1.117135
295.5292,1.144758
294.0801,1.171182
292.5763,1.196190
291.0192,1.219553
289.4103,1.241051
287.7513,1.260463
286.0438,1.277561
284.2894,1.292130
282.4899,1.303941
280.6468,1.312774
280.6468,1.312774
279.2976,1.312448
277.9520,1.312122
276.6147,1.311794
276.6147,1.311794
274.8415,1.298224
273.1409,1.283331
271.5030,1.267240
269.9184,1.250086
268.3784,1.231999
266.8744,1.213106
265.3984,1.193542
263.9425,1.173437
262.4994,1.152921
261.0619,1.132122
259.6232,1.111175
258.1767,1.090209
258.1767,1.090209
257.3913,1.063634
255.7046,1.026447
253.8526,0.988822
252.5366,0.960927
252.5366,0.960927
252.0914,0.948633
251.6628,0.936946
251.2143,0.924755
250.7100,0.910966
250.1146,0.894466
249.3936,0.874151
248.5136,0.848928
247.4428,0.817678
246.1513,0.779315
244.6117,0.732715
242.7997,0.676785
240.6942,0.610426
240.6942,0.610426
239.8294,0.575534
238.7298,0.539728
237.6011,0.507208
237.6011,0.507208
237.0962,0.480237
236.2325,0.444747
235.2739,0.410794
235.2739,0.410794
234.3253,0.372857
233.3794,0.336420
232.3608,0.301095
231.1965,0.266537
231.1965,0.266537
230.8716,0.269303
230.5412,0.272051
230.2085,0.274804
230.2085,0.274804
230.0702,0.283753
229.8637,0.295391
229.6742,0.312791
229.6742,0.312791
229.5145,0.324097
229.2083,0.351197
228.7758,0.390494
228.2372,0.438416
227.6129,0.491362
226.9229,0.545740
226.9229,0.545740
226.5374,0.564311
225.8436,0.603707
224.9991,0.654792
224.1578,0.708412
223.4695,0.755433
223.4695,0.755433
222.8869,0.786006
222.4072,0.820819
222.0261,0.852565
222.0261,0.852565
220.7138,0.921353
219.7896,0.969029
219.2923,0.998447
##END=
