##TITLE=Pyridine, 4-methyl-
##JCAMP-DX=4.24
##DATA TYPE=UV/VIS SPECTRUM
##ORIGIN=INSTITUTE OF ENERGY PROBLEMS OF CHEMICAL PHYSICS, RAS
##OWNER=INEP CP RAS, NIST OSRD
Collection (C) 2007 copyright by the U.S. Secretary of Commerce
on behalf of the United States of America. All rights reserved.
##CAS REGISTRY NO=108-89-4
##MOLFORM=C6H7N
##MP=3.66
##BP=143.3
##SOURCE REFERENCE=RAS UV No. 3503
##$NIST SQUIB=1986HAN/UTE2589-2596
##$NIST SOURCE=TSGMTE
##SPECTROMETER/DATA SYSTEM=n.i.g.
##XUNITS=Wavelength (nm)
##YUNITS=Logarithm epsilon
##XFACTOR=1.000000
##YFACTOR=1.000000
##FIRSTX=269.6416
##LASTX=231.6570
##FIRSTY=2.34232
##MAXX=269.642
##MINX=231.657
##MAXY=3.67137
##MINY=2.34232
##NPOINTS=164
##$REF AUTHOR=Handa, T.; Utena, Y.; Yajima, H.; Ishii, T.; Morita, H.
##$REF TITLE=Excimer emission in protonated pyridine systems. 1. Fluorescence spectroscopy of protonated pyridine and its methyl derivatives in rigid glass solution at 77 K
##$REF JOURNAL=J. Phys. Chem.
##$REF VOLUME=90
##$REF PAGE=2589-2596
##$REF DATE=1986
##XYPOINTS=(XY..XY)
269.6416,2.342320
269.2110,2.424176
268.8018,2.497463
268.4099,2.564239
268.0309,2.625894
267.6608,2.683410
267.2955,2.737501
267.2955,2.737501
267.0466,2.785402
266.8121,2.828250
266.5903,2.867040
266.3796,2.902515
266.1785,2.935239
265.9855,2.965652
265.7990,2.994104
265.6175,3.020878
265.4395,3.046204
265.4395,3.046204
265.4291,3.050298
265.4180,3.054274
265.4059,3.058289
265.3921,3.062497
265.3761,3.067042
265.3575,3.072065
265.3356,3.077696
265.3099,3.084057
265.2799,3.091260
265.2452,3.099402
265.2050,3.108567
265.1590,3.118824
265.1066,3.130224
265.0473,3.142801
264.9804,3.156569
264.9057,3.171528
264.8224,3.187659
264.7301,3.204928
264.6283,3.223287
264.5165,3.242678
264.3941,3.263032
264.2607,3.284273
264.1158,3.306321
263.9589,3.329091
263.7895,3.352501
263.6070,3.376466
263.4112,3.400905
263.2014,3.425740
262.9773,3.450897
262.7384,3.476305
262.7384,3.476305
262.5591,3.486602
262.3756,3.496271
262.1856,3.505434
261.9870,3.514201
261.7778,3.522671
261.5557,3.530939
261.3187,3.539091
261.0648,3.547207
260.7919,3.555360
260.7919,3.555360
260.3382,3.562165
259.9159,3.568439
259.5218,3.574334
259.1526,3.579993
258.8052,3.585549
258.4764,3.591132
258.1632,3.596861
257.8626,3.602853
257.5715,3.609214
257.2869,3.616047
257.2869,3.616047
257.0961,3.623124
256.9053,3.630083
256.7142,3.636925
256.5225,3.643651
256.3297,3.650260
256.1358,3.656753
256.1358,3.656753
255.7985,3.662395
255.4626,3.666532
255.1286,3.669319
254.7968,3.670889
254.4678,3.671367
254.1420,3.670864
253.8197,3.669489
253.5015,3.667343
253.1877,3.664526
252.8789,3.661138
252.5752,3.657278
252.2773,3.653049
251.9855,3.648555
251.7002,3.643906
251.7002,3.643906
251.3869,3.637286
251.1273,3.631573
250.9052,3.626467
250.7046,3.621651
250.5093,3.616789
250.3037,3.611532
250.0720,3.605512
249.7984,3.598337
249.4677,3.589584
249.0645,3.578781
249.0645,3.578781
248.9534,3.575273
248.7430,3.569205
248.4584,3.561149
248.1249,3.551689
247.7675,3.541447
247.4111,3.531101
247.0802,3.521393
246.7991,3.513135
246.5917,3.507183
246.4823,3.504412
246.4823,3.504412
246.4806,3.503653
246.4668,3.502640
246.4287,3.500974
246.3545,3.498252
246.2320,3.494052
246.0495,3.487925
245.7952,3.479374
245.4575,3.467827
245.0252,3.452604
244.4875,3.432853
243.8339,3.407463
243.8339,3.407463
243.5400,3.396807
243.2461,3.385868
242.9524,3.374632
242.6589,3.363086
242.3656,3.351215
242.0728,3.339001
241.7804,3.326427
241.4886,3.313474
241.1974,3.300121
241.1974,3.300121
240.9452,3.289339
240.6913,3.278064
240.4349,3.266316
240.1753,3.254123
239.9116,3.241514
239.6433,3.228522
239.3693,3.215185
239.0892,3.201547
238.8020,3.187659
238.5070,3.173577
238.2036,3.159370
237.8910,3.145111
237.5685,3.130889
237.2354,3.116800
236.8911,3.102953
236.5348,3.089471
236.1660,3.076488
235.7839,3.064150
235.3879,3.052617
234.9775,3.042054
234.5520,3.032637
234.1109,3.024543
234.1109,3.024543
233.4671,3.024270
232.8248,3.023996
232.1819,3.023720
232.1819,3.023720
231.6570,3.035978
##END=
