##TITLE=Benzene, chloro-
##JCAMP-DX=4.24
##DATA TYPE=UV/VIS SPECTRUM
##ORIGIN=INSTITUTE OF ENERGY PROBLEMS OF CHEMICAL PHYSICS, RAS
##OWNER=INEP CP RAS, NIST OSRD
Collection (C) 2007 copyright by the U.S. Secretary of Commerce
on behalf of the United States of America. All rights reserved.
##CAS REGISTRY NO=108-90-7
##MOLFORM=C6H5Cl
##MP=-45.2
##BP=131.7
##SOURCE REFERENCE=RAS UV No. 78
##$NIST SQUIB=1949GRA761
##$NIST SOURCE=TSGMTE
##SPECTROMETER/DATA SYSTEM=n.i.g.
##XUNITS=Wavelength (nm)
##YUNITS=Logarithm epsilon
##XFACTOR=1.000000
##YFACTOR=1.000000
##FIRSTX=276.1875
##LASTX=220.5292
##FIRSTY=0.632923
##MAXX=276.188
##MINX=220.529
##MAXY=3.44698
##MINY=0.632923
##NPOINTS=304
##$REF AUTHOR=Grammaticakis, P.
##$REF TITLE=Contribution a l'etude de l'absorption dans l'ultraviolet moyen des anilines orthosubstituees. II. Ortho-halogenanilines N-substituees
##$REF JOURNAL=Bull. Soc. Chim. Fr.
##$REF VOLUME=16
##$REF PAGE=761
##$REF DATE=1949
##XYPOINTS=(XY..XY)
276.1875,0.632923
276.0864,0.708981
275.9902,0.780749
275.8987,0.848368
275.8118,0.911988
275.7293,0.971763
275.6511,1.027839
275.5769,1.080367
275.5067,1.129493
275.4403,1.175373
275.3774,1.218147
275.3181,1.257969
275.2620,1.294986
275.2091,1.329351
275.1591,1.361208
275.1120,1.390711
275.0675,1.418004
275.0256,1.443241
274.9860,1.466567
274.9486,1.488132
274.9133,1.508086
274.8799,1.526578
274.8481,1.543758
274.8181,1.559773
274.7894,1.574772
274.7620,1.588906
274.7358,1.602322
274.7105,1.615170
274.6860,1.627600
274.6622,1.639759
274.6390,1.651798
274.6161,1.663866
274.5934,1.676110
274.5708,1.688681
274.5480,1.701728
274.5480,1.701728
274.4048,1.736451
274.2639,1.768705
274.1246,1.799673
273.9860,1.830538
273.8475,1.862483
273.7083,1.896692
273.5675,1.934348
273.4244,1.976634
273.2782,2.024734
273.1282,2.079830
273.1282,2.079830
272.8922,2.083433
272.6453,2.087035
272.3932,2.090635
272.3932,2.090635
272.0159,2.090572
271.6341,2.090507
271.2422,2.090441
271.2422,2.090441
271.1226,2.075309
270.9977,2.060061
270.8619,2.044580
270.8619,2.044580
270.7316,2.041281
270.5906,2.037749
270.4442,2.034101
270.4442,2.034101
269.9935,2.034332
269.7241,2.036445
269.4046,2.042249
269.4046,2.042249
269.2469,2.064291
269.1154,2.075467
268.8974,2.085356
268.8974,2.085356
268.5966,2.085304
268.2857,2.085250
267.9701,2.085195
267.9701,2.085195
267.7785,2.075255
267.5819,2.065198
267.3749,2.054907
267.3749,2.054907
267.0840,2.054317
266.7884,2.053610
266.4828,2.052670
266.4828,2.052670
266.4652,2.059201
266.3576,2.063634
266.1606,2.143164
266.1606,2.143164
266.1227,2.118698
266.0901,2.094233
266.0682,2.069770
266.0682,2.069770
265.7112,2.158794
265.3987,2.166699
264.9550,2.173655
264.9550,2.173655
264.3374,2.173545
263.7175,2.173434
263.0900,2.173321
263.0900,2.173321
262.6188,2.163194
262.1389,2.152834
261.6557,2.142357
261.6557,2.142357
261.5355,2.135416
261.4052,2.128241
261.2699,2.120949
261.2699,2.120949
260.2680,2.115003
259.0410,2.109822
258.2362,2.105296
258.2362,2.105296
257.9647,2.088592
257.6837,2.071886
257.3984,2.055179
257.3984,2.055179
257.1008,2.053929
256.7940,2.052444
256.4831,2.050843
256.4831,2.050843
256.3642,2.053577
256.2355,2.056540
256.1019,2.059618
256.1019,2.059618
256.0480,2.067953
255.9842,2.076402
255.9155,2.085082
255.9155,2.085082
255.7971,2.087816
255.6689,2.090779
255.5359,2.093857
255.5359,2.093857
255.2929,2.093810
255.0503,2.093764
254.8082,2.093717
254.8082,2.093717
253.7024,2.059754
252.9013,2.034291
252.3930,2.021952
252.3930,2.021952
252.1104,2.010448
251.8188,1.998941
251.5231,1.987434
251.5231,1.987434
251.3092,1.986717
251.2471,1.980614
251.0958,1.985769
251.0026,1.966572
250.8828,1.984705
250.7163,1.951481
250.3074,1.924223
250.3074,1.924223
250.1814,1.922656
250.0602,1.921205
249.9485,1.919988
249.9485,1.919988
249.3500,1.878756
248.7543,1.837523
248.1614,1.796291
248.1614,1.796291
247.7717,1.780291
247.5517,1.770455
247.3811,1.765949
247.3811,1.765949
247.0561,1.749171
246.7623,1.737951
246.5468,1.726747
246.1201,1.711567
245.7733,1.709414
245.4319,1.707262
245.1006,1.705111
245.1006,1.705111
244.6584,1.690466
244.2178,1.675938
243.7787,1.661640
243.7787,1.661640
243.2535,1.626142
242.7394,1.590646
242.2319,1.555150
242.2319,1.555150
242.0147,1.551479
241.7978,1.547926
241.5812,1.544603
241.5812,1.544603
241.4654,1.537832
241.3542,1.531177
241.2517,1.524757
241.2517,1.524757
241.0561,1.522633
240.8652,1.520510
240.6833,1.518389
240.6833,1.518389
240.4709,1.508089
240.2587,1.498021
240.0469,1.488068
240.0469,1.488068
239.8533,1.485578
239.6644,1.483321
239.4843,1.481180
239.4843,1.481180
238.9664,1.411323
238.5925,1.360114
238.3329,1.323157
238.1585,1.296062
238.0409,1.274430
237.9515,1.253868
237.8622,1.229986
237.8622,1.229986
237.3502,1.210811
236.6962,1.179922
236.0785,1.152050
236.0785,1.152050
235.5674,1.139407
235.3061,1.134219
235.0694,1.132045
234.9017,1.129925
234.5788,1.130392
234.2484,1.130973
233.9148,1.131785
233.9148,1.131785
233.6193,1.139136
233.3769,1.149739
232.9802,1.172682
232.9802,1.172682
232.7733,1.189288
232.5669,1.205894
232.3608,1.222498
232.3608,1.222498
232.1379,1.285337
231.9623,1.339888
231.8184,1.379423
231.6911,1.397201
231.6911,1.397201
231.4204,1.443609
231.1818,1.478113
230.9122,1.524521
230.9122,1.524521
230.5111,1.565955
230.1115,1.607391
229.7132,1.648825
229.3163,1.690260
228.9207,1.731695
228.9207,1.731695
228.7363,1.775682
228.5488,1.819693
228.3590,1.863753
228.1678,1.907888
227.9761,1.952123
227.9761,1.952123
227.8253,2.021310
227.6900,2.083393
227.5687,2.138949
227.4598,2.188550
227.3620,2.232771
227.2738,2.272186
227.1937,2.307369
227.1203,2.338895
227.0522,2.367337
226.9879,2.393270
226.9260,2.417268
226.8650,2.439905
226.8036,2.461755
226.7403,2.483393
226.6738,2.505393
226.6025,2.528328
226.5251,2.552772
226.4402,2.579301
226.3464,2.608488
226.3464,2.608488
225.9149,2.702541
225.5352,2.785550
225.2035,2.858213
224.9162,2.921229
224.6695,2.975297
224.4598,3.021113
224.2837,3.059378
224.1376,3.090788
224.0183,3.116043
223.9222,3.135840
223.8460,3.150878
223.7864,3.161856
223.7402,3.169470
223.7039,3.174421
223.6743,3.177405
223.6480,3.179122
223.6219,3.180269
223.6219,3.180269
223.4802,3.204172
223.3386,3.228076
223.1972,3.251979
223.1972,3.251979
223.1072,3.254578
223.0098,3.257291
222.9086,3.260234
222.9086,3.260234
222.8154,3.275976
222.7147,3.291949
222.6104,3.308036
222.6104,3.308036
222.0759,3.347992
221.5366,3.388062
220.9961,3.428362
220.9961,3.428362
220.7624,3.437670
220.5292,3.446977
##END=
