##TITLE=Nordazepam
##JCAMP-DX=4.24
##DATA TYPE=UV/VIS SPECTRUM
##ORIGIN=INSTITUTE OF ENERGY PROBLEMS OF CHEMICAL PHYSICS, RAS
##OWNER=INEP CP RAS, NIST OSRD
Collection (C) 2007 copyright by the U.S. Secretary of Commerce
on behalf of the United States of America. All rights reserved.
##CAS REGISTRY NO=1088-11-5
##MOLFORM=C15H11ClN2O
##MP=216-217
##SOURCE REFERENCE=RAS UV No. 19069
##$NIST SQUIB=1969LAN337
##$NIST SOURCE=TYUGLMTE
##SPECTROMETER/DATA SYSTEM=Beckman DU
##XUNITS=Wavelength (nm)
##YUNITS=Logarithm epsilon
##XFACTOR=1.0
##YFACTOR=1.0
##FIRSTX=208.52
##LASTX=365.21
##FIRSTY=4.461
##MAXX=365.21
##MINX=208.52
##MAXY=4.57
##MINY=0.464
##NPOINTS=197
##$REF AUTHOR=Lang (editor), L.
##$REF JOURNAL=Absorption Spectra in the Ultraviolet and Visible Region
##$REF VOLUME=12
##$REF PAGE=337
##$REF DATE=1969
##XYPOINTS=(XY..XY)
208.52,4.461
209.88,4.451
211.41,4.441
212.94,4.441
214.48,4.448
216.01,4.455
217.20,4.472
218.56,4.485
219.76,4.502
221.12,4.519
222.48,4.533
224.02,4.543
225.38,4.553
226.74,4.563
228.27,4.570
229.81,4.570
231.34,4.566
232.87,4.556
234.23,4.543
235.43,4.522
236.62,4.502
237.47,4.475
238.32,4.448
239.17,4.424
240.37,4.404
241.22,4.380
242.41,4.360
243.60,4.343
244.96,4.326
246.16,4.309
247.35,4.292
248.71,4.275
250.07,4.258
251.44,4.245
252.80,4.231
254.16,4.214
255.52,4.201
256.72,4.184
257.91,4.163
258.93,4.140
259.95,4.116
260.80,4.092
261.49,4.065
262.17,4.038
263.02,4.014
263.87,3.987
264.55,3.960
265.40,3.936
266.08,3.909
266.94,3.886
267.79,3.862
268.64,3.835
269.49,3.811
270.34,3.787
271.36,3.764
272.22,3.740
273.24,3.720
274.09,3.696
275.11,3.672
276.30,3.652
277.50,3.631
278.52,3.608
279.71,3.587
280.90,3.570
282.09,3.550
283.29,3.530
284.31,3.509
285.50,3.493
286.86,3.476
288.06,3.455
289.42,3.438
290.44,3.418
291.46,3.394
292.48,3.374
293.51,3.354
294.53,3.333
295.72,3.316
297.08,3.303
298.45,3.289
299.81,3.276
301.34,3.272
302.87,3.272
304.41,3.276
305.60,3.293
306.79,3.313
307.98,3.330
309.35,3.343
310.71,3.357
312.07,3.374
313.43,3.388
314.97,3.398
316.50,3.404
318.03,3.408
319.56,3.411
321.10,3.408
322.46,3.394
323.82,3.384
325.36,3.374
326.72,3.357
328.08,3.340
329.10,3.320
330.12,3.296
331.15,3.272
332.00,3.245
332.68,3.218
333.53,3.194
334.21,3.167
334.72,3.140
335.40,3.113
336.09,3.086
336.60,3.059
337.11,3.032
337.62,3.005
337.96,2.974
338.47,2.947
338.98,2.917
339.32,2.886
339.83,2.856
340.17,2.825
340.68,2.795
341.03,2.764
341.37,2.734
341.71,2.703
342.07,2.680
342.54,2.656
343.06,2.626
343.58,2.588
344.09,2.561
344.43,2.530
344.77,2.500
344.94,2.470
345.28,2.439
345.45,2.409
345.79,2.378
346.13,2.348
346.48,2.317
346.82,2.287
346.99,2.256
347.33,2.226
347.67,2.195
348.01,2.165
348.35,2.134
348.69,2.104
349.05,2.072
349.37,2.043
349.71,2.012
350.05,1.982
350.34,1.955
350.73,1.921
351.07,1.890
351.41,1.860
351.76,1.829
352.10,1.799
352.44,1.768
352.78,1.738
353.12,1.707
353.46,1.677
353.86,1.643
354.14,1.619
354.48,1.589
354.82,1.558
355.33,1.528
355.50,1.497
355.84,1.467
356.18,1.436
356.35,1.406
356.69,1.375
356.87,1.345
357.21,1.314
357.38,1.284
357.72,1.253
357.89,1.223
358.06,1.192
358.40,1.162
358.57,1.131
358.74,1.101
359.08,1.070
359.25,1.040
359.59,1.009
359.76,0.979
359.93,0.949
360.27,0.918
360.61,0.888
360.78,0.857
361.12,0.827
361.46,0.796
361.80,0.766
362.15,0.735
362.49,0.705
362.83,0.674
363.00,0.644
363.34,0.613
363.85,0.586
364.19,0.556
364.53,0.525
364.87,0.495
365.21,0.464
##END=
