##TITLE=4-(p-Nitrobenzyl)-pyridine
##JCAMP-DX=4.24
##DATA TYPE=UV/VIS SPECTRUM
##ORIGIN=INSTITUTE OF ENERGY PROBLEMS OF CHEMICAL PHYSICS, RAS
##OWNER=INEP CP RAS, NIST OSRD
Collection (C) 2007 copyright by the U.S. Secretary of Commerce
on behalf of the United States of America. All rights reserved.
##CAS REGISTRY NO=1083-48-3
##MOLFORM=C12H10N2O2
##SOURCE REFERENCE=RAS UV No. 625
##$NIST SQUIB=1952NUN/SCH583-589
##$NIST SOURCE=TSGMTE
##SPECTROMETER/DATA SYSTEM=n.i.g.
##XUNITS=Wavelength (nm)
##YUNITS=Logarithm epsilon
##XFACTOR=1.000000
##YFACTOR=1.000000
##FIRSTX=226.0778
##LASTX=309.1669
##FIRSTY=3.30355
##MAXX=309.167
##MINX=226.078
##MAXY=4.09037
##MINY=3.06871
##NPOINTS=518
##$REF AUTHOR=Nunn, A.J.; Schofield, K.
##$REF TITLE=Experiments on the preparation of certain derivatives of 2- and 4-benzylpyridine
##$REF JOURNAL=J. Chem. Soc.
##$REF PAGE=583-589
##$REF DATE=1952
##XYPOINTS=(XY..XY)
226.0778,3.303546
226.2706,3.309086
226.4591,3.308959
226.4633,3.314555
226.8639,3.314289
226.8687,3.320504
227.0572,3.320381
227.6596,3.336825
227.8481,3.336706
227.8523,3.341958
228.0644,3.341826
228.2572,3.346901
228.4457,3.346785
228.4499,3.351917
228.6620,3.351788
228.6668,3.357492
228.8553,3.357379
228.8595,3.362388
229.0480,3.362276
230.8551,3.405687
231.6503,3.423495
231.6545,3.427800
231.8430,3.427704
231.8478,3.432498
232.0599,3.432391
232.0641,3.436610
232.2526,3.436515
232.2569,3.440694
232.4454,3.440600
232.4502,3.445255
232.6622,3.445151
232.6665,3.449248
233.4616,3.465387
233.4658,3.469298
234.0682,3.481033
234.0730,3.485276
234.6753,3.496592
234.6796,3.500233
234.8681,3.500152
234.8723,3.503764
235.0609,3.503683
235.0699,3.511261
235.2819,3.511171
235.2904,3.518186
235.4789,3.518108
235.4837,3.522005
235.6722,3.521928
235.6765,3.525363
235.8928,3.528686
235.8976,3.532490
236.2831,3.539023
236.2879,3.542738
236.4999,3.542654
236.5042,3.545931
236.6969,3.549109
236.7012,3.552338
236.8897,3.552265
236.8987,3.559048
237.0872,3.558976
237.0962,3.565655
237.3083,3.565576
237.3125,3.568685
237.5053,3.571702
237.5143,3.578190
237.7028,3.578121
237.7071,3.581142
237.9234,3.584065
237.9282,3.587416
238.1209,3.590306
238.1252,3.593243
238.3137,3.593177
240.6052,3.670394
240.7979,3.672783
240.8027,3.675516
240.9954,3.677877
241.0039,3.682668
241.2208,3.685280
241.2250,3.687642
241.4178,3.689938
241.4225,3.692566
241.6153,3.694836
241.6243,3.699731
241.8171,3.701964
241.8261,3.706780
242.0382,3.706723
242.0467,3.711208
242.2394,3.713383
242.2484,3.718074
242.4412,3.720215
242.4460,3.722667
242.6623,3.724779
242.6713,3.729350
242.8640,3.731436
242.8683,3.733560
243.0616,3.735890
243.0701,3.740085
243.2864,3.742115
243.2912,3.744446
243.4839,3.746461
243.4881,3.748513
243.6814,3.750764
243.6857,3.752796
243.9020,3.754768
243.9110,3.759035
244.1038,3.760984
244.1085,3.763216
244.3013,3.765146
244.3098,3.769069
244.5031,3.771216
244.5206,3.779158
244.9302,3.783103
244.9387,3.786867
245.1314,3.788695
245.1404,3.792643
245.3568,3.794442
245.3658,3.798338
245.5585,3.800119
245.5675,3.803965
245.7603,3.805723
245.7651,3.807737
245.9814,3.809474
245.9856,3.811250
246.1784,3.812978
246.1874,3.816713
246.3802,3.818419
246.3892,3.822107
246.6013,3.822064
246.6145,3.827431
246.8073,3.829097
246.8163,3.832695
247.0090,3.834341
247.0181,3.837896
247.2066,3.837859
247.2198,3.843036
247.4361,3.844638
247.4404,3.846276
247.6337,3.848074
247.6464,3.852930
247.8397,3.854701
247.8482,3.857896
248.2578,3.861189
249.9101,3.895622
250.1264,3.897042
250.1354,3.900121
250.3282,3.901531
250.3372,3.904578
250.5299,3.905973
250.5389,3.908990
250.7553,3.910367
250.7637,3.913178
250.9570,3.914720
250.9703,3.919062
251.1588,3.919031
251.1721,3.923330
251.3841,3.923295
251.3969,3.927382
251.5854,3.927352
251.5944,3.930224
251.7872,3.931539
251.7962,3.934384
251.9889,3.935687
251.9979,3.938505
252.2143,3.939791
252.2275,3.943890
252.4160,3.943861
252.4293,3.947922
252.6178,3.947893
252.6268,3.950633
252.8431,3.951884
252.8564,3.955871
253.0492,3.957111
253.0539,3.958533
253.2467,3.959765
253.2599,3.963681
253.4763,3.964895
253.4853,3.967530
253.6780,3.968737
253.6913,3.972573
253.8840,3.973766
253.8973,3.977558
254.1136,3.978734
254.1226,3.981287
254.3154,3.982456
254.3244,3.984987
254.5172,3.986146
254.5219,3.987477
254.7147,3.988630
254.7232,3.990979
254.9400,3.992265
254.9533,3.995900
255.1460,3.997030
255.1503,3.998184
255.3436,3.999452
255.3568,4.003027
255.5732,4.004136
255.5816,4.006403
255.7749,4.007648
255.7834,4.009897
255.9767,4.011131
255.9899,4.014612
256.2063,4.015692
256.2153,4.018037
256.4080,4.019111
256.4165,4.021302
256.6050,4.021277
256.6141,4.023592
256.8068,4.024653
256.8201,4.028028
257.0369,4.029209
257.0412,4.030280
257.2339,4.031325
257.2514,4.035706
257.4399,4.035682
257.4532,4.038972
257.6653,4.038946
257.6743,4.041169
257.8670,4.042188
257.8761,4.044395
258.0688,4.045406
258.0778,4.047596
258.2941,4.048597
259.7754,4.075290
260.1524,4.075247
260.5621,4.077246
260.5663,4.078206
260.9759,4.080192
260.9801,4.081144
261.1687,4.081123
261.1819,4.084087
265.9020,4.090366
266.1098,4.089410
266.4868,4.089368
266.8742,4.086394
266.8784,4.087334
267.0627,4.086373
267.4543,4.084325
267.6428,4.084304
267.8270,4.083337
271.8495,4.059626
271.8537,4.060625
272.0332,4.058477
272.0380,4.059603
272.2175,4.057450
272.2218,4.058454
272.4254,4.056418
272.4296,4.057425
272.6049,4.054249
272.6096,4.055387
272.7849,4.052196
272.7934,4.054226
272.9922,4.051024
272.9970,4.052170
273.1765,4.049980
273.1807,4.051001
273.3607,4.048933
273.3650,4.049957
273.5402,4.046726
273.5492,4.048910
273.7481,4.045669
273.7523,4.046700
273.9318,4.044482
273.9366,4.045645
274.1161,4.043422
274.1203,4.044459
274.3197,4.041314
274.3239,4.042356
274.5034,4.040115
274.5082,4.041291
274.6834,4.037994
274.6877,4.039044
274.8908,4.036784
274.8955,4.037968
275.0750,4.035704
275.0793,4.036760
275.2545,4.033429
275.2593,4.034622
275.4581,4.031272
275.4666,4.033402
275.6419,4.030045
275.6466,4.031248
275.8219,4.027875
275.8261,4.028949
276.0014,4.025558
276.0104,4.027850
276.2092,4.024447
276.2135,4.025530
276.3887,4.022112
276.3935,4.023337
276.5730,4.020996
276.5772,4.022087
276.7761,4.018639
276.7808,4.019873
276.9603,4.017513
280.1509,3.981310
280.3587,3.980080
280.3629,3.981280
280.5382,3.977493
280.5472,3.980053
280.7177,3.974890
280.7225,3.976256
280.8929,3.971047
280.9020,3.973646
281.0965,3.968556
281.1008,3.969788
281.2718,3.964657
281.2808,3.967293
281.4513,3.961976
281.4561,3.963382
281.6549,3.959432
281.6591,3.960690
281.8344,3.956718
281.8386,3.957984
282.0144,3.954147
282.0187,3.955420
282.2175,3.951397
282.2217,3.952678
282.3970,3.948632
282.4018,3.950083
282.5770,3.946013
282.5813,3.947310
282.7565,3.943214
282.7608,3.944519
282.9553,3.939075
282.9643,3.941871
283.1354,3.936397
283.1396,3.937723
283.3106,3.932196
283.3191,3.934870
283.5179,3.930650
283.5227,3.932162
283.6889,3.925032
283.7022,3.929272
283.8684,3.922094
283.8732,3.923635
284.0720,3.919305
284.0763,3.920684
284.2473,3.914934
284.2563,3.917890
284.4225,3.910519
284.4316,3.913505
284.6256,3.907477
284.6304,3.909071
284.8014,3.903165
284.8099,3.906023
284.9809,3.900074
284.9851,3.901516
285.1562,3.895505
285.1652,3.898595
285.3592,3.892356
285.3640,3.894006
285.5392,3.889372
285.5435,3.890850
285.7187,3.886182
285.7278,3.889339
285.9176,3.881459
285.9308,3.886144
286.0976,3.878400
286.1061,3.881425
286.2771,3.875127
286.2813,3.876654
286.4759,3.870282
286.4849,3.873556
286.6512,3.865386
286.6602,3.868698
286.8312,3.862211
286.8354,3.863784
287.0300,3.857219
287.0385,3.860395
287.2095,3.853782
287.2138,3.855386
287.3848,3.848696
287.3938,3.852136
287.5643,3.845191
287.5733,3.848659
287.7679,3.841860
287.7764,3.845150
287.9474,3.838299
287.9521,3.840168
288.1316,3.836593
290.3470,3.776587
290.5223,3.770505
290.5313,3.774621
290.7259,3.766545
290.7344,3.770455
290.9054,3.762307
290.9144,3.766501
291.0849,3.758027
291.0896,3.760274
291.2885,3.753951
291.2927,3.755969
291.4680,3.749588
291.4727,3.751879
291.6480,3.745438
291.6522,3.747495
291.8275,3.740987
291.8317,3.743066
292.0306,3.736485
292.0353,3.738846
292.2106,3.732207
292.2148,3.734328
292.3858,3.725465
292.3943,3.729761
292.5889,3.720798
292.5937,3.723246
292.7689,3.716362
292.7732,3.718561
292.9484,3.711602
292.9527,3.713825
293.1515,3.706782
293.1563,3.709311
293.3315,3.702200
293.3400,3.706732
293.7189,3.694913
293.7231,3.697223
293.8984,3.689910
293.9031,3.692538
294.0784,3.685146
294.0826,3.687508
294.2579,3.680029
294.2621,3.682419
294.4610,3.674844
294.4657,3.677564
294.6410,3.669910
294.6452,3.672356
294.8205,3.664609
294.8247,3.667085
295.0193,3.656714
295.0283,3.662055
295.2036,3.654120
295.2078,3.656657
295.3831,3.648622
295.3878,3.651511
295.5867,3.643371
295.5909,3.645972
295.7662,3.637734
295.7704,3.640368
295.9372,3.626636
295.9504,3.635024
296.1450,3.623848
296.3335,3.623786
296.5130,3.617887
296.5173,3.620644
296.6925,3.611907
296.6973,3.615050
296.8961,3.606191
296.9004,3.609023
297.2599,3.597090
297.2641,3.599981
297.4630,3.590806
297.4677,3.594105
297.6382,3.581441
297.6472,3.587786
298.0255,3.571791
298.0303,3.575237
300.8155,3.462285
300.8245,3.470614
300.9998,3.458220
301.0040,3.462196
301.1986,3.445450
301.2118,3.458119
301.3781,3.436525
301.3871,3.445358
301.5623,3.432210
301.5666,3.436430
301.7654,3.422993
301.7702,3.427840
301.9497,3.418541
301.9539,3.422896
302.1297,3.409598
302.1340,3.414043
302.3328,3.399883
302.3370,3.404428
302.6965,3.385153
302.7008,3.389854
303.0839,3.369893
303.0881,3.374761
303.2634,3.359250
303.2682,3.364858
303.4434,3.348984
303.4476,3.354090
303.6465,3.337795
303.6512,3.343684
303.8265,3.327001
303.8307,3.332372
304.0102,3.320756
304.0150,3.326880
304.3976,3.303006
304.4024,3.309383
304.5818,3.297127
304.5861,3.302877
304.9692,3.278362
304.9740,3.285109
305.3613,3.265806
305.5450,3.258607
305.5498,3.265666
305.9088,3.238079
305.9136,3.245476
306.1166,3.231226
306.1209,3.237911
306.4804,3.209327
306.4847,3.216355
307.0520,3.178537
307.0563,3.186077
307.2599,3.170668
307.2641,3.178344
307.4394,3.153709
307.4436,3.161688
307.6236,3.145395
307.6279,3.153527
307.8074,3.135872
307.8121,3.145210
308.0194,3.135659
308.3790,3.099161
308.3880,3.118143
308.5826,3.080262
308.5868,3.089696
308.9596,3.079833
309.1669,3.068710
##END=
