##TITLE=4,6-Dimethyl-2-pyrimidinol
##JCAMP-DX=4.24
##DATA TYPE=UV/VIS SPECTRUM
##ORIGIN=INSTITUTE OF ENERGY PROBLEMS OF CHEMICAL PHYSICS, RAS
##OWNER=INEP CP RAS, NIST OSRD
Collection (C) 2007 copyright by the U.S. Secretary of Commerce
on behalf of the United States of America. All rights reserved.
##CAS REGISTRY NO=108-79-2
##MOLFORM=C6H8N2O
##MP=199-202
##SOURCE REFERENCE=RAS UV No. 20002
##$NIST SQUIB=1965LAN279
##$NIST SOURCE=TYUGLMTE
##SPECTROMETER/DATA SYSTEM=Unicam SP 500
##XUNITS=Wavelength (nm)
##YUNITS=Logarithm epsilon
##XFACTOR=1.0
##YFACTOR=1.0
##FIRSTX=213.13
##LASTX=336.81
##FIRSTY=4.125
##MAXX=336.81
##MINX=213.13
##MAXY=4.128
##MINY=1.166
##NPOINTS=156
##$REF AUTHOR=Lang (editor), L.
##$REF JOURNAL=Absorption Spectra in the Ultraviolet and Visible Region
##$REF VOLUME=6
##$REF PAGE=279
##$REF DATE=1965
##XYPOINTS=(XY..XY)
213.13,4.125
213.29,4.125
213.46,4.125
213.63,4.125
213.80,4.125
213.97,4.125
214.14,4.125
214.30,4.125
214.47,4.125
214.64,4.128
214.81,4.128
215.65,4.101
216.49,4.084
217.33,4.061
218.17,4.044
219.02,4.010
219.86,3.990
220.70,3.940
221.54,3.906
222.38,3.869
223.22,3.822
224.06,3.782
224.90,3.734
225.75,3.681
226.59,3.620
227.43,3.556
228.27,3.475
229.11,3.411
229.95,3.371
230.79,3.246
231.64,3.128
232.48,2.994
233.32,2.906
234.16,2.832
235.00,2.772
235.84,2.721
236.68,2.708
237.53,2.698
238.37,2.698
239.21,2.701
240.05,2.704
240.89,2.711
241.73,2.718
242.57,2.728
243.41,2.752
244.26,2.775
245.10,2.795
245.94,2.819
246.78,2.839
247.62,2.856
248.46,2.876
249.30,2.903
250.15,2.927
250.99,2.953
251.83,2.977
252.67,3.007
253.51,3.028
254.35,3.054
255.19,3.075
256.04,3.095
256.88,3.115
257.72,3.139
258.56,3.149
259.40,3.166
260.24,3.189
261.08,3.209
261.92,3.233
262.77,3.253
263.61,3.280
264.45,3.314
265.29,3.334
266.13,3.361
266.97,3.388
267.81,3.415
268.66,3.438
269.50,3.465
270.34,3.492
271.18,3.509
272.02,3.536
272.86,3.556
273.70,3.576
274.55,3.593
275.39,3.610
276.23,3.630
277.07,3.654
277.91,3.681
278.75,3.701
279.59,3.728
280.44,3.748
281.28,3.768
282.12,3.788
282.96,3.805
283.80,3.822
284.64,3.835
285.48,3.852
286.32,3.869
287.17,3.882
288.01,3.899
288.85,3.906
289.69,3.920
290.53,3.930
291.37,3.936
292.21,3.950
293.06,3.953
293.90,3.963
294.74,3.967
295.58,3.970
296.42,3.970
297.26,3.967
298.10,3.963
298.95,3.957
299.79,3.950
300.63,3.936
301.47,3.926
302.31,3.899
303.15,3.889
303.99,3.869
304.83,3.839
305.68,3.808
306.52,3.775
307.36,3.718
308.20,3.674
309.04,3.627
309.88,3.573
310.72,3.522
311.57,3.455
312.41,3.398
313.25,3.330
314.09,3.236
314.93,3.155
315.77,3.075
316.61,3.001
317.46,2.933
318.30,2.866
319.14,2.799
319.98,2.731
320.82,2.661
321.66,2.573
322.50,2.499
323.35,2.418
324.19,2.341
325.03,2.267
325.87,2.183
326.71,2.098
327.55,2.004
328.39,1.940
329.23,1.886
330.08,1.792
330.92,1.705
331.76,1.617
332.60,1.536
333.44,1.459
334.28,1.392
335.12,1.324
335.97,1.244
336.81,1.166
##END=
