##TITLE=Toluene
##JCAMP-DX=4.24
##DATA TYPE=UV/VIS SPECTRUM
##ORIGIN=INSTITUTE OF ENERGY PROBLEMS OF CHEMICAL PHYSICS, RAS
##OWNER=INEP CP RAS, NIST OSRD
Collection (C) 2007 copyright by the U.S. Secretary of Commerce
on behalf of the United States of America. All rights reserved.
##CAS REGISTRY NO=108-88-3
##MOLFORM=C7H8
##MP=-94.9
##BP=110.6
##SOURCE REFERENCE=RAS UV No. 415
##$NIST SQUIB=1951RAM/BER212-214
##$NIST SOURCE=TSGMTE
##SPECTROMETER/DATA SYSTEM=n.i.g.
##XUNITS=Wavelength (nm)
##YUNITS=Logarithm epsilon
##XFACTOR=1.000000
##YFACTOR=1.000000
##FIRSTX=274.9571
##LASTX=233.8172
##FIRSTY=1.05857
##MAXX=274.957
##MINX=233.817
##MAXY=2.43145
##MINY=1.05857
##NPOINTS=335
##$REF AUTHOR=Ramart-Lucas, Ml; Bertucat, S.
##$REF TITLE=Deformation de la structure electronique du carbone par effet sterique (serie de la pyridine)
##$REF JOURNAL=Bull. Soc. Chim. Fr.
##$REF VOLUME=18
##$REF PAGE=212-214
##$REF DATE=1951
##XYPOINTS=(XY..XY)
274.9571,1.058566
274.7790,1.091012
274.6012,1.123460
274.6012,1.123460
274.5413,1.146925
274.4705,1.170391
274.3941,1.193856
274.3941,1.193856
274.3368,1.197865
274.2684,1.201987
274.1946,1.206329
274.1946,1.206329
274.0176,1.238029
273.8409,1.269744
273.6707,1.249744
273.6643,1.301486
273.5403,1.249736
273.4880,1.333268
273.3990,1.249729
273.3120,1.365108
273.2524,1.249722
273.1361,1.397017
273.1361,1.397017
273.1082,1.417006
273.0748,1.437108
273.0305,1.457429
272.8069,1.482385
272.7810,1.487025
272.7495,1.491887
272.7072,1.496860
272.7072,1.496860
272.6510,1.497375
272.5839,1.498000
272.5114,1.498848
272.5114,1.498848
272.3901,1.513930
272.2844,1.533414
272.1355,1.570309
271.8850,1.637628
271.8850,1.637628
271.8577,1.654751
271.8250,1.672097
271.7814,1.689552
271.0707,1.753928
271.0707,1.753928
271.0699,1.760568
271.0690,1.767429
271.0682,1.774401
271.0682,1.774401
270.9996,1.749579
270.9778,1.722466
270.9520,1.728605
270.9339,1.745452
270.9208,1.734965
270.9052,1.803453
270.8789,1.741435
270.8789,1.741435
270.7424,1.832506
270.5798,1.861558
270.4175,1.890610
270.2553,1.919663
270.0933,1.948715
269.9314,1.977767
269.7698,2.006820
269.6084,2.035872
269.4472,2.064924
269.4472,2.064924
269.3752,2.068064
269.3032,2.071426
269.2312,2.074899
269.2312,2.074899
269.0359,2.125229
268.8963,2.159791
268.7738,2.187260
268.6295,2.216309
268.4250,2.255613
268.4250,2.255613
268.3700,2.260252
268.3045,2.265112
268.2338,2.270083
268.2338,2.270083
268.1626,2.271226
267.7376,2.270057
267.6671,2.267945
267.6127,2.262505
267.5279,2.249074
267.2831,2.219361
267.2014,2.200498
267.0880,2.169898
266.9219,2.122264
266.6825,2.052295
266.6825,2.052295
266.6139,2.046799
266.5504,2.041303
266.4974,2.035807
266.4974,2.035807
266.4283,2.034824
266.3644,2.033951
265.9145,2.035776
265.8608,2.038289
265.7968,2.040911
265.7276,2.043756
265.7276,2.043756
265.3886,2.091728
265.1384,2.134046
264.9256,2.168044
264.9256,2.168044
264.7850,2.201288
264.6872,2.219665
264.5485,2.238928
264.5485,2.238928
264.4104,2.246096
264.3087,2.249716
264.1560,2.252888
264.1560,2.252888
263.8808,2.252873
263.5079,2.253500
263.1259,2.254348
262.7399,2.255307
262.7399,2.255307
262.6200,2.268587
262.4173,2.299792
262.1625,2.344943
261.8859,2.400064
261.8859,2.400064
261.7316,2.412465
261.6081,2.420096
261.4096,2.429498
261.4096,2.429498
261.1616,2.430002
260.9091,2.430617
260.6471,2.431453
260.6471,2.431453
260.5584,2.425937
260.4697,2.420310
260.3811,2.414461
260.3811,2.414461
260.2688,2.413937
260.1517,2.413302
260.0249,2.412444
260.0249,2.412444
259.8460,2.413932
259.6625,2.415419
259.4694,2.416907
259.4694,2.416907
259.1368,2.416888
258.8001,2.416869
258.4545,2.416849
258.4545,2.416849
258.1246,2.407732
257.9605,2.402285
257.8210,2.395841
257.8210,2.395841
257.5839,2.365369
257.3474,2.334897
257.1112,2.304424
257.1112,2.304424
257.0462,2.302423
256.9812,2.300422
256.9162,2.298421
256.9162,2.298421
256.7645,2.296915
256.6129,2.295408
256.4615,2.293901
256.1077,2.301186
255.9123,2.314027
255.7457,2.327314
255.7457,2.327314
255.6227,2.330285
255.5094,2.333145
255.4010,2.335783
255.4010,2.335783
255.2143,2.335772
255.0374,2.335762
254.8656,2.335752
254.8656,2.335752
254.8295,2.332254
254.8030,2.328757
254.7812,2.325261
254.7812,2.325261
254.5662,2.325396
254.3562,2.326419
253.9718,2.329208
253.9718,2.329208
253.8867,2.331552
253.8016,2.333674
253.7167,2.335684
253.7167,2.335684
253.6534,2.340655
253.5949,2.345516
253.5458,2.350155
253.5458,2.350155
253.4193,2.354493
253.2976,2.358610
253.1854,2.362616
253.1854,2.362616
252.9754,2.363455
252.7704,2.364071
252.5751,2.364578
252.5751,2.364578
252.5098,2.356954
252.4396,2.352549
252.3043,2.347584
252.3043,2.347584
252.0580,2.323528
251.8808,2.309019
251.6208,2.291619
251.6208,2.291619
251.3769,2.258316
251.2013,2.237334
250.9437,2.210688
250.9437,2.210688
250.8236,2.207555
250.7542,2.204314
250.6759,2.198188
250.6759,2.198188
250.5321,2.197329
250.3930,2.196692
250.2633,2.196166
249.2634,2.199046
249.0670,2.203305
248.8072,2.210558
248.8072,2.210558
248.6648,2.209698
248.5226,2.209061
248.3804,2.208534
248.3804,2.208534
248.2997,2.204183
248.2190,2.200054
248.1384,2.196036
248.1384,2.196036
247.9626,2.192031
247.7960,2.188026
247.6341,2.184021
247.6341,2.184021
247.5086,2.177652
247.3785,2.172724
247.1327,2.165016
247.1327,2.165016
246.8706,2.146154
246.6044,2.130733
246.3961,2.117534
246.3961,2.117534
246.2515,2.115084
246.0763,2.109636
245.7209,2.096520
245.7209,2.096520
245.4688,2.096504
245.2260,2.096489
244.9881,2.096474
244.9881,2.096474
244.9294,2.098190
244.8882,2.100906
244.8292,2.106950
244.8292,2.106950
244.7114,2.109790
244.5981,2.112409
244.4936,2.114918
244.4936,2.114918
244.1067,2.114893
243.7297,2.114869
243.3582,2.114845
243.3582,2.114845
243.2423,2.111990
243.1309,2.109356
243.0290,2.098346
243.0290,2.098346
243.0287,2.100991
243.0284,2.103857
243.0281,2.106835
243.0281,2.106835
242.7833,2.088492
242.5467,2.078860
242.3149,2.069339
242.3149,2.069339
242.1037,2.057490
241.8929,2.045862
241.6824,2.034346
241.6824,2.034346
241.5682,2.030843
241.4583,2.027341
241.3571,2.023839
241.3571,2.023839
241.3008,2.019489
241.2487,2.015361
241.2051,2.011346
241.2051,2.011346
241.0715,2.008360
240.9380,2.005484
240.8046,2.002831
240.6521,2.002821
240.5512,2.002814
239.8812,2.008226
239.6750,2.011449
239.3808,2.017218
239.3808,2.017218
239.2729,2.021557
239.1735,2.025674
239.0783,2.029681
239.0783,2.029681
238.7034,2.030507
238.3338,2.031111
237.9737,2.031604
237.9737,2.031604
237.7565,2.024396
237.6219,2.020633
237.4545,2.017089
237.4545,2.017089
237.4184,2.013591
237.3864,2.010094
237.3627,2.006597
237.3627,2.006597
237.2573,2.003742
237.1602,2.001110
237.0672,1.998588
237.0672,1.998588
236.7541,1.997069
236.4459,1.995550
235.4718,1.949989
234.5690,1.907041
234.5690,1.907041
234.5339,1.902692
234.5027,1.898566
234.4797,1.894551
234.4797,1.894551
234.3768,1.891696
234.2820,1.889064
234.1913,1.886543
234.1913,1.886543
234.1360,1.877514
234.0803,1.872590
233.9767,1.867554
233.9767,1.867554
233.8929,1.857080
233.8172,1.846718
##END=
