##TITLE=Phenol, 3,5-dimethyl-
##JCAMP-DX=4.24
##DATA TYPE=UV/VIS SPECTRUM
##ORIGIN=INSTITUTE OF ENERGY PROBLEMS OF CHEMICAL PHYSICS, RAS
##OWNER=INEP CP RAS, NIST OSRD
Collection (C) 2007 copyright by the U.S. Secretary of Commerce
on behalf of the United States of America. All rights reserved.
##CAS REGISTRY NO=108-68-9
##MOLFORM=C8H10O
##MP=63.6
##BP=221.7
##SOURCE REFERENCE=RAS UV No. 20205
##$NIST SQUIB=1969BOL/313
##$NIST SOURCE=TYUGLMTE
##SPECTROMETER/DATA SYSTEM=unknown
##XUNITS=Wavelength (nm)
##YUNITS=Logarithm epsilon
##XFACTOR=1.0
##YFACTOR=1.0
##FIRSTX=215.7
##LASTX=286.61
##FIRSTY=3.814
##MAXX=286.61
##MINX=215.7
##MAXY=3.814
##MINY=2.063
##NPOINTS=154
##$REF AUTHOR=Bol'shakov, G.F.; et al.
##$REF JOURNAL=Ultraviolet spectra of heteroorganic compounds
##$REF PAGE=313
##$REF DATE=1969
##XYPOINTS=(XY..XY)
215.70,3.814
215.87,3.810
216.03,3.810
216.20,3.806
216.36,3.806
216.53,3.802
216.69,3.802
216.86,3.797
217.02,3.797
217.19,3.793
217.36,3.793
217.52,3.789
217.69,3.789
217.85,3.785
218.02,3.785
218.18,3.781
218.56,3.775
218.98,3.769
219.47,3.760
220.17,3.747
220.66,3.738
221.16,3.730
221.65,3.722
222.15,3.709
222.64,3.696
223.14,3.684
223.62,3.670
224.11,3.656
224.63,3.641
225.12,3.624
225.62,3.608
226.12,3.586
226.61,3.570
227.11,3.549
227.60,3.527
228.10,3.506
228.60,3.489
229.09,3.464
229.59,3.439
230.08,3.405
230.58,3.363
231.07,3.325
231.57,3.283
232.07,3.241
232.56,3.190
233.06,3.135
233.55,3.059
234.05,2.996
234.55,2.882
235.04,2.772
235.54,2.684
236.03,2.599
236.53,2.540
237.02,2.485
237.52,2.435
238.02,2.392
238.51,2.350
239.01,2.312
239.50,2.270
240.00,2.236
240.50,2.207
240.99,2.173
241.49,2.148
241.98,2.122
242.48,2.097
242.98,2.076
243.47,2.068
243.97,2.063
244.46,2.068
244.96,2.076
245.45,2.089
245.95,2.105
246.45,2.122
246.94,2.143
247.44,2.160
247.93,2.181
248.42,2.201
248.93,2.224
249.42,2.245
249.92,2.266
250.41,2.291
250.91,2.312
251.40,2.333
251.90,2.354
252.38,2.371
252.87,2.390
253.37,2.410
253.86,2.432
254.39,2.456
254.86,2.475
255.37,2.498
255.87,2.519
256.36,2.540
256.86,2.565
257.36,2.586
257.85,2.608
258.35,2.629
258.84,2.658
259.34,2.675
259.83,2.705
260.33,2.722
260.83,2.747
261.32,2.768
261.82,2.785
262.31,2.806
262.81,2.827
263.31,2.844
263.80,2.865
264.30,2.883
264.79,2.899
265.29,2.916
265.79,2.932
266.27,2.949
266.78,2.967
267.27,2.987
267.78,3.006
268.26,3.021
268.76,3.034
269.27,3.049
269.75,3.063
270.25,3.080
270.75,3.094
271.24,3.105
271.74,3.122
272.23,3.139
272.73,3.152
273.22,3.169
273.72,3.165
274.21,3.148
274.69,3.119
275.21,3.105
275.70,3.101
276.18,3.095
276.69,3.089
277.19,3.080
277.69,3.076
278.18,3.076
278.68,3.080
279.17,3.105
279.67,3.143
280.17,3.177
280.66,3.186
281.16,3.177
281.65,3.105
282.15,3.042
282.64,2.958
283.14,2.873
283.64,2.755
284.13,2.629
284.63,2.451
285.12,2.304
285.62,2.211
286.12,2.173
286.61,2.152
##END=
