##TITLE=Benzenethiol, 3-methyl-
##JCAMP-DX=4.24
##DATA TYPE=UV/VIS SPECTRUM
##ORIGIN=INSTITUTE OF ENERGY PROBLEMS OF CHEMICAL PHYSICS, RAS
##OWNER=INEP CP RAS, NIST OSRD
Collection (C) 2007 copyright by the U.S. Secretary of Commerce
on behalf of the United States of America. All rights reserved.
##CAS REGISTRY NO=108-40-7
##MOLFORM=C7H8S
##BP=195
##SOURCE REFERENCE=RAS UV No. 20101
##$NIST SQUIB=1969BOL/94
##$NIST SOURCE=TYUGLMTE
##SPECTROMETER/DATA SYSTEM=unknown
##XUNITS=Wavelength (nm)
##YUNITS=Logarithm epsilon
##XFACTOR=1.0
##YFACTOR=1.0
##FIRSTX=211.32
##LASTX=316.77
##FIRSTY=4.121
##MAXX=316.77
##MINX=211.32
##MAXY=4.121
##MINY=2.146
##NPOINTS=163
##$REF AUTHOR=Bol'shakov, G.F.; et al.
##$REF JOURNAL=Ultraviolet spectra of heteroorganic compounds
##$REF PAGE=94
##$REF DATE=1969
##XYPOINTS=(XY..XY)
211.32,4.121
211.49,4.115
211.66,4.109
211.83,4.105
212.00,4.099
212.17,4.092
212.34,4.088
212.50,4.082
212.67,4.076
213.35,4.055
214.03,4.026
214.70,4.001
215.38,3.974
216.05,3.949
216.73,3.924
217.41,3.891
218.08,3.864
218.76,3.841
219.43,3.818
220.11,3.791
220.79,3.769
221.46,3.748
222.14,3.735
222.81,3.729
223.49,3.725
224.16,3.723
224.84,3.725
225.52,3.729
226.19,3.735
226.87,3.746
227.54,3.758
228.22,3.769
228.90,3.783
229.55,3.796
230.25,3.812
230.92,3.831
231.60,3.845
232.28,3.864
232.95,3.883
233.63,3.901
234.30,3.914
234.98,3.926
235.66,3.941
236.33,3.951
237.01,3.955
237.68,3.960
238.36,3.951
239.04,3.941
239.71,3.926
240.39,3.912
241.06,3.893
241.74,3.874
242.42,3.860
243.09,3.837
243.77,3.818
244.44,3.791
245.15,3.766
245.80,3.739
246.60,3.712
247.15,3.690
247.82,3.661
248.46,3.631
249.17,3.599
249.85,3.572
250.53,3.540
251.20,3.511
251.88,3.484
252.55,3.453
253.23,3.430
253.91,3.406
254.58,3.381
255.26,3.358
255.93,3.327
256.61,3.302
257.29,3.279
257.96,3.252
258.64,3.227
259.31,3.196
259.99,3.171
260.67,3.146
261.34,3.121
262.02,3.099
262.69,3.072
263.37,3.038
264.05,3.018
264.72,2.993
265.40,2.972
266.07,2.955
266.75,2.937
267.42,2.920
268.10,2.906
268.78,2.897
269.45,2.891
270.13,2.885
270.80,2.879
271.48,2.874
272.16,2.870
272.77,2.867
273.51,2.862
274.18,2.860
274.86,2.860
275.54,2.858
276.21,2.858
276.89,2.856
277.56,2.856
278.24,2.856
278.92,2.854
279.59,2.852
280.29,2.849
280.94,2.841
281.62,2.831
282.30,2.820
282.97,2.802
283.64,2.781
284.32,2.760
285.00,2.737
285.68,2.719
286.35,2.704
287.03,2.694
287.70,2.694
288.38,2.700
289.05,2.708
289.73,2.719
290.41,2.725
291.08,2.727
291.76,2.727
292.43,2.723
293.11,2.716
293.79,2.706
294.46,2.696
295.14,2.681
295.81,2.667
296.49,2.655
297.10,2.639
297.84,2.623
298.52,2.607
299.19,2.586
299.87,2.567
300.55,2.551
301.22,2.528
301.90,2.501
302.57,2.480
303.25,2.457
303.93,2.437
304.60,2.416
305.28,2.395
305.95,2.374
306.63,2.352
307.31,2.331
307.98,2.312
308.65,2.296
309.33,2.281
310.01,2.267
310.68,2.252
311.38,2.237
312.06,2.224
312.71,2.211
313.39,2.200
313.98,2.189
314.74,2.177
315.42,2.165
316.09,2.155
316.77,2.146
##END=
