##TITLE=Pyridine, 2,4-dimethyl-
##JCAMP-DX=4.24
##DATA TYPE=UV/VIS SPECTRUM
##ORIGIN=INSTITUTE OF ENERGY PROBLEMS OF CHEMICAL PHYSICS, RAS
##OWNER=INEP CP RAS, NIST OSRD
Collection (C) 2007 copyright by the U.S. Secretary of Commerce
on behalf of the United States of America. All rights reserved.
##CAS REGISTRY NO=108-47-4
##MOLFORM=C7H9N
##MP=-64
##BP=158.5
##SOURCE REFERENCE=RAS UV No. 937
##$NIST SQUIB=1954AND/COX918-927
##$NIST SOURCE=TSGMTE
##SPECTROMETER/DATA SYSTEM=Unicam SP 500
##XUNITS=Wavelength (nm)
##YUNITS=Logarithm epsilon
##XFACTOR=1.000000
##YFACTOR=1.000000
##FIRSTX=230.5197
##LASTX=276.1005
##FIRSTY=2.67526
##MAXX=276.101
##MINX=230.52
##MAXY=3.77201
##MINY=1.81446
##NPOINTS=212
##$REF AUTHOR=Andon, R.J.L.; Cox, J.D.; Herington, E.F.G.
##$REF TITLE=The ultra-violet absorption spectra and dissociation constants of certain pyridine bases in aqueous solution
##$REF JOURNAL=Trans. Faraday Soc.
##$REF VOLUME=50
##$REF PAGE=918-927
##$REF DATE=1954
##XYPOINTS=(XY..XY)
230.5197,2.675262
230.9987,2.652776
231.4820,2.631444
231.9803,2.613180
232.7665,2.609631
233.1180,2.635348
233.5793,2.652676
234.0798,2.668372
234.5488,2.688148
234.9156,2.716655
234.9156,2.716655
235.0932,2.723228
235.2708,2.729703
235.4483,2.736083
235.4483,2.736083
235.8089,2.759929
236.1627,2.783665
236.5100,2.807211
236.8508,2.830504
237.1855,2.853492
237.5142,2.876135
237.8371,2.898401
238.1543,2.920267
238.4661,2.941715
238.7727,2.962733
239.0742,2.983313
239.3708,3.003450
239.6628,3.023145
239.9502,3.042397
240.2334,3.061210
240.5124,3.079588
240.7875,3.097536
241.0588,3.115061
241.3266,3.132169
241.5910,3.148870
241.8522,3.165169
242.1105,3.181077
242.3659,3.196601
242.6187,3.211749
242.8691,3.226530
243.1172,3.240951
243.3633,3.255022
243.6075,3.268751
243.8500,3.282144
244.0910,3.295210
244.3308,3.307956
244.5694,3.320389
244.8070,3.332517
245.0440,3.344345
245.2804,3.355881
245.5164,3.367131
245.7522,3.378101
245.9880,3.388797
246.2241,3.399224
246.2241,3.399224
246.4376,3.411958
246.6492,3.423955
246.8602,3.435332
247.0718,3.446195
247.2853,3.456641
247.5019,3.466755
247.7228,3.476617
247.9493,3.486300
248.1826,3.495870
248.4239,3.505388
248.4239,3.505388
248.4245,3.505874
248.4285,3.506465
248.4394,3.507317
248.4606,3.508584
248.4955,3.510416
248.5477,3.512962
248.6204,3.516362
248.7173,3.520747
248.8416,3.526237
248.9969,3.532936
249.1865,3.540934
249.4140,3.550300
249.6827,3.561082
249.9961,3.573305
250.3576,3.586975
250.7708,3.602074
251.2389,3.618563
251.7654,3.636388
252.3538,3.655476
252.3538,3.655476
252.5853,3.661831
252.8177,3.668077
253.0512,3.674217
253.2860,3.680251
253.5223,3.686180
253.7603,3.692005
254.0002,3.697726
254.2422,3.703345
254.4863,3.708862
254.7330,3.714278
254.9822,3.719594
255.2343,3.724811
255.4894,3.729929
255.7477,3.734949
256.0093,3.739871
256.2746,3.744697
256.5436,3.749426
256.8165,3.754060
256.8165,3.754060
257.1711,3.758071
257.5009,3.761800
257.8165,3.765126
258.1282,3.767928
258.4466,3.770090
258.7821,3.771491
259.1452,3.772013
259.5463,3.771531
259.9960,3.769913
259.9960,3.769913
260.4010,3.765853
260.7949,3.761586
261.1826,3.757083
261.5696,3.752311
261.9609,3.747236
261.9609,3.747236
262.2460,3.742750
262.5267,3.738141
262.8031,3.733403
263.0758,3.728531
263.3449,3.723521
263.6109,3.718366
263.8741,3.713061
264.1348,3.707600
264.3934,3.701976
264.6502,3.696183
264.9055,3.690213
264.9055,3.690213
265.1364,3.683280
265.3685,3.676235
265.6013,3.669073
265.8347,3.661792
266.0684,3.654386
266.0684,3.654386
266.2575,3.645503
266.4469,3.636414
266.6368,3.627113
266.8275,3.617598
267.0194,3.607863
267.0194,3.607863
267.1371,3.599710
267.2524,3.591373
267.3653,3.582844
267.4760,3.574118
267.5845,3.565187
267.6910,3.556045
267.7956,3.546682
267.8985,3.537091
267.9996,3.527262
268.0992,3.517186
268.1974,3.506852
268.2942,3.496249
268.3898,3.485366
268.4844,3.474188
268.5779,3.462703
268.6706,3.450896
268.7625,3.438750
268.8538,3.426248
268.9446,3.413370
269.0350,3.400097
269.1251,3.386404
269.2150,3.372269
269.3049,3.357662
269.3948,3.342555
269.4849,3.326914
269.5753,3.310703
269.6661,3.293881
269.6661,3.293881
269.6914,3.291702
269.7314,3.286646
269.7885,3.278409
269.8654,3.266598
269.9647,3.250698
270.0888,3.230027
270.2405,3.203657
270.4222,3.170287
270.6366,3.128021
270.8863,3.073951
270.8863,3.073951
271.0638,3.044055
271.2449,3.013255
271.4313,2.981331
271.6244,2.948002
271.8258,2.912914
272.0370,2.875614
272.2596,2.835512
272.4950,2.791826
272.7448,2.743498
273.0105,2.689036
273.2938,2.626258
273.5960,2.551778
273.5960,2.551778
273.6361,2.551778
273.6762,2.551778
273.7163,2.551778
273.7163,2.551778
273.7449,2.566731
273.7924,2.571652
273.8425,2.575937
273.8939,2.579892
273.9351,2.472738
274.4359,2.350427
274.9851,2.196322
275.3490,2.063488
275.3490,2.063488
275.7183,1.971456
276.1005,1.814459
##END=
