##TITLE=2-Amino-4-methylpyrimidine
##JCAMP-DX=4.24
##DATA TYPE=UV/VIS SPECTRUM
##ORIGIN=INSTITUTE OF ENERGY PROBLEMS OF CHEMICAL PHYSICS, RAS
##OWNER=INEP CP RAS, NIST OSRD
Collection (C) 2007 copyright by the U.S. Secretary of Commerce
on behalf of the United States of America. All rights reserved.
##CAS REGISTRY NO=108-52-1
##MOLFORM=C5H7N3
##MP=160.3
##BP=sub
##SOURCE REFERENCE=RAS UV No. 3390
##$NIST SQUIB=1951MAR/WAL1004-1017
##$NIST SOURCE=TSGMTE
##SPECTROMETER/DATA SYSTEM=Beckman DU
##XUNITS=Wavelength (nm)
##YUNITS=Logarithm epsilon
##XFACTOR=1.000000
##YFACTOR=1.000000
##FIRSTX=210.0171
##LASTX=295.2097
##FIRSTY=3.38323
##MAXX=295.21
##MINX=210.017
##MAXY=3.67577
##MINY=1.41437
##NPOINTS=93
##$REF AUTHOR=Marshall, J.R.; Walker, J.
##$REF TITLE=An experimental study of some potentially tautomeric 2- and 4(6)-substituted pyrimidines
##$REF JOURNAL=J. Chem. Soc.
##$REF PAGE=1004-1017
##$REF DATE=1951
##XYPOINTS=(XY..XY)
210.0171,3.383232
210.5067,3.357399
210.9963,3.331274
211.4859,3.305003
212.9548,3.246496
213.8371,3.199082
214.7500,3.156106
215.9384,3.114116
217.6469,3.069660
222.2982,3.076234
222.2982,3.080836
222.2982,3.085437
222.2982,3.090039
224.6239,3.155120
225.1135,3.181391
225.6031,3.207516
226.0927,3.233349
228.0104,3.283967
228.7856,3.310238
229.5608,3.336363
230.3360,3.362196
231.6009,3.420703
232.8797,3.462056
234.3957,3.507477
235.7893,3.552898
236.7010,3.594252
239.8835,3.655388
240.7086,3.665346
241.5336,3.670630
243.0660,3.675767
246.8605,3.655388
247.6357,3.638296
248.4109,3.621204
249.1861,3.604112
251.1038,3.553494
251.7294,3.542391
252.1102,3.529098
252.5726,3.502218
254.0822,3.430563
254.6535,3.408018
255.2247,3.385180
255.7959,3.362196
256.2039,3.301059
256.6134,3.275226
257.0320,3.249101
257.4687,3.222830
258.3256,3.151176
258.6369,3.116992
258.9119,3.098585
259.3864,3.080178
260.4472,3.035476
260.5711,3.003898
260.7041,2.972173
260.8552,2.940156
261.7120,2.865214
262.3226,2.840039
262.5976,2.823336
262.7729,2.800791
264.2417,2.729136
265.4412,2.678316
266.4933,2.635934
267.4344,2.598481
268.3006,2.562453
269.1284,2.524343
269.9539,2.480645
271.8715,2.422796
272.6467,2.394504
273.4219,2.366066
274.1972,2.337336
275.7068,2.265681
276.3203,2.232812
276.9429,2.199943
277.5837,2.167074
278.6445,2.109224
279.3396,2.077645
280.0438,2.045921
280.7661,2.013904
283.3366,1.952767
283.9501,1.924475
284.5727,1.896038
285.2135,1.867307
287.1311,1.789078
287.7023,1.764098
288.2735,1.739118
288.8447,1.714137
290.5176,1.653000
291.0072,1.627168
291.4968,1.601043
291.9864,1.574772
293.0881,1.509692
293.7832,1.478112
294.4874,1.446388
295.2097,1.414370
##END=
