##TITLE=Benzene, bromo-
##JCAMP-DX=4.24
##DATA TYPE=UV/VIS SPECTRUM
##ORIGIN=INSTITUTE OF ENERGY PROBLEMS OF CHEMICAL PHYSICS, RAS
##OWNER=INEP CP RAS, NIST OSRD
Collection (C) 2007 copyright by the U.S. Secretary of Commerce
on behalf of the United States of America. All rights reserved.
##CAS REGISTRY NO=108-86-1
##MOLFORM=C6H5Br
##MP=-30.6
##BP=156.0
##SOURCE REFERENCE=RAS UV No. 824
##$NIST SQUIB=1954MCC/BLA255-258
##$NIST SOURCE=TSGMTE
##SPECTROMETER/DATA SYSTEM=n.i.g.
##XUNITS=Wavelength (nm)
##YUNITS=Logarithm epsilon
##XFACTOR=1.000000
##YFACTOR=1.000000
##FIRSTX=355.4226
##LASTX=286.2900
##FIRSTY=2.98337
##MAXX=355.423
##MINX=286.29
##MAXY=4.26265
##MINY=2.98337
##NPOINTS=75
##$REF AUTHOR=McClure, D.S.; Blake, N.W.; Hanst, P.L.
##$REF TITLE=Singlet-triplet absorption bands in some halogen substituted aromatic compounds
##$REF JOURNAL=J. Chem. Phys.
##$REF VOLUME=22
##$REF NUMBER=2
##$REF PAGE=255-258
##$REF DATE=1954
##XYPOINTS=(XY..XY)
355.4226,2.983368
353.9716,3.123946
352.5425,3.229477
351.1348,3.314186
349.7480,3.385173
348.3819,3.446500
347.0359,3.500705
345.7098,3.549481
344.4031,3.594012
343.1155,3.635158
341.8466,3.673561
340.5961,3.709711
340.5961,3.709711
338.1290,3.751164
336.2841,3.779835
334.8676,3.800705
333.6962,3.817456
332.5934,3.833092
331.3875,3.850181
329.9120,3.870899
329.9120,3.870899
329.2006,3.873937
328.0368,3.877819
326.5149,3.882517
324.7289,3.887998
322.7704,3.894228
320.7277,3.901167
320.7277,3.901167
319.2248,3.897220
317.7006,3.889640
316.1735,3.880569
316.1735,3.880569
313.9176,3.873781
312.5884,3.868924
311.0353,3.861828
311.0353,3.861828
309.6582,3.852791
308.2955,3.843827
306.9449,3.834981
305.6040,3.826303
304.2706,3.817845
302.9426,3.809663
301.6181,3.801817
300.2949,3.794370
298.9711,3.787385
297.6450,3.780931
297.6450,3.780931
296.6380,3.784860
295.6898,3.795429
294.7991,3.811414
293.9648,3.831516
293.1858,3.854481
292.4610,3.879188
291.7894,3.904686
291.1702,3.930193
290.6025,3.955087
290.0855,3.978879
289.6186,4.001185
289.2009,4.021697
288.8320,4.040168
288.5112,4.056383
288.2381,4.070145
288.2381,4.070145
287.9587,4.090118
287.7072,4.109062
287.4815,4.127101
287.2796,4.144342
287.0997,4.160877
286.9396,4.176788
286.7975,4.192147
286.6715,4.207018
286.5596,4.221455
286.4600,4.235510
286.3708,4.249227
286.2900,4.262647
##END=
