##TITLE=Phenol
##JCAMP-DX=4.24
##DATA TYPE=UV/VIS SPECTRUM
##ORIGIN=INSTITUTE OF ENERGY PROBLEMS OF CHEMICAL PHYSICS, RAS
##OWNER=INEP CP RAS, NIST OSRD
Collection (C) 2007 copyright by the U.S. Secretary of Commerce
on behalf of the United States of America. All rights reserved.
##CAS REGISTRY NO=108-95-2
##MOLFORM=C6H6O
##MP=40.9
##BP=181.8
##SOURCE REFERENCE=RAS UV No. 5027
##$NIST SQUIB=1949MAR258-261
##$NIST SOURCE=TSGMTE
##SPECTROMETER/DATA SYSTEM=n.i.g.
##XUNITS=Wavelength (nm)
##YUNITS=Logarithm epsilon
##XFACTOR=1.000000
##YFACTOR=1.000000
##FIRSTX=210.0000
##LASTX=289.0000
##FIRSTY=3.88
##MAXX=289
##MINX=210
##MAXY=3.88
##MINY=1.85
##NPOINTS=80
##$REF AUTHOR=Martynoff, M.
##$REF TITLE=Note de laboratoire: Spectres d'absorption de quelques p-quinones
##$REF JOURNAL=Bull. Soc. Chim. Fr.
##$REF VOLUME=16
##$REF PAGE=258-261
##$REF DATE=1949
##XYPOINTS=(XY..XY)
210.0000,3.880000
211.0000,3.860000
212.0000,3.860000
213.0000,3.850000
214.0000,3.830000
215.0000,3.810000
216.0000,3.760000
217.0000,3.770000
218.0000,3.670000
219.0000,3.540000
220.0000,3.510000
221.0000,3.380000
222.0000,3.330000
223.0000,3.190000
224.0000,3.060000
225.0000,2.930000
226.0000,2.900000
227.0000,2.790000
228.0000,2.720000
229.0000,2.650000
230.0000,2.430000
231.0000,2.410000
232.0000,2.190000
233.0000,2.130000
234.0000,2.030000
235.0000,2.010000
236.0000,1.960000
237.0000,1.920000
238.0000,1.920000
239.0000,1.890000
240.0000,1.870000
241.0000,1.860000
242.0000,1.860000
243.0000,1.900000
244.0000,1.890000
245.0000,1.920000
246.0000,1.940000
247.0000,2.090000
248.0000,2.060000
249.0000,2.220000
250.0000,2.230000
251.0000,2.290000
252.0000,2.350000
253.0000,2.360000
254.0000,2.410000
255.0000,2.470000
256.0000,2.510000
257.0000,2.570000
258.0000,2.720000
259.0000,2.790000
260.0000,2.890000
261.0000,2.940000
262.0000,3.080000
263.0000,3.090000
264.0000,3.170000
265.0000,3.180000
266.0000,3.230000
267.0000,3.260000
268.0000,3.260000
269.0000,3.280000
270.0000,3.310000
271.0000,3.310000
272.0000,3.310000
273.0000,3.310000
274.0000,3.300000
275.0000,3.310000
276.0000,3.290000
277.0000,3.270000
278.0000,3.230000
279.0000,3.220000
280.0000,3.100000
281.0000,3.030000
282.0000,2.950000
283.0000,2.720000
284.0000,2.640000
285.0000,2.640000
286.0000,2.490000
287.0000,2.220000
288.0000,2.000000
289.0000,1.850000
##END=
