##TITLE=Resorcinol
##JCAMP-DX=4.24
##DATA TYPE=UV/VIS SPECTRUM
##ORIGIN=INSTITUTE OF ENERGY PROBLEMS OF CHEMICAL PHYSICS, RAS
##OWNER=INEP CP RAS, NIST OSRD
Collection (C) 2007 copyright by the U.S. Secretary of Commerce
on behalf of the United States of America. All rights reserved.
##CAS REGISTRY NO=108-46-3
##MOLFORM=C6H6O2
##MP=111
##BP=178(16)
##SOURCE REFERENCE=RAS UV No. 8977
##$NIST SQUIB=1966EGG/POSd5/1C
##$NIST SOURCE=TSGMTE
##SPECTROMETER/DATA SYSTEM=Unicam SP 500
##XUNITS=Wavelength (nm)
##YUNITS=Logarithm epsilon
##XFACTOR=1.000000
##YFACTOR=1.000000
##FIRSTX=290.1673
##LASTX=201.8168
##FIRSTY=1.13459
##MAXX=290.167
##MINX=201.817
##MAXY=4.20552
##MINY=1.13459
##NPOINTS=206
##$REF AUTHOR=Eggers, J.; Posse, R.; Scheibe, g.; Munchen, T.H.
##$REF TITLE=Resorcinol
##$REF BOOK TITLE=UV Atlas of Organic Compounds - Vol. 2
##$REF PAGE=D5/1
##$REF DATE=1966
##$REF PUBLISHER=Plenum Press
##$REF LOCATION=New York
##XYPOINTS=(XY..XY)
290.1673,1.134588
290.0713,1.179175
289.9842,1.245162
289.9842,1.245162
289.9705,1.223766
289.9302,1.278143
289.8763,1.311114
289.8742,1.243824
289.8223,1.344078
289.7684,1.377035
289.7595,1.242370
289.7145,1.409987
289.6607,1.442931
289.6352,1.240864
289.6068,1.475872
289.5530,1.508808
289.4991,1.541741
289.4454,1.574671
289.3916,1.607599
289.3378,1.640525
289.2840,1.673451
289.2840,1.673451
289.1380,1.705320
288.9915,1.737212
288.8446,1.769125
288.6974,1.801059
288.5502,1.833011
288.4028,1.864978
288.2555,1.896959
288.1084,1.928952
287.9615,1.960955
287.8149,1.992966
287.6688,2.024984
287.5232,2.057006
287.3782,2.089030
287.2340,2.121055
287.0905,2.153078
286.9480,2.185097
286.8066,2.217111
286.6662,2.249118
286.5270,2.281116
286.3892,2.313102
286.2527,2.345075
286.1177,2.377033
285.9843,2.408975
285.8525,2.440897
285.7225,2.472798
285.5944,2.504676
285.4682,2.536530
285.3441,2.568358
285.2221,2.600156
285.1022,2.631924
285.1022,2.631924
284.7984,2.663976
284.5156,2.696044
284.2510,2.728123
284.0017,2.760210
283.7649,2.792297
283.5378,2.824381
283.3175,2.856457
283.1013,2.888519
282.8864,2.920563
282.6702,2.952583
282.4498,2.984575
282.2226,3.016534
281.9858,3.048454
281.7369,3.080331
281.4731,3.112159
281.1919,3.143934
280.8906,3.175651
280.5667,3.207305
280.5667,3.207305
279.3774,3.222522
278.1015,3.231579
276.7462,3.242569
276.7462,3.242569
276.1032,3.255369
275.4588,3.268169
274.8087,3.280970
274.8087,3.280970
274.2456,3.281026
273.6848,3.281081
273.1263,3.281136
273.1263,3.281136
272.1363,3.265167
271.2272,3.245511
270.6379,3.225087
270.6379,3.225087
269.6554,3.214016
268.5133,3.200471
267.9625,3.185111
267.9625,3.185111
266.9881,3.164757
266.1224,3.137316
265.4857,3.113022
265.4857,3.113022
264.7625,3.092718
264.2685,3.067806
263.5042,3.047507
263.5042,3.047507
263.1974,3.032262
262.9079,3.018001
262.5896,3.002110
262.1967,2.981974
261.6843,2.954981
261.0084,2.918517
260.1264,2.869967
258.9978,2.806718
257.5849,2.726156
257.5849,2.726156
256.4350,2.669855
255.3578,2.618027
254.4122,2.572808
253.6561,2.536336
253.1461,2.510747
252.9395,2.498178
252.9395,2.498178
251.6450,2.457740
250.4411,2.414065
249.2877,2.370216
249.2877,2.370216
248.5716,2.348822
247.6885,2.322460
246.6399,2.297647
245.4277,2.280901
244.0549,2.278739
242.5247,2.297679
242.5247,2.297679
242.1957,2.307656
241.8641,2.317633
241.5268,2.327610
241.5268,2.327610
240.9595,2.354724
240.6893,2.365722
240.4829,2.370032
240.4829,2.370032
239.8630,2.413852
239.2462,2.457559
238.6326,2.501210
238.6326,2.501210
238.3345,2.533467
238.0355,2.565721
237.7355,2.597970
237.4342,2.630212
237.1314,2.662446
236.8269,2.694671
236.5206,2.726885
236.2122,2.759086
235.9016,2.791274
235.5885,2.823446
235.2727,2.855602
234.9542,2.887740
234.6327,2.919858
234.3080,2.951955
233.9800,2.984030
233.6484,3.016081
233.3132,3.048106
232.9741,3.080105
232.6309,3.112076
232.2836,3.144017
231.9319,3.175927
231.5757,3.207805
231.2148,3.239648
230.8491,3.271456
230.4785,3.303228
230.4785,3.303228
229.8188,3.349335
229.3111,3.384655
228.8873,3.413528
228.4808,3.440296
228.0257,3.469300
227.4574,3.504879
226.7128,3.551375
226.7128,3.551375
226.0462,3.577738
225.5756,3.611716
224.8812,3.638764
224.8812,3.638764
224.8748,3.643398
224.8184,3.646114
224.6639,3.649241
224.6639,3.649241
223.8976,3.682564
223.0060,3.717264
221.9370,3.749755
220.6417,3.776449
219.0745,3.793759
219.0745,3.793759
217.4002,3.796595
215.4992,3.801680
214.0551,3.813659
214.0551,3.813659
212.1580,3.834744
210.3086,3.868225
208.8102,3.901652
208.8102,3.901652
207.9428,3.929718
207.1093,3.958533
206.3112,3.988010
205.5496,4.018061
204.8258,4.048598
204.1411,4.079534
203.4966,4.110782
202.8935,4.142254
202.3332,4.173862
201.8168,4.205519
##END=
