##TITLE=Pyridine, 2-bromo-
##JCAMP-DX=4.24
##DATA TYPE=UV/VIS SPECTRUM
##ORIGIN=INSTITUTE OF ENERGY PROBLEMS OF CHEMICAL PHYSICS, RAS
##OWNER=INEP CP RAS, NIST OSRD
Collection (C) 2007 copyright by the U.S. Secretary of Commerce
on behalf of the United States of America. All rights reserved.
##CAS REGISTRY NO=109-04-6
##MOLFORM=C5H4BrN
##BP=193; 75(13)
##SOURCE REFERENCE=RAS UV No. 798
##$NIST SQUIB=1954STE1077-1082
##$NIST SOURCE=TSGMTE
##SPECTROMETER/DATA SYSTEM=Beckman spectrophotometer
##XUNITS=Wavelength (nm)
##YUNITS=Logarithm epsilon
##XFACTOR=1.000000
##YFACTOR=1.000000
##FIRSTX=282.5225
##LASTX=223.8417
##FIRSTY=1.89728
##MAXX=282.522
##MINX=223.842
##MAXY=3.47062
##MINY=1.89728
##NPOINTS=253
##$REF AUTHOR=Stephenson, H.P.
##$REF TITLE=Solution spectra and oscillator strengths of electronic transitions of pyridine and some monosubstituted derivatives
##$REF JOURNAL=J. Chem. Phys.
##$REF VOLUME=22
##$REF NUMBER=6
##$REF PAGE=1077-1082
##$REF DATE=1954
##XYPOINTS=(XY..XY)
282.5225,1.897283
281.7491,2.032301
280.8656,2.168876
280.8656,2.168876
280.3579,2.286208
279.8464,2.378502
279.3339,2.454584
279.3339,2.454584
278.4357,2.613066
277.8941,2.687875
277.6957,2.746856
277.6335,2.747916
277.6180,2.723856
277.5764,2.757029
277.5713,2.748862
277.5188,2.740251
277.5090,2.749580
277.5090,2.749580
277.4898,2.759079
277.4032,2.761010
277.3196,2.767588
277.3165,2.762715
277.3165,2.762715
277.3143,2.759270
277.3121,2.755799
277.3099,2.752299
277.1919,2.799423
277.1274,2.780197
277.0699,2.787705
277.0645,2.829074
277.0123,2.794984
276.9545,2.801944
276.9376,2.856820
276.8111,2.882891
276.6851,2.907479
276.5596,2.930742
276.4347,2.952816
276.3105,2.973817
276.1869,2.993844
276.0641,3.012983
275.9420,3.031311
275.8207,3.048892
275.7002,3.065786
275.5806,3.082044
275.4620,3.097713
275.3443,3.112833
275.2276,3.127443
275.1119,3.141575
274.9973,3.155259
274.8839,3.168525
274.7716,3.181395
274.6605,3.193894
274.5507,3.206042
274.4421,3.217859
274.3349,3.229362
274.2290,3.240568
274.1246,3.251492
274.0215,3.262147
273.9200,3.272547
273.8200,3.282704
273.7216,3.292628
273.6247,3.302332
273.6247,3.302332
273.4636,3.307439
273.2832,3.310984
272.9564,3.314114
272.9564,3.314114
272.4369,3.308292
272.1561,3.300818
271.9607,3.292841
271.6993,3.285595
271.2213,3.280391
270.3792,3.278583
270.3792,3.278583
270.2209,3.282793
270.0627,3.286930
269.9045,3.290963
269.9045,3.290963
269.7120,3.300778
269.5251,3.310402
269.3436,3.319841
269.1674,3.329099
268.9963,3.338181
268.8303,3.347090
268.6691,3.355831
268.5127,3.364406
268.3609,3.372821
268.2137,3.381078
268.0708,3.389181
267.9322,3.397133
267.7977,3.404937
267.6672,3.412596
267.5406,3.420113
267.4177,3.427490
267.2985,3.434730
267.1828,3.441836
267.0705,3.448811
266.9615,3.455655
266.9615,3.455655
266.8598,3.456938
266.7294,3.460677
266.4588,3.469945
266.4588,3.469945
266.2975,3.470171
266.1364,3.470397
265.9755,3.470622
265.9755,3.470622
265.8931,3.467672
265.8020,3.464648
265.6858,3.460693
265.5280,3.454912
265.3120,3.446347
265.0218,3.433919
264.6412,3.416341
264.6412,3.416341
264.3679,3.408309
264.0478,3.399909
263.6305,3.391790
263.0666,3.384646
262.3079,3.379214
262.3079,3.379214
262.0523,3.380313
261.6983,3.381539
261.3354,3.383836
261.3354,3.383836
260.9664,3.391402
260.7070,3.395930
260.3350,3.401342
260.3350,3.401342
260.1883,3.401380
260.0368,3.401418
259.8830,3.401458
259.8830,3.401458
259.7021,3.397421
259.5344,3.392679
259.3932,3.389708
259.3932,3.389708
259.2412,3.381162
259.0466,3.372377
258.8123,3.363387
258.5414,3.354230
258.2368,3.344948
257.9015,3.335584
257.5387,3.326188
257.1512,3.316813
256.7421,3.307518
256.1712,3.300515
255.8583,3.295083
255.5773,3.291093
255.0882,3.285112
254.6976,3.279915
254.5465,3.278176
254.3956,3.276431
254.2449,3.274678
253.9118,3.270706
253.2957,3.263679
252.7761,3.254783
252.3293,3.244402
251.9319,3.232944
251.5611,3.220853
251.2298,3.212892
251.0792,3.208411
250.9288,3.203883
250.7786,3.199307
250.3345,3.189155
250.3014,3.187644
250.2659,3.186046
250.2258,3.184402
249.7859,3.167952
249.4173,3.154976
249.1745,3.147824
248.8491,3.140548
248.2637,3.131298
248.1273,3.128844
247.9865,3.126378
247.8437,3.123900
245.6212,3.079572
245.5569,3.077232
245.4882,3.074828
245.4172,3.072306
245.0960,3.064989
244.5133,3.051696
243.9291,3.037929
243.3454,3.023593
242.8324,3.010025
242.7160,3.008709
242.5996,3.007328
242.4832,3.005817
241.5200,2.984138
240.7949,2.976917
240.0713,2.968654
239.3430,2.959961
238.6040,2.951500
237.8483,2.943986
237.0701,2.938178
236.9317,2.936662
236.5209,2.937031
236.1114,2.937400
235.7034,2.937769
235.3261,2.941373
234.5751,2.948035
233.8936,2.955509
233.2560,2.964213
232.6371,2.974517
232.0124,2.986743
231.3579,3.001146
231.3579,3.001146
230.3734,3.033813
229.8016,3.052594
229.5190,3.060188
229.5190,3.060188
229.1752,3.074404
228.9130,3.085570
228.6480,3.097702
228.2969,3.114362
227.7775,3.138492
227.6067,3.144947
227.4456,3.156555
227.2797,3.168819
227.1112,3.181517
226.9419,3.194443
226.7737,3.207417
226.6086,3.220274
226.4485,3.232870
226.2953,3.245079
226.1509,3.256785
226.0172,3.267888
226.0172,3.267888
225.9284,3.273424
225.7735,3.285722
225.5858,3.300966
225.3985,3.315693
225.2443,3.326865
225.1561,3.331702
225.1561,3.331702
225.0613,3.341167
224.9635,3.350441
224.8640,3.359530
224.7638,3.368438
224.6639,3.377170
224.5655,3.385732
224.4697,3.394127
224.3774,3.402361
224.2898,3.410436
224.2079,3.418357
224.1328,3.426127
224.0656,3.433750
224.0072,3.441229
223.9587,3.448568
223.9587,3.448568
223.9222,3.450868
223.8838,3.453113
223.8417,3.455324
##END=
