##TITLE=Pyridine, 2-methyl-
##JCAMP-DX=4.24
##DATA TYPE=UV/VIS SPECTRUM
##ORIGIN=INSTITUTE OF ENERGY PROBLEMS OF CHEMICAL PHYSICS, RAS
##OWNER=INEP CP RAS, NIST OSRD
Collection (C) 2007 copyright by the U.S. Secretary of Commerce
on behalf of the United States of America. All rights reserved.
##CAS REGISTRY NO=109-06-8
##MOLFORM=C6H7N
##MP=- 66.7
##BP=129.3
##SOURCE REFERENCE=RAS UV No. 12451
##$NIST SQUIB=1950HER26
##$NIST SOURCE=TYUGLMTE
##SPECTROMETER/DATA SYSTEM=Beckman quartz spectrophotometer and Unicam quartz spectrophotometer
##XUNITS=Wavelength (nm)
##YUNITS=Logarithm epsilon
##XFACTOR=1.0
##YFACTOR=1.0
##FIRSTX=230.83
##LASTX=277.78
##FIRSTY=2.589
##MAXX=277.78
##MINX=230.83
##MAXY=3.349
##MINY=2.385
##NPOINTS=127
##$REF AUTHOR=Herington, E.F.G.
##$REF JOURNAL=Discussions Faraday Soc.
##$REF VOLUME=9
##$REF PAGE=26
##$REF DATE=1950
##XYPOINTS=(XY..XY)
230.83,2.589
231.49,2.603
232.15,2.621
232.75,2.637
233.35,2.658
233.97,2.679
234.55,2.698
235.13,2.719
235.63,2.740
236.13,2.760
236.71,2.776
237.20,2.794
237.70,2.811
238.28,2.828
238.78,2.847
239.19,2.865
239.61,2.882
240.10,2.899
240.52,2.917
240.93,2.935
241.35,2.950
241.76,2.966
242.17,2.982
242.59,2.995
242.92,3.010
243.25,3.024
243.58,3.038
244.00,3.051
244.33,3.064
244.66,3.077
244.91,3.089
245.32,3.101
245.65,3.112
245.98,3.124
246.31,3.135
246.65,3.145
246.98,3.156
247.31,3.166
247.64,3.176
247.98,3.186
248.30,3.197
248.55,3.206
248.88,3.215
249.21,3.224
249.46,3.234
249.79,3.242
250.21,3.251
250.54,3.259
250.95,3.266
251.45,3.273
251.86,3.281
252.36,3.287
252.77,3.294
253.19,3.302
253.60,3.309
253.85,3.316
254.18,3.323
254.51,3.330
255.01,3.339
255.42,3.345
256.00,3.349
256.75,3.349
257.41,3.346
257.99,3.341
258.65,3.337
259.32,3.334
259.98,3.337
260.48,3.343
261.22,3.344
261.88,3.341
262.55,3.337
262.73,3.333
262.96,3.327
263.15,3.319
263.36,3.311
263.59,3.299
263.79,3.291
263.92,3.286
264.13,3.275
264.37,3.266
264.62,3.258
264.86,3.250
265.11,3.241
265.61,3.235
266.27,3.232
266.93,3.226
267.37,3.221
267.93,3.210
268.17,3.203
268.43,3.192
268.63,3.181
268.79,3.171
269.00,3.158
269.15,3.147
269.34,3.136
269.50,3.124
269.67,3.111
269.81,3.098
269.97,3.084
270.16,3.070
270.32,3.056
270.50,3.043
270.66,3.027
270.83,3.012
271.07,2.995
271.24,2.978
271.49,2.960
271.65,2.941
271.90,2.924
272.15,2.906
272.40,2.885
272.65,2.865
272.90,2.844
273.15,2.823
273.41,2.800
273.64,2.778
273.97,2.747
274.22,2.719
274.55,2.690
274.88,2.659
275.22,2.625
275.63,2.589
275.96,2.553
276.38,2.510
276.79,2.468
277.29,2.429
277.78,2.385
##END=
