##TITLE=Pyridine, 2-chloro-
##JCAMP-DX=4.24
##DATA TYPE=UV/VIS SPECTRUM
##ORIGIN=INSTITUTE OF ENERGY PROBLEMS OF CHEMICAL PHYSICS, RAS
##OWNER=INEP CP RAS, NIST OSRD
Collection (C) 2007 copyright by the U.S. Secretary of Commerce
on behalf of the United States of America. All rights reserved.
##CAS REGISTRY NO=109-09-1
##MOLFORM=C5H4ClN
##BP=170
##SOURCE REFERENCE=RAS UV No. 12083
##$NIST SQUIB=1955BRO/MCD3752
##$NIST SOURCE=TYUGLMTE
##SPECTROMETER/DATA SYSTEM=Cary recording spectrometer
##XUNITS=Wavelength (nm)
##YUNITS=Logarithm epsilon
##XFACTOR=1.0
##YFACTOR=1.0
##FIRSTX=220.2
##LASTX=282.5
##FIRSTY=3.354
##MAXX=282.5
##MINX=220.2
##MAXY=3.86
##MINY=3.165
##NPOINTS=146
##$REF AUTHOR=Brown, H.C.; McDaniel, D.H.
##$REF JOURNAL=J. Am. Chem. Soc.
##$REF VOLUME=77
##$REF PAGE=3752
##$REF DATE=1955
##XYPOINTS=(XY..XY)
220.20,3.354
220.40,3.340
220.58,3.326
220.96,3.298
221.29,3.285
221.69,3.268
222.10,3.253
222.47,3.242
222.92,3.231
223.32,3.220
223.74,3.211
224.80,3.191
225.63,3.177
226.77,3.168
227.19,3.167
227.53,3.166
227.90,3.165
229.04,3.165
229.42,3.165
230.68,3.168
230.91,3.169
231.21,3.170
231.48,3.170
231.72,3.171
232.98,3.176
234.02,3.183
235.04,3.192
235.98,3.202
236.88,3.210
237.55,3.218
237.97,3.222
238.44,3.226
238.79,3.230
239.06,3.233
239.38,3.237
239.90,3.247
241.20,3.267
241.47,3.271
241.73,3.278
241.92,3.284
242.05,3.286
242.17,3.289
242.30,3.291
242.42,3.293
242.55,3.296
242.68,3.298
242.80,3.301
242.93,3.303
243.06,3.305
243.18,3.308
243.31,3.310
243.43,3.312
243.56,3.315
243.76,3.319
244.06,3.326
244.32,3.331
244.70,3.341
245.27,3.355
245.64,3.367
246.00,3.377
246.34,3.387
246.72,3.397
247.10,3.413
247.47,3.430
247.85,3.440
248.23,3.449
248.61,3.459
248.99,3.470
249.37,3.481
249.75,3.488
250.13,3.498
250.51,3.507
250.88,3.518
251.26,3.530
251.68,3.545
252.02,3.560
252.40,3.573
252.89,3.590
253.28,3.605
253.77,3.623
254.29,3.640
254.66,3.651
255.05,3.663
255.39,3.675
255.81,3.690
256.19,3.697
256.57,3.705
256.94,3.713
257.32,3.723
257.70,3.732
258.07,3.742
258.46,3.751
258.84,3.763
259.25,3.776
259.60,3.786
260.00,3.795
260.35,3.801
260.73,3.805
261.11,3.813
261.49,3.818
262.16,3.830
262.49,3.835
262.93,3.841
263.38,3.847
263.76,3.849
264.14,3.853
264.52,3.855
264.90,3.857
265.54,3.860
266.41,3.859
267.55,3.853
268.24,3.844
268.69,3.840
269.07,3.832
269.44,3.823
269.82,3.813
270.23,3.801
270.58,3.792
270.96,3.783
271.34,3.774
271.72,3.765
272.10,3.754
272.43,3.743
272.85,3.729
273.27,3.713
273.65,3.700
274.04,3.687
274.43,3.671
274.75,3.651
275.06,3.633
275.51,3.598
275.88,3.568
276.26,3.542
276.64,3.509
277.02,3.469
277.32,3.444
277.78,3.408
278.16,3.387
278.54,3.363
278.91,3.342
279.50,3.310
279.86,3.287
280.20,3.269
280.43,3.261
281.57,3.223
282.50,3.203
##END=
