##TITLE=Divinyl ether
##JCAMP-DX=4.24
##DATA TYPE=UV/VIS SPECTRUM
##ORIGIN=INSTITUTE OF ENERGY PROBLEMS OF CHEMICAL PHYSICS, RAS
##OWNER=INEP CP RAS, NIST OSRD
Collection (C) 2007 copyright by the U.S. Secretary of Commerce
on behalf of the United States of America. All rights reserved.
##CAS REGISTRY NO=109-93-3
##MOLFORM=C4H6O
##MP=-101
##BP=28.3
##SOURCE REFERENCE=RAS UV No. 3262
##$NIST SQUIB=1950HAR/GAD221-223
##$NIST SOURCE=TSGMTE
##SPECTROMETER/DATA SYSTEM=Fluorite prism instrument or Beckman DU
##XUNITS=Wavelength (nm)
##YUNITS=Logarithm epsilon
##XFACTOR=1.000000
##YFACTOR=1.000000
##FIRSTX=235.9517
##LASTX=167.9171
##FIRSTY=1.05319
##MAXX=235.952
##MINX=167.917
##MAXY=4.18817
##MINY=1.05319
##NPOINTS=90
##$REF AUTHOR=Harrison, A.J.; Gaddis, C.L.; Coffin, E.M.
##$REF TITLE=Quantitative determination of extinction coefficients in the vacuum ultraviolet: divinyl ether
##$REF JOURNAL=J. Chem. Phys.
##$REF VOLUME=18
##$REF NUMBER=2
##$REF PAGE=221-223
##$REF DATE=1950
##XYPOINTS=(XY..XY)
235.9517,1.053194
235.4759,1.141654
235.3306,1.158751
235.1542,1.196546
234.9780,1.234011
234.8021,1.271230
233.7694,1.448567
233.5715,1.483455
233.3760,1.518322
233.1829,1.553158
232.9918,1.587953
232.8024,1.622698
232.6145,1.657381
232.4277,1.691992
232.2417,1.726522
231.2882,1.909709
229.4651,2.214112
229.3293,2.239306
229.1376,2.272706
227.1198,2.576702
226.8248,2.617224
226.5349,2.657501
226.2520,2.697615
225.3041,2.833047
224.8718,2.887529
222.5411,3.131797
220.9873,3.277299
220.5109,3.317033
219.2917,3.431520
218.9687,3.460122
217.0796,3.592920
216.5004,3.632820
214.0792,3.797715
213.2144,3.837866
213.2144,3.837866
212.7709,3.864915
212.0526,3.904081
210.3692,3.985589
210.1812,3.993094
209.9262,3.999823
209.9262,3.999823
208.0693,4.056419
207.7429,4.071313
205.5341,4.147797
205.5341,4.147797
203.8277,4.179992
203.5526,4.183288
202.4893,4.188168
202.4893,4.188168
202.1377,4.186370
201.7873,4.184572
200.2262,4.181968
199.8910,4.182328
198.3835,4.159813
198.0798,4.156755
196.5795,4.135694
196.0796,4.128335
194.9266,4.098858
194.7325,4.094367
193.1886,4.057868
192.9010,4.050498
191.7191,4.011934
191.6026,4.007272
190.8805,3.996800
190.7242,3.995552
188.4464,3.917857
188.2416,3.908794
186.7696,3.848312
184.9019,3.784537
183.0528,3.735916
182.7486,3.730751
181.4687,3.697829
181.3004,3.694353
181.1386,3.690879
180.0501,3.658579
179.7900,3.651078
179.7900,3.651078
177.5315,3.596969
175.9863,3.605356
175.6993,3.612303
174.3234,3.627078
174.1223,3.628725
173.9332,3.630375
172.9219,3.659153
172.8114,3.660828
172.6897,3.662500
171.6361,3.696396
170.3691,3.735416
168.4666,3.814291
167.9171,3.842387
##END=
