##TITLE=Furan, tetrahydro-
##JCAMP-DX=4.24
##DATA TYPE=UV/VIS SPECTRUM
##ORIGIN=INSTITUTE OF ENERGY PROBLEMS OF CHEMICAL PHYSICS, RAS
##OWNER=INEP CP RAS, NIST OSRD
Collection (C) 2007 copyright by the U.S. Secretary of Commerce
on behalf of the United States of America. All rights reserved.
##CAS REGISTRY NO=109-99-9
##MOLFORM=C4H8O
##MP=-108.3
##BP=65
##SOURCE REFERENCE=RAS UV No. 21
##$NIST SQUIB=1951PIC/HOE4865-4869
##$NIST SOURCE=TSGMTE
##SPECTROMETER/DATA SYSTEM=Hilger fluorite prism spectrograph
##XUNITS=Wavelength (nm)
##YUNITS=Logarithm epsilon
##XFACTOR=1.000000
##YFACTOR=1.000000
##FIRSTX=199.1212
##LASTX=161.9523
##FIRSTY=2.10189
##MAXX=199.121
##MINX=161.952
##MAXY=3.4579
##MINY=2.02343
##NPOINTS=1129
##$REF AUTHOR=Pickett, L.W.; Hoeflich, N.J.; Liu, T.-C.
##$REF TITLE=The vacuum ultraviolet absorption spectra of cyclic compounds. II. Tetrahydrofuran, tetrahydropyran, 1,4-dioxane and furan
##$REF JOURNAL=J. Am. Chem. Soc.
##$REF VOLUME=73
##$REF PAGE=4865-4869
##$REF DATE=1951
##XYPOINTS=(XY..XY)
199.1212,2.101893
199.1212,2.101893
199.1164,2.103183
199.1164,2.103183
199.1107,2.104424
199.1107,2.104424
199.1030,2.105568
199.0977,2.023428
199.0964,2.029936
199.0898,2.062438
199.0895,2.063674
199.0893,2.064814
199.0891,2.065905
199.0858,2.082156
199.0855,2.083448
199.0853,2.084692
199.0851,2.085839
199.0680,2.170344
199.0665,2.177494
198.8244,2.120816
198.8009,2.128324
198.7893,2.121665
198.6686,2.179248
198.6686,2.179248
198.6383,2.178582
198.6079,2.177917
198.5775,2.177252
198.5775,2.177252
198.5734,2.175508
198.5682,2.173716
198.5612,2.171826
198.5612,2.171826
198.5086,2.172450
198.3795,2.166318
198.2234,2.229950
198.0650,2.191451
198.0160,2.183256
197.9815,2.182372
197.9798,2.190814
197.9307,2.347641
197.7450,2.284857
197.6996,2.251575
197.6814,2.256116
197.6768,2.279518
197.6721,2.302919
197.5620,2.373074
197.5489,2.379569
197.5115,2.373049
197.5115,2.373049
197.4962,2.378892
197.4584,2.380174
197.4496,2.374744
197.4416,2.378215
197.4416,2.378215
197.3958,2.490011
197.2085,2.419046
197.1864,2.406907
197.1478,2.406888
196.9264,2.457267
196.8891,2.457248
196.8776,2.465686
196.8642,2.474074
196.6951,2.581448
196.6504,2.583030
196.6483,2.593864
196.6300,2.577386
196.3837,2.507483
196.3827,2.512683
196.3715,2.519981
196.2983,2.573967
196.2669,2.559432
196.2646,2.572216
196.2427,2.568946
196.2318,2.559414
196.2189,2.565628
196.1948,2.559395
196.1948,2.559395
196.1942,2.562212
196.1904,2.555155
196.1549,2.550755
196.0903,2.550457
196.0689,2.550446
196.0579,2.542423
196.0466,2.550435
196.0238,2.543272
196.0233,2.545655
196.0228,2.548039
196.0224,2.550422
196.0224,2.550422
196.0220,2.552156
196.0125,2.551059
196.0011,2.549914
195.9888,2.548672
195.9877,2.553872
195.9515,2.564688
195.9144,2.575504
195.8027,2.584942
195.7443,2.582753
195.6989,2.579078
195.6894,2.578198
195.6780,2.577270
195.6656,2.576244
195.6272,2.578175
195.6173,2.579036
195.6095,2.582499
195.6095,2.582499
195.6056,2.579897
195.5929,2.580757
195.5290,2.593125
195.4507,2.595203
195.4162,2.596799
195.3820,2.594943
195.3115,2.594634
195.2401,2.594228
195.2065,2.594211
195.1937,2.595071
195.1888,2.598536
195.1888,2.598536
195.1809,2.595931
195.1681,2.596792
195.1576,2.607613
195.1264,2.616642
195.0952,2.625575
195.0952,2.625575
195.0728,2.626206
195.0623,2.621874
195.0486,2.626787
195.0234,2.627272
195.0035,2.621619
194.9902,2.625521
194.9448,2.621316
194.9314,2.625491
194.8861,2.620917
194.8726,2.625460
194.8525,2.620899
194.8397,2.622410
194.8346,2.627174
194.8268,2.623920
194.8139,2.625430
194.8139,2.625430
194.7552,2.648707
194.7167,2.657114
194.6858,2.659602
194.6858,2.659602
194.5864,2.651148
194.5243,2.646902
194.4464,2.643226
194.4464,2.643226
194.4137,2.639525
194.4092,2.640815
194.4037,2.642056
194.3963,2.643200
194.3279,2.660677
194.2690,2.681819
194.2311,2.699890
194.2311,2.699890
194.1704,2.712202
194.1097,2.724466
194.0492,2.736634
194.0492,2.736634
193.9125,2.725976
193.7814,2.711325
193.6788,2.697651
193.6788,2.697651
193.6586,2.695040
193.6455,2.698003
193.6383,2.691996
193.6171,2.688951
193.6112,2.698258
193.5941,2.685905
193.5751,2.698464
193.5751,2.698464
193.5565,2.687619
193.5559,2.690652
193.5553,2.693686
193.5548,2.696719
193.4188,2.758271
193.3674,2.790236
193.3650,2.782064
193.3375,2.773968
193.3086,2.773728
193.3000,2.775682
193.2995,2.778218
193.2990,2.780657
193.2986,2.783049
193.2798,2.773440
193.2510,2.773055
193.2510,2.773055
193.2474,2.769153
193.2430,2.765250
193.2381,2.754196
193.2367,2.761346
193.2334,2.756079
193.2279,2.757866
193.2205,2.759604
193.2205,2.759604
193.1975,2.772161
193.1522,2.771912
193.1462,2.760207
193.1070,2.771615
193.0720,2.760762
193.0617,2.771222
193.0617,2.771222
193.0528,2.768553
193.0420,2.765786
193.0304,2.762971
192.9978,2.761220
192.9978,2.761220
192.9574,2.752435
192.9139,2.745670
192.8977,2.746865
192.8647,2.746848
192.8307,2.746830
192.8301,2.735128
192.7970,2.735977
192.7963,2.739653
192.7957,2.743280
192.7950,2.746811
192.7950,2.746811
192.7945,2.749411
192.6492,2.802346
192.5792,2.824501
192.5425,2.824040
192.5241,2.834865
192.5241,2.834865
192.5209,2.824028
192.4974,2.824016
192.4743,2.828924
192.4729,2.824003
192.4438,2.821885
192.4068,2.805982
192.4065,2.807715
192.4065,2.807715
192.3980,2.802943
192.3874,2.799904
192.3758,2.796864
192.3431,2.796847
192.3427,2.799230
192.3422,2.801614
192.3418,2.803997
192.3418,2.803997
192.3330,2.807179
192.2967,2.803973
192.2596,2.806546
192.2507,2.803949
192.2029,2.803923
192.1862,2.805865
192.1862,2.805865
192.1385,2.798680
192.0899,2.791447
192.0395,2.784117
192.0395,2.784117
192.0074,2.781499
191.9946,2.784462
191.9858,2.781857
191.9623,2.782118
191.9498,2.784711
191.9380,2.782329
191.9050,2.784912
191.9050,2.784912
191.8129,2.802721
191.7387,2.822513
191.6574,2.848707
191.6185,2.861255
191.6126,2.848683
191.5864,2.859504
191.5777,2.856465
191.5671,2.853426
191.5670,2.848658
191.5557,2.850386
191.5195,2.848633
191.5195,2.848633
191.4217,2.828757
191.3059,2.809545
191.2282,2.805354
191.1958,2.805336
191.1949,2.789083
191.1624,2.805318
191.1623,2.790799
191.1521,2.795714
191.1401,2.800531
191.1273,2.805299
191.1273,2.805299
191.1270,2.807033
191.0737,2.826507
191.0187,2.845981
190.9629,2.865454
190.9629,2.865454
190.9302,2.868037
190.9144,2.865428
190.9014,2.871055
190.8727,2.874073
190.8651,2.865401
190.8447,2.873408
190.8440,2.877092
190.8358,2.871662
190.8251,2.869866
190.8140,2.865374
190.8140,2.865374
190.8135,2.867974
190.7080,2.845316
190.6003,2.825161
190.5216,2.817542
190.4919,2.804957
190.4894,2.817524
190.4598,2.804940
190.4563,2.817506
190.4470,2.809203
190.4412,2.819232
190.4342,2.813369
190.4215,2.817488
190.4215,2.817488
190.3881,2.824621
190.3877,2.827004
190.3872,2.829388
190.3868,2.831771
190.3860,2.851049
190.3292,2.882817
190.3107,2.875070
190.3104,2.876803
190.3101,2.878537
190.3098,2.880270
190.2748,2.896504
190.2715,2.914488
190.2398,2.912737
190.2307,2.897130
190.2194,2.908601
190.1972,2.904415
190.1866,2.897756
190.1742,2.900133
190.1425,2.898382
190.1425,2.898382
190.0412,2.877339
189.9046,2.855748
189.7854,2.845963
189.7654,2.845953
189.7559,2.833379
189.7445,2.845941
189.7241,2.833361
189.7233,2.837631
189.7226,2.841804
189.7218,2.845929
189.7218,2.845929
189.7054,2.848520
189.6017,2.891082
189.5381,2.912283
189.4780,2.919474
189.4602,2.930299
189.4602,2.930299
189.4570,2.919462
189.4343,2.919450
189.4106,2.919437
189.2668,2.899574
189.1305,2.876008
189.0452,2.862678
189.0452,2.862678
189.0260,2.859850
189.0174,2.857462
189.0070,2.855073
188.9957,2.852683
188.9638,2.854399
188.9635,2.856285
188.9632,2.858074
188.9629,2.859816
188.9614,2.863635
188.8633,2.865179
188.8521,2.865975
188.8082,2.865148
188.7531,2.865118
188.6990,2.859671
188.6986,2.861557
188.6983,2.863346
188.6980,2.865088
188.6980,2.865088
188.6816,2.868762
188.6816,2.868762
188.6668,2.863337
188.6666,2.864573
188.6664,2.865712
188.6662,2.866804
188.6142,2.892771
188.5460,2.916731
188.4973,2.910050
188.4765,2.910039
188.4761,2.940594
188.4761,2.940594
188.4540,2.910027
188.4306,2.910014
188.4214,2.916662
188.3659,2.892634
188.3091,2.866606
188.3088,2.868557
188.3088,2.868557
188.2884,2.866370
188.2660,2.866085
188.2427,2.865703
188.2116,2.864819
188.1800,2.865443
188.1476,2.866019
188.1135,2.866498
188.0281,2.876973
187.8859,2.895000
187.8458,2.900588
187.8029,2.900564
187.7815,2.911387
187.7809,2.915071
187.7703,2.908773
187.7601,2.900540
187.7591,2.906110
187.7479,2.903351
187.7173,2.900517
187.7173,2.900517
187.6880,2.889168
187.6579,2.877722
187.6262,2.866227
187.5954,2.864476
187.5944,2.869893
187.5400,2.869863
187.4856,2.869833
187.4313,2.869802
187.3584,2.872386
187.2482,2.881956
187.1707,2.896744
187.1707,2.896744
187.1394,2.898460
187.1389,2.901486
187.1384,2.904463
187.1378,2.907344
187.1242,2.896493
187.1033,2.905591
187.0842,2.903566
187.0768,2.896194
187.0643,2.901444
187.0426,2.899273
187.0278,2.895797
187.0278,2.895797
186.9671,2.882914
186.9048,2.869933
186.8417,2.856903
186.8417,2.856903
186.6281,2.855291
186.4786,2.860792
186.3124,2.870907
186.3124,2.870907
186.2816,2.870665
186.2500,2.870375
186.2167,2.869987
186.2167,2.869987
186.1491,2.857741
186.1084,2.852156
186.0598,2.848444
186.0297,2.845610
185.9986,2.847752
185.9667,2.849844
185.9331,2.851840
185.9331,2.851840
185.8911,2.851816
185.8491,2.851792
185.8071,2.851768
185.8071,2.851768
185.7770,2.848870
185.7460,2.845875
185.7142,2.838280
185.7134,2.842830
185.6659,2.843389
185.6127,2.847677
185.5517,2.853356
185.5517,2.853356
185.5060,2.853106
185.4594,2.852806
185.4112,2.852410
185.4112,2.852410
185.2922,2.829901
185.1870,2.805811
185.1073,2.791126
185.1073,2.791126
185.0375,2.796520
184.9965,2.801160
184.9491,2.809022
184.9491,2.809022
184.8922,2.809631
184.8345,2.810192
184.7752,2.810656
184.7752,2.810656
184.6749,2.794578
184.6234,2.787582
184.5764,2.783670
184.5764,2.783670
184.5345,2.786897
184.4925,2.790123
184.4506,2.793349
184.4506,2.793349
184.1962,2.788796
184.0557,2.778241
183.8944,2.759873
183.8944,2.759873
183.7707,2.762794
183.5478,2.765996
183.3678,2.767584
183.3678,2.767584
183.2839,2.752302
183.1985,2.736922
183.1124,2.721494
183.1124,2.721494
182.9905,2.726287
182.9000,2.730953
182.7297,2.732972
182.7297,2.732972
182.6207,2.724456
182.5274,2.715806
182.4729,2.704866
182.4729,2.704866
182.4395,2.706797
182.3726,2.704583
182.3587,2.706749
182.2779,2.706702
182.2708,2.704250
182.1972,2.706654
182.1683,2.703820
182.1683,2.703820
182.0670,2.689145
181.9177,2.670540
181.7480,2.658714
181.7189,2.658696
181.6901,2.655862
181.6895,2.659048
181.6593,2.659303
181.6276,2.659509
181.6183,2.658332
181.5430,2.662725
181.3997,2.672809
181.3997,2.672809
181.3343,2.672770
181.2689,2.672731
181.2036,2.672692
181.2036,2.672692
181.1269,2.665856
181.0734,2.659756
180.9974,2.649165
180.9653,2.646545
180.8603,2.651402
180.7810,2.657045
180.7096,2.663511
180.7096,2.663511
180.6447,2.663472
180.6190,2.666057
180.5938,2.666042
180.5798,2.663433
180.5686,2.666027
180.5434,2.666012
180.5150,2.663394
180.5150,2.663394
180.4554,2.643494
180.4508,2.620160
180.4285,2.642539
180.4281,2.644922
180.4277,2.647306
180.4273,2.649689
180.4016,2.631687
180.3918,2.625397
180.3821,2.619107
180.3723,2.612817
180.3446,2.606516
180.3260,2.604490
180.3169,2.600215
180.3057,2.602367
180.2846,2.600195
180.2414,2.601036
180.0083,2.624461
179.8316,2.653934
179.6953,2.684325
179.6187,2.690589
179.5900,2.690572
179.5842,2.705087
179.5833,2.710504
179.5767,2.700957
179.5676,2.696779
179.5606,2.690554
179.5578,2.692503
179.5296,2.690535
179.5296,2.690535
179.5069,2.673322
179.4620,2.651279
179.4202,2.641928
179.3872,2.641683
179.3608,2.635607
179.3526,2.641389
179.3321,2.637323
179.3310,2.643607
179.3173,2.640998
179.3173,2.640998
179.3122,2.643595
179.3100,2.638747
179.3062,2.639699
179.2918,2.643583
179.2845,2.645529
179.2712,2.640103
179.2710,2.641339
179.2708,2.642479
179.2707,2.643570
179.2707,2.643570
179.1969,2.681448
179.1445,2.699402
179.1443,2.700638
179.1441,2.701777
179.1439,2.702869
179.1086,2.717366
179.0494,2.739000
179.0193,2.749600
179.0187,2.753283
179.0105,2.738976
179.0092,2.746712
178.9991,2.743728
178.9889,2.740696
178.9715,2.738952
178.9326,2.738928
178.9326,2.738928
178.8477,2.717856
178.7628,2.696784
178.7348,2.695467
178.6959,2.695443
178.6780,2.675712
178.6562,2.695419
178.6495,2.677428
178.6380,2.683481
178.6322,2.697137
178.6264,2.689485
178.6149,2.695393
178.6149,2.695393
178.5410,2.726825
178.4090,2.753503
178.1352,2.770726
178.1066,2.774392
178.0368,2.764742
177.9780,2.754737
177.9657,2.758052
177.9375,2.758035
177.9363,2.744599
177.9087,2.758017
177.9082,2.745448
177.8995,2.749713
177.8919,2.759740
177.8893,2.753880
177.8782,2.757998
177.8782,2.757998
177.8374,2.832052
177.8104,2.859115
177.8055,2.840733
177.8050,2.843758
177.8045,2.846735
177.8041,2.849616
177.7878,2.864125
177.7878,2.864125
177.6645,2.850116
177.5797,2.834589
177.5058,2.818009
177.5058,2.818009
177.4923,2.815401
177.4745,2.811858
177.4675,2.818355
177.4551,2.808218
177.4349,2.804530
177.4292,2.818604
177.4071,2.804513
177.3960,2.808776
177.3909,2.818805
177.3909,2.818805
177.3849,2.812942
177.3738,2.817060
177.2469,2.865505
177.1596,2.892311
177.0934,2.909339
177.0429,2.912202
177.0151,2.911960
177.0129,2.926702
176.9866,2.911669
176.9821,2.924732
176.9747,2.921196
176.9658,2.917563
176.9565,2.911281
176.9565,2.911281
176.9561,2.913881
176.9203,2.905078
176.8559,2.887060
176.7086,2.841781
176.7066,2.854349
176.6892,2.854338
176.6808,2.842847
176.6723,2.846735
176.6710,2.854326
176.6649,2.856273
176.6622,2.850573
176.6514,2.854314
176.6514,2.854314
176.6068,2.880581
176.5960,2.956238
176.5924,2.930822
176.5893,2.905517
176.5801,2.981505
176.5248,3.006364
176.4251,3.021681
176.4100,3.030556
176.4100,3.030556
176.4069,3.021670
176.3872,3.021657
176.3667,3.021644
176.3659,3.025817
176.3262,3.018095
176.2571,2.998171
176.2567,3.000771
176.2567,3.000771
176.2397,2.993112
176.2247,3.001121
176.2208,2.987956
176.2012,2.982750
176.1913,3.001372
176.1738,2.982733
176.1650,2.988514
176.1571,3.001575
176.1571,3.001575
176.1547,2.994198
176.1436,2.999833
176.1260,3.026151
176.0711,3.063064
175.9974,3.098014
175.9249,3.105878
175.9095,3.116703
175.9095,3.116703
175.8976,3.105861
175.8702,3.105843
175.8494,3.107997
175.8429,3.105826
175.7893,3.099291
175.7293,3.090585
175.7293,3.090585
175.7024,3.087751
175.6882,3.090928
175.6844,3.087515
175.6649,3.087229
175.6463,3.091174
175.6446,3.086847
175.6030,3.091371
175.6030,3.091371
175.4998,3.120127
175.4996,3.121363
175.4994,3.122502
175.4992,3.123594
175.4391,3.148412
175.3489,3.175498
175.3214,3.173971
175.3055,3.188264
175.3055,3.188264
175.2941,3.173954
175.2661,3.173936
175.2576,3.177438
175.2365,3.173917
175.1918,3.170020
175.1532,3.164763
175.1260,3.164745
175.0980,3.164727
175.0685,3.164708
175.0273,3.168366
175.0273,3.168366
174.9750,3.187587
174.9532,3.188038
174.9527,3.191714
174.9521,3.195341
174.9515,3.198872
174.9042,3.218738
174.8617,3.233053
174.8453,3.251896
174.8416,3.252913
174.8372,3.253833
174.8313,3.254704
174.2959,3.277763
174.2957,3.278999
174.2955,3.280138
174.2954,3.281230
174.2319,3.322578
174.2239,3.324459
174.2145,3.326243
174.2043,3.327978
174.2026,3.338812
174.2022,3.341195
174.2018,3.343579
174.2015,3.345962
174.0597,3.374692
173.9785,3.379551
173.9082,3.381961
173.8216,3.379955
173.8082,3.380588
173.7947,3.381174
173.7943,3.383621
173.7943,3.383621
173.7813,3.381662
173.7698,3.391406
173.7452,3.399192
173.7207,3.406977
173.7207,3.406977
173.6946,3.403276
173.6770,3.403265
173.6578,3.403252
173.6389,3.404973
173.6380,3.403239
173.5777,3.404428
173.4846,3.404873
173.4846,3.404873
173.4292,3.414091
173.3297,3.417405
173.1944,3.414652
173.1866,3.415513
173.1804,3.419193
173.1804,3.419193
173.1774,3.416374
173.1675,3.417235
173.1532,3.423445
173.1252,3.427600
173.0957,3.431706
173.0957,3.431706
173.0925,3.430557
173.0885,3.429310
173.0831,3.428014
173.0831,3.428014
173.0128,3.426138
172.9666,3.425434
172.9050,3.425297
172.9050,3.425297
172.8599,3.428622
172.8094,3.434882
172.7100,3.449439
172.7100,3.449439
172.6973,3.445747
172.6709,3.445730
172.6437,3.445712
172.6189,3.448866
172.6150,3.445693
172.5651,3.449280
172.5024,3.451036
172.5024,3.451036
172.5021,3.452922
172.5018,3.454712
172.5015,3.456453
172.4758,3.452969
172.4554,3.451214
172.4335,3.449410
172.4109,3.447509
172.4109,3.447509
172.3877,3.449010
172.3645,3.450512
172.3413,3.452014
172.3413,3.452014
172.2100,3.452858
172.1203,3.454693
172.0685,3.457901
172.0422,3.457883
172.0152,3.457865
171.9871,3.456113
171.9871,3.456113
171.9868,3.457847
171.9617,3.450181
171.9356,3.444152
171.9081,3.438075
171.9081,3.438075
171.8782,3.441739
171.8550,3.437815
171.8423,3.441490
171.8065,3.441194
171.8004,3.437506
171.7707,3.440800
171.7452,3.437100
171.7452,3.437100
171.7153,3.434198
171.6841,3.431200
171.6521,3.428153
171.6521,3.428153
171.5631,3.428021
171.4800,3.427171
171.3961,3.423431
171.3704,3.421464
171.3068,3.424720
171.2588,3.425820
171.2202,3.428731
171.2012,3.429874
171.1903,3.429867
171.1781,3.428703
171.1656,3.425878
171.1656,3.425878
171.0744,3.408697
170.9832,3.391517
170.8922,3.374336
170.8911,3.381703
170.8669,3.370852
170.8650,3.382922
170.8567,3.373871
170.8466,3.376842
170.8382,3.384044
170.8365,3.379717
170.8365,3.379717
170.8099,3.385116
170.7809,3.379182
170.7238,3.378549
170.6661,3.377868
170.6661,3.377868
170.6487,3.380016
170.6476,3.394108
170.6318,3.391714
170.6300,3.382114
170.6152,3.389319
170.6105,3.384115
170.6105,3.384115
170.5972,3.386923
170.5368,3.383704
170.4854,3.381719
170.4125,3.376830
170.4125,3.376830
170.4121,3.379431
170.3951,3.379419
170.3767,3.379407
170.3701,3.377067
170.3576,3.379394
170.3283,3.378892
170.2512,3.383872
170.2512,3.383872
170.2219,3.386670
170.1706,3.386635
170.1186,3.386600
170.0653,3.386564
170.0303,3.381002
169.8136,3.373511
169.8026,3.371866
169.7412,3.371600
169.6785,3.371284
169.6151,3.370872
169.5394,3.367136
169.5394,3.367136
169.5302,3.365115
169.5209,3.362998
169.5117,3.360833
169.5117,3.360833
169.4958,3.360822
169.4791,3.360811
169.4610,3.360798
169.4610,3.360798
169.4254,3.350862
169.3376,3.337471
169.2281,3.328351
169.2281,3.328351
169.1947,3.319066
169.1288,3.315441
169.1254,3.317445
169.0777,3.318705
169.0293,3.319916
168.9796,3.321029
168.9796,3.321029
168.9765,3.319879
168.9727,3.318633
168.9676,3.317337
168.9553,3.314728
168.9553,3.314728
168.9431,3.311461
168.9301,3.308146
168.9158,3.304733
168.9147,3.311883
168.9076,3.311011
168.8991,3.310139
168.8909,3.302765
168.8907,3.304057
168.8905,3.305301
168.8903,3.306449
168.8903,3.306449
168.8899,3.309266
168.7949,3.306752
168.7859,3.310061
168.7199,3.309791
168.6981,3.306958
168.6539,3.309472
168.6008,3.307116
168.6008,3.307116
168.5880,3.309058
168.3198,3.296031
168.0845,3.284222
168.0720,3.283988
168.0596,3.283707
168.0472,3.283329
167.9732,3.280517
167.9327,3.276965
167.9039,3.276078
167.8737,3.275191
167.8428,3.274302
167.7507,3.266003
167.7507,3.266003
167.7256,3.267936
167.6791,3.267029
167.6326,3.266074
167.5862,3.265022
167.4693,3.258656
167.4322,3.257763
167.3944,3.256870
167.3851,3.254410
167.3552,3.255976
167.0609,3.240383
167.0486,3.240150
167.0363,3.239868
167.0334,3.238093
167.0240,3.239491
166.8589,3.231356
166.8466,3.231123
166.8335,3.230841
166.8191,3.230462
166.6868,3.220166
166.3366,3.203744
166.3258,3.207576
166.2256,3.203604
166.1255,3.199633
166.0255,3.195661
165.9743,3.191940
165.9743,3.191940
165.9227,3.191037
165.8894,3.189496
165.8562,3.187956
165.8230,3.186415
165.8002,3.181599
165.7237,3.180060
165.6957,3.179173
165.6662,3.178285
165.6362,3.177397
165.5502,3.173033
165.3995,3.160108
165.3995,3.160108
165.3751,3.161824
165.3629,3.161591
165.3501,3.161309
165.3359,3.160929
165.2252,3.154565
165.2042,3.153676
165.1832,3.152738
165.1623,3.151703
165.1262,3.145979
165.0999,3.145374
165.0849,3.144272
165.0692,3.143121
165.0522,3.141872
164.9011,3.123264
164.6585,3.101932
164.6585,3.101932
164.5958,3.091766
164.4964,3.078058
164.3877,3.070314
164.3877,3.070314
164.3406,3.065729
164.3286,3.065496
164.3159,3.065214
164.3020,3.064834
164.1512,3.046691
164.0958,3.047565
164.0839,3.047332
164.0712,3.047050
164.0573,3.046670
163.9988,3.040127
163.9751,3.038376
163.9508,3.036624
163.9252,3.034872
163.8753,3.031152
163.8636,3.030276
163.8518,3.029401
163.8401,3.028526
163.7787,3.021980
163.7631,3.021102
163.7500,3.017745
163.7463,3.020222
163.7287,3.019343
163.4367,2.992908
163.4367,2.992908
163.4129,2.994841
163.4011,2.994607
163.3893,2.994326
163.3776,2.993948
163.3587,2.989199
163.2932,2.985651
163.2697,2.984767
163.2543,2.982629
163.2455,2.983883
163.2200,2.982997
163.1946,2.974744
163.1946,2.974744
163.1708,2.976677
163.1473,2.975784
163.1427,2.973028
163.1232,2.974844
163.0993,2.970789
163.0977,2.973806
163.0753,2.965771
163.0753,2.965771
163.0513,2.969437
163.0431,2.964881
163.0242,2.967900
163.0110,2.963990
162.9959,2.966363
162.9788,2.963099
162.9788,2.963099
162.9703,2.960926
162.9668,2.964824
162.9618,2.958753
162.9533,2.956580
162.9533,2.956580
162.9293,2.960246
162.9181,2.955462
162.8973,2.958705
162.8823,2.954296
162.8652,2.957165
162.8453,2.953033
162.8453,2.953033
162.8332,2.955624
162.8104,2.951056
162.8018,2.950183
162.7931,2.949310
162.7844,2.948437
162.7121,2.942099
162.6802,2.940558
162.6482,2.939018
162.6391,2.933654
162.6163,2.937477
162.5935,2.932910
162.5382,2.931504
162.4822,2.930002
162.4249,2.928450
162.3758,2.925597
162.3188,2.921545
161.9523,2.915252
##END=
