##TITLE=Pyrrole
##JCAMP-DX=4.24
##DATA TYPE=UV/VIS SPECTRUM
##ORIGIN=INSTITUTE OF ENERGY PROBLEMS OF CHEMICAL PHYSICS, RAS
##OWNER=INEP CP RAS, NIST OSRD
Collection (C) 2007 copyright by the U.S. Secretary of Commerce
on behalf of the United States of America. All rights reserved.
##CAS REGISTRY NO=109-97-7
##MOLFORM=C4H5N
##MP=-23.4
##BP=129.7
##SOURCE REFERENCE=RAS UV No. 17
##$NIST SQUIB=1963SAN/CHA1106
##$NIST SOURCE=TSGMTE
##SPECTROMETER/DATA SYSTEM=Beckman DU
##XUNITS=Wavelength (nm)
##YUNITS=Logarithm epsilon
##XFACTOR=1.000000
##YFACTOR=1.000000
##FIRSTX=260.7177
##LASTX=320.7946
##FIRSTY=2.97899
##MAXX=320.795
##MINX=260.718
##MAXY=3.04989
##MINY=2.97899
##NPOINTS=134
##$REF AUTHOR=Sannigrahi, A.B.; Chandra, A.K.
##$REF JOURNAL=J. Phys. Chem.
##$REF VOLUME=67
##$REF PAGE=1106
##$REF DATE=1963
##XYPOINTS=(XY..XY)
260.7177,2.978986
261.2865,2.979418
261.8612,2.979800
262.0645,2.980880
262.7441,2.982020
263.4239,2.983105
264.1036,2.984163
264.3073,2.985118
264.4107,2.985139
264.5170,2.985160
264.6290,2.985183
264.8455,2.986139
265.4865,2.987257
266.1276,2.988322
266.7688,2.989359
267.1909,2.990459
267.4745,2.990515
267.7610,2.990571
268.0532,2.990629
268.2568,2.991570
268.5840,2.992463
268.8532,2.993667
269.1118,2.994542
269.5342,2.995518
270.7295,2.998706
271.5605,3.000878
272.1337,3.002300
272.5558,3.003233
272.9334,3.003931
273.3733,3.004645
273.5769,3.005557
274.0756,3.006849
274.5744,3.008137
275.0731,3.009421
275.2893,3.010433
275.6085,3.011430
275.9279,3.012377
276.2473,3.013298
276.4509,3.014192
277.1116,3.015683
277.8275,3.018183
278.5473,3.021004
279.2197,3.023476
279.4230,3.024453
279.6016,3.025080
279.7802,3.025660
279.9590,3.026217
280.5975,3.028095
281.0577,3.029315
281.5178,3.030531
281.9780,3.031744
282.1941,3.032705
282.6606,3.033709
283.0830,3.035110
283.5746,3.036315
283.7782,3.037163
284.5485,3.039447
284.9364,3.040403
285.2741,3.040857
285.4906,3.041698
286.1317,3.043679
286.7232,3.045386
287.2961,3.046835
287.8815,3.048043
288.5105,3.049025
289.2141,3.049796
289.7546,3.049889
290.9485,3.049200
291.6013,3.048571
292.2727,3.047461
292.4412,3.047094
292.5060,3.047106
292.5737,3.047117
292.6471,3.047130
292.8682,3.046375
293.4377,3.045684
294.0086,3.045076
294.5809,3.044545
295.1547,3.044086
295.7299,3.043692
296.3065,3.043358
296.8846,3.043077
297.4641,3.042843
298.0450,3.042650
298.6273,3.042492
299.2110,3.042362
299.7961,3.042255
300.3826,3.042165
300.9705,3.042084
301.5598,3.042007
301.5598,3.042007
301.8582,3.040420
302.3050,3.038842
302.8667,3.037295
303.5102,3.035798
304.2021,3.034374
304.9092,3.033043
305.5982,3.031827
306.2358,3.030746
306.7887,3.029824
307.2237,3.029080
307.3925,3.028594
307.6375,3.028639
307.8854,3.028683
308.1390,3.028729
308.3601,3.027942
309.0175,3.027566
309.6462,3.027025
310.2520,3.026327
310.8407,3.025478
311.4180,3.024482
311.9896,3.023347
312.5613,3.022078
313.1389,3.020680
313.7280,3.019160
314.3345,3.017523
314.9641,3.015774
315.6225,3.013920
315.7910,3.013524
315.8592,3.013536
315.9330,3.013550
316.0098,3.013564
316.2180,3.012747
316.9691,3.011719
317.4114,3.010559
317.7325,3.009805
317.8366,3.009393
317.9401,3.009412
318.0464,3.009432
318.1584,3.009453
318.4825,3.008650
319.2483,3.007788
320.0200,3.006877
320.7946,3.005940
##END=
