##TITLE=Dihydropyran
##JCAMP-DX=4.24
##DATA TYPE=UV/VIS SPECTRUM
##ORIGIN=INSTITUTE OF ENERGY PROBLEMS OF CHEMICAL PHYSICS, RAS
##OWNER=INEP CP RAS, NIST OSRD
Collection (C) 2007 copyright by the U.S. Secretary of Commerce
on behalf of the United States of America. All rights reserved.
##CAS REGISTRY NO=110-87-2
##MOLFORM=C5H8O
##BP=86
##SOURCE REFERENCE=RAS UV No. 4876
##$NIST SQUIB=1952EGL/JON2873-2882
##$NIST SOURCE=TSGMTE
##SPECTROMETER/DATA SYSTEM=n.i.g.
##XUNITS=Wavelength (nm)
##YUNITS=Logarithm epsilon
##XFACTOR=1.000000
##YFACTOR=1.000000
##FIRSTX=206.3738
##LASTX=223.6809
##FIRSTY=3.6425
##MAXX=223.681
##MINX=206.374
##MAXY=3.6425
##MINY=2.922
##NPOINTS=122
##$REF AUTHOR=Eglinton, G.; Jones, E.R.H.; Whiting, M.C.
##$REF TITLE=Researches on acetylenic compounds. Part XXXVIII. A new method for the introduction of the acetylenic linkage
##$REF JOURNAL=J. Chem. Soc.
##$REF PAGE=2873-2882
##$REF DATE=1952
##XYPOINTS=(XY..XY)
206.3738,3.642501
206.5115,3.639702
206.6290,3.637318
206.7365,3.635170
206.8441,3.633071
206.9618,3.630834
207.0997,3.628266
207.2679,3.625168
207.4766,3.621335
207.7357,3.616552
208.0554,3.610590
208.0554,3.610590
208.1981,3.607509
208.3408,3.604404
208.4834,3.601274
208.6260,3.598118
208.7686,3.594937
208.9112,3.591730
209.0537,3.588496
209.1963,3.585235
209.3388,3.581947
209.4812,3.578632
209.6237,3.575288
209.7661,3.571916
209.9086,3.568515
210.0510,3.565085
210.1933,3.561625
210.3357,3.558135
210.4781,3.554614
210.6204,3.551062
210.7627,3.547479
210.9050,3.543863
211.0473,3.540215
211.1895,3.536533
211.3317,3.532818
211.4740,3.529069
211.6162,3.525285
211.7584,3.521465
211.9005,3.517609
212.0427,3.513717
212.1849,3.509788
212.3270,3.505820
212.4691,3.501814
212.6112,3.497769
212.7533,3.493684
212.8954,3.489558
213.0374,3.485391
213.1795,3.481181
213.3215,3.476929
213.4636,3.472632
213.6056,3.468291
213.7476,3.463905
213.8896,3.459472
214.0316,3.454992
214.1736,3.450463
214.3155,3.445885
214.4575,3.441257
214.5994,3.436578
214.7414,3.431846
214.8833,3.427061
215.0252,3.422221
215.1672,3.417326
215.3091,3.412373
215.4510,3.407362
215.5929,3.402291
215.7348,3.397159
215.8766,3.391965
216.0185,3.386707
216.1604,3.381384
216.3023,3.375994
216.4441,3.370535
216.5860,3.365006
216.7278,3.359405
216.8697,3.353730
217.0115,3.347979
217.1534,3.342151
217.2952,3.336243
217.4371,3.330253
217.5789,3.324179
217.7207,3.318019
217.8626,3.311770
218.0044,3.305429
218.1462,3.298995
218.2881,3.292463
218.4299,3.285832
218.5718,3.279099
218.7136,3.272260
218.8554,3.265312
218.9973,3.258251
219.1391,3.251074
219.2809,3.243778
219.4228,3.236357
219.5646,3.228808
219.7065,3.221127
219.8483,3.213309
219.9902,3.205348
220.1321,3.197240
220.2739,3.188980
220.4158,3.180561
220.5577,3.171977
220.6996,3.163222
220.8414,3.154289
220.9833,3.145171
221.1252,3.135860
221.2671,3.126347
221.4091,3.116623
221.5510,3.106680
221.6929,3.096507
221.8348,3.086093
221.9768,3.075427
222.1187,3.064496
222.2607,3.053287
222.4027,3.041785
222.5447,3.029975
222.6867,3.017839
222.8287,3.005360
222.9707,2.992517
223.1127,2.979287
223.2547,2.965649
223.3968,2.951574
223.5388,2.937035
223.6809,2.922000
##END=
