##TITLE=Cyclohexane
##JCAMP-DX=4.24
##DATA TYPE=UV/VIS SPECTRUM
##ORIGIN=INSTITUTE OF ENERGY PROBLEMS OF CHEMICAL PHYSICS, RAS
##OWNER=INEP CP RAS, NIST OSRD
Collection (C) 2007 copyright by the U.S. Secretary of Commerce
on behalf of the United States of America. All rights reserved.
##CAS REGISTRY NO=110-82-7
##MOLFORM=C6H12
##MP=6.6
##BP=80.7
##SOURCE REFERENCE=RAS UV No. 193
##$NIST SQUIB=1951PIC/MUN4862-4865
##$NIST SOURCE=TSGMTE
##SPECTROMETER/DATA SYSTEM=Hilger prism spectrograph
##XUNITS=Wavelength (nm)
##YUNITS=Logarithm epsilon
##XFACTOR=1.000000
##YFACTOR=1.000000
##FIRSTX=176.2289
##LASTX=154.0667
##FIRSTY=1.50594
##MAXX=176.229
##MINX=154.067
##MAXY=3.68051
##MINY=1.50594
##NPOINTS=178
##$REF AUTHOR=Pickett, L.W.; Muntz, M.; McPherson, E.M.
##$REF TITLE=Vacuum ultraviolet absorption spectra of cyclic compounds. I. Cyclohexane, cyclohexene, cyclopentane, Cyclopentene and benzene
##$REF JOURNAL=J. Am. Chem. Soc.
##$REF VOLUME=73
##$REF PAGE=4862-4865
##$REF DATE=1951
##XYPOINTS=(XY..XY)
176.2289,1.505938
176.0848,1.533097
175.9379,1.560446
175.7897,1.587889
175.7897,1.587889
175.6217,1.643897
175.4759,1.694995
175.3538,1.734969
175.2570,1.757602
175.2570,1.757602
175.1884,1.761019
175.1197,1.764532
175.0512,1.768235
175.0512,1.768235
174.9840,1.793162
174.9140,1.818087
174.8425,1.843011
174.8425,1.843011
174.7792,1.844708
174.7129,1.846500
174.6452,1.848482
174.6452,1.848482
174.4949,1.867535
174.3767,1.884983
174.1892,1.915780
174.1892,1.915780
173.8846,1.915728
173.6969,1.916613
173.4647,1.919190
173.4647,1.919190
173.2498,1.935777
173.0679,1.952289
172.7635,1.982881
172.7635,1.982881
172.5381,2.027953
172.3118,2.073119
172.0832,2.118476
172.0832,2.118476
171.9196,2.172740
171.8384,2.203715
171.7699,2.237951
171.7699,2.237951
171.7353,2.237928
171.7045,2.280958
171.6977,2.237903
171.6873,2.266437
171.6716,2.252109
171.6588,2.237877
171.6588,2.237877
171.4955,2.237770
171.4235,2.239460
171.3516,2.241246
171.2796,2.243224
171.2796,2.243224
171.1693,2.272122
171.0562,2.301210
170.9417,2.330392
170.9417,2.330392
170.8891,2.333817
170.8351,2.337337
170.7782,2.341046
170.7782,2.341046
170.5908,2.341368
170.4037,2.341785
170.2170,2.342394
170.2170,2.342394
170.1332,2.363049
170.0753,2.383436
169.9934,2.421026
169.9934,2.421026
169.8228,2.463215
169.6506,2.505443
169.4776,2.547751
169.3043,2.590180
169.3043,2.590180
169.2597,2.591442
169.2150,2.592703
169.1704,2.593964
169.1704,2.593964
169.1613,2.610444
169.1509,2.627116
169.1376,2.643880
169.0948,2.590038
169.0338,2.575056
168.9743,2.560267
168.9176,2.545576
168.9176,2.545576
168.8800,2.544259
168.8439,2.542943
168.8106,2.541628
168.7030,2.543277
168.6629,2.545530
168.6200,2.547972
168.5757,2.550509
168.5757,2.550509
168.4338,2.608259
168.3480,2.637442
168.2447,2.663075
168.2447,2.663075
168.0664,2.661948
167.8762,2.659951
167.6447,2.658787
167.6447,2.658787
167.6130,2.660503
167.5800,2.662314
167.5442,2.664314
167.5442,2.664314
167.3329,2.705571
167.1215,2.746947
166.9095,2.788404
166.6963,2.829900
166.6963,2.829900
166.5620,2.864262
166.4280,2.898720
166.2941,2.933370
166.2941,2.933370
166.2631,2.933795
166.2308,2.934314
166.1958,2.935023
166.1958,2.935023
166.1949,2.941049
166.1941,2.947076
166.1932,2.953102
166.1411,2.931541
166.0743,2.927746
166.0076,2.924144
165.9409,2.920637
165.8920,2.920603
165.8124,2.920945
165.7393,2.923683
165.6102,2.931166
165.6102,2.931166
165.3283,2.965582
165.0475,3.000019
164.7675,3.034498
164.4885,3.069038
164.2105,3.103661
164.2105,3.103661
163.8732,3.139008
163.5357,3.174475
163.1984,3.210023
162.8620,3.245610
162.8620,3.245610
162.4097,3.279557
162.0750,3.304584
161.7961,3.325060
161.5124,3.345352
161.1642,3.369828
160.6927,3.402857
160.6927,3.402857
160.3411,3.425106
159.9910,3.447546
159.6424,3.470082
159.6424,3.470082
158.7179,3.518183
158.2354,3.543048
158.0285,3.552628
157.9366,3.554870
157.9366,3.554870
157.6735,3.566209
157.5426,3.572581
157.4315,3.579445
157.4315,3.579445
157.1654,3.587432
156.8977,3.595513
156.6298,3.603784
156.6298,3.603784
156.0777,3.627214
155.7913,3.638801
155.6618,3.645633
155.6618,3.645633
155.4645,3.650195
155.2546,3.655798
154.9269,3.661401
154.9269,3.661401
154.7772,3.666892
154.5538,3.671845
154.0667,3.680505
##END=
