##TITLE=Pyridine
##JCAMP-DX=4.24
##DATA TYPE=UV/VIS SPECTRUM
##ORIGIN=INSTITUTE OF ENERGY PROBLEMS OF CHEMICAL PHYSICS, RAS
##OWNER=INEP CP RAS, NIST OSRD
Collection (C) 2007 copyright by the U.S. Secretary of Commerce
on behalf of the United States of America. All rights reserved.
##CAS REGISTRY NO=110-86-1
##MOLFORM=C5H5N
##MP=-41.6
##BP=115.2
##SOURCE REFERENCE=RAS UV No. 1112
##$NIST SQUIB=1957ZAN/SCH2253
##$NIST SOURCE=TSGMTE
##SPECTROMETER/DATA SYSTEM=Zeiss PMQII
##XUNITS=Wavelength (nm)
##YUNITS=Logarithm epsilon
##XFACTOR=1.000000
##YFACTOR=1.000000
##FIRSTX=390.3938
##LASTX=202.3166
##FIRSTY=2.88018
##MAXX=390.394
##MINX=202.317
##MAXY=5.29113
##MINY=2.69476
##NPOINTS=382
##$REF AUTHOR=Zanker, V.; Schmid, W.
##$REF JOURNAL=Chem. Ber.
##$REF VOLUME=90
##$REF PAGE=2253
##$REF DATE=1957
##XYPOINTS=(XY..XY)
390.3938,2.880178
390.2997,2.929660
390.2030,2.973276
390.1030,3.012073
389.9986,3.047097
389.8889,3.079395
389.7731,3.110015
389.6501,3.140002
389.5191,3.170404
389.3793,3.202267
389.2296,3.236637
389.0691,3.274563
388.8972,3.317090
388.7126,3.365266
388.5148,3.420136
388.3026,3.482748
388.3026,3.482748
387.7670,3.505692
387.3267,3.516298
386.6051,3.523657
386.6051,3.523657
386.0303,3.522383
385.4569,3.520927
384.8850,3.519379
384.8850,3.519379
384.1379,3.482936
382.9407,3.460890
378.9728,3.447919
378.9728,3.447919
376.8848,3.397327
375.7504,3.341393
374.9105,3.284594
374.9105,3.284594
374.3707,3.284675
373.8226,3.284756
373.2562,3.284841
373.2562,3.284841
372.3290,3.336149
371.4622,3.386331
370.8958,3.436391
370.8676,3.487332
370.8676,3.487332
370.4841,3.505187
369.9229,3.547326
369.2121,3.604869
368.3799,3.668939
367.4541,3.730657
367.4541,3.730657
367.0725,3.734399
366.6916,3.738049
366.3111,3.741516
366.3111,3.741516
365.7964,3.741064
365.2829,3.740429
364.7707,3.739703
364.7707,3.739703
362.9363,3.706365
360.7715,3.686047
356.8937,3.680985
356.8937,3.680985
356.3269,3.699262
355.9929,3.726903
355.6045,3.787604
355.6045,3.787604
355.1370,3.831822
354.6443,3.910008
354.1792,3.954227
354.1792,3.954227
353.8706,4.014078
353.5616,4.050922
353.3579,4.092404
353.3579,4.092404
352.8835,4.094827
352.4101,4.097067
352.4004,4.141454
352.3804,4.128722
352.3604,4.115989
352.3405,4.103257
351.9378,4.099216
351.9378,4.099216
350.8692,4.063698
350.3999,4.023860
350.2633,3.981213
350.1967,3.937267
349.9387,3.893534
349.2298,3.851524
347.8170,3.812747
347.8170,3.812747
346.2832,3.811948
345.1390,3.814004
343.6665,3.821689
343.6665,3.821689
343.4272,3.820484
343.1714,3.819190
342.9073,3.817715
342.9073,3.817715
342.6297,3.781536
342.1826,3.743012
340.9881,3.707544
340.9881,3.707544
340.4220,3.708453
339.8412,3.709273
339.2539,3.709912
339.2539,3.709912
338.7907,3.724466
338.2059,3.766432
337.0032,3.871780
337.0032,3.871780
336.4577,3.871348
335.9056,3.870735
335.3393,3.870034
335.3393,3.870034
334.7582,3.823764
334.0559,3.776412
333.3696,3.728625
332.8342,3.681046
332.5832,3.634321
332.5832,3.634321
332.3360,3.634368
332.0891,3.634414
331.8426,3.634461
331.8426,3.634461
331.6524,3.624105
331.4621,3.613566
331.2718,3.602935
331.2718,3.602935
330.8505,3.602194
330.4302,3.601453
330.0109,3.600711
330.0109,3.600711
329.6610,3.606530
329.2963,3.612352
328.9248,3.618175
328.9248,3.618175
328.5097,3.617723
328.0955,3.617088
327.6822,3.616362
327.6822,3.616362
326.3627,3.520812
325.5521,3.468417
325.0785,3.442686
324.7747,3.427128
324.7747,3.427128
323.1644,3.434493
322.3379,3.449191
321.5637,3.472551
321.5637,3.472551
321.1018,3.472644
320.6412,3.472738
320.1820,3.472831
320.1820,3.472831
319.4453,3.425894
318.6964,3.378920
317.8811,3.331882
316.9465,3.284751
315.8412,3.237499
315.8412,3.237499
314.6028,3.212288
313.3740,3.187076
312.1548,3.161865
312.1548,3.161865
311.3896,3.125283
310.7972,3.086746
309.8709,3.013226
309.8709,3.013226
308.6164,3.012967
307.3651,3.012528
307.3507,3.018298
307.1608,3.018340
306.9577,3.018385
306.7482,3.018431
306.1104,3.012000
306.1104,3.012000
305.0155,2.965978
303.9278,2.925013
302.6925,2.887620
301.1600,2.852319
299.1884,2.817624
296.6466,2.782056
296.6466,2.782056
295.8946,2.761694
295.1465,2.741331
294.4021,2.720968
294.4021,2.720968
293.0764,2.720041
291.7565,2.719025
290.4363,2.717829
290.4363,2.717829
290.0520,2.710925
289.6686,2.703929
289.2861,2.696751
289.0168,2.694764
288.4574,2.694905
287.9002,2.695045
287.3451,2.695185
287.3451,2.695185
286.9587,2.704610
286.5672,2.713855
286.1652,2.723011
286.1652,2.723011
285.9491,2.723872
285.7216,2.724646
285.4886,2.725238
285.4886,2.725238
284.0274,2.766329
282.2699,2.797209
280.2228,2.820796
277.8949,2.840009
275.2966,2.857770
275.2966,2.857770
273.6839,2.888470
272.1050,2.920889
270.5739,2.954667
269.1042,2.989442
267.7089,3.024856
266.4006,3.060547
266.3583,3.049711
266.3560,3.047125
266.3535,3.044356
266.3509,3.041496
265.1913,3.096154
264.0928,3.131318
263.1677,3.140223
262.9333,3.173769
262.6580,3.199203
262.1069,3.238323
262.1069,3.238323
261.4417,3.249512
261.2505,3.273338
261.1506,3.296132
261.1506,3.296132
260.5244,3.332779
260.5219,3.374126
260.4706,3.415411
259.7019,3.451873
259.7019,3.451873
259.1542,3.530131
258.8225,3.574270
258.6196,3.618186
258.6196,3.618186
258.3686,3.648165
258.0252,3.709988
257.6827,3.771811
257.4336,3.801790
257.4336,3.801790
257.1505,3.899680
256.8877,3.990123
256.6444,4.073456
256.4197,4.150015
256.2128,4.220138
256.0228,4.284161
255.8489,4.342422
255.6903,4.395256
255.5463,4.443003
255.4160,4.485998
255.2986,4.524578
255.1934,4.559081
255.0997,4.589843
255.0165,4.617201
254.9433,4.641493
254.8792,4.663054
254.8234,4.682223
254.7753,4.699336
254.7342,4.714731
254.6991,4.728743
254.6695,4.741711
254.6445,4.753971
254.6234,4.765859
254.6056,4.777714
254.5902,4.789871
254.5765,4.802669
254.5765,4.802669
254.3368,4.846888
254.0840,4.925074
253.8452,4.969293
253.8452,4.969293
253.6423,5.058576
253.4904,5.123999
253.3734,5.171148
253.2753,5.205615
253.1801,5.232987
253.0719,5.258855
252.9349,5.288806
252.9349,5.288806
252.6641,5.289701
252.3847,5.290508
252.1012,5.291134
252.1012,5.291134
251.8218,5.250058
251.5594,5.208726
251.2959,5.167193
251.0136,5.125516
250.6945,5.083751
250.3212,5.041953
249.8764,5.000180
249.8764,5.000180
249.2107,5.000981
248.6247,5.003857
248.0234,5.011486
248.0234,5.011486
247.8253,5.010306
247.6231,5.009036
247.4124,5.007586
247.4124,5.007586
246.2572,4.887927
245.7818,4.843356
245.5716,4.835669
245.5716,4.835669
244.9340,4.860434
244.5756,4.885285
244.1484,4.929835
244.0831,4.919982
244.0136,4.910040
243.9355,4.899918
243.9355,4.899918
243.7234,4.895885
243.5186,4.854956
243.2913,4.813475
243.0422,4.771585
242.7724,4.729429
242.4827,4.687152
242.1740,4.644895
241.8473,4.602804
241.8473,4.602804
241.3106,4.579472
240.7975,4.562614
239.8714,4.537782
239.8714,4.537782
239.3403,4.496070
238.8034,4.454362
238.2649,4.412654
238.2649,4.412654
237.4628,4.387692
236.5170,4.359955
235.6053,4.330656
235.6053,4.330656
235.5334,4.284087
235.2166,4.239323
234.6958,4.195732
234.0128,4.152683
233.2091,4.109545
232.3255,4.065687
232.3255,4.065687
231.2333,4.028230
230.1190,3.987512
228.9280,3.947282
227.6082,3.911290
226.1101,3.883284
226.1101,3.883284
225.6042,3.883491
225.0970,3.883700
224.5849,3.883912
224.5849,3.883912
223.3142,3.919057
222.0997,3.954003
220.9418,3.991851
220.9418,3.991851
220.7866,3.993972
220.6282,3.996094
220.4631,3.998219
220.4631,3.998219
220.0905,4.019119
219.2920,4.040843
218.5748,4.058609
218.5748,4.058609
218.0917,4.059383
217.6262,4.063529
216.7823,4.074600
216.7823,4.074600
214.8758,4.077615
212.9473,4.079926
211.0115,4.081344
211.0115,4.081344
209.4601,4.065050
207.9103,4.038359
206.9189,3.998259
206.9189,3.998259
206.0615,3.978809
205.1076,3.948101
204.1234,3.910542
203.1726,3.870541
202.3166,3.832504
##END=
