##TITLE=Cyclohexene
##JCAMP-DX=4.24
##DATA TYPE=UV/VIS SPECTRUM
##ORIGIN=INSTITUTE OF ENERGY PROBLEMS OF CHEMICAL PHYSICS, RAS
##OWNER=INEP CP RAS, NIST OSRD
Collection (C) 2007 copyright by the U.S. Secretary of Commerce
on behalf of the United States of America. All rights reserved.
##CAS REGISTRY NO=110-83-8
##MOLFORM=C6H10
##MP=-103.5
##BP=82.9
##SOURCE REFERENCE=RAS UV No. 190
##$NIST SQUIB=1951PIC/MUN4862-4865
##$NIST SOURCE=TSGMTE
##SPECTROMETER/DATA SYSTEM=Hilger spectrograph
##XUNITS=Wavelength (nm)
##YUNITS=Logarithm epsilon
##XFACTOR=1.000000
##YFACTOR=1.000000
##FIRSTX=214.4162
##LASTX=154.6805
##FIRSTY=1.55572
##MAXX=214.416
##MINX=154.68
##MAXY=3.92523
##MINY=1.55572
##NPOINTS=416
##$REF AUTHOR=Pickett, L.W.; Muntz, M.; McPherson, E.M.
##$REF TITLE=Vacuum ultraviolet absorption spectra of cyclic compounds. I. Cyclohexane, cyclohexene, cyclopentane, Cyclopentene and benzene
##$REF JOURNAL=J. Am. Chem. Soc.
##$REF VOLUME=73
##$REF PAGE=4862-4865
##$REF DATE=1951
##XYPOINTS=(XY..XY)
214.4162,1.555722
214.3376,1.584817
214.2088,1.619811
214.2088,1.619811
214.1482,1.631189
214.0576,1.651136
213.9423,1.678282
213.8077,1.711254
213.6592,1.748682
213.5021,1.789194
213.3417,1.831420
213.1835,1.873988
213.0325,1.915528
212.8941,1.954668
212.7734,1.990036
212.6756,2.020263
212.6756,2.020263
212.4716,2.065318
212.2705,2.108693
212.0743,2.150299
211.8846,2.190049
211.7035,2.227857
211.5326,2.263635
211.3738,2.297296
211.2289,2.328753
211.0997,2.357918
210.9879,2.384705
210.9879,2.384705
210.7822,2.422512
210.5768,2.460325
210.3714,2.498154
210.1659,2.536005
209.9601,2.573886
209.7539,2.611804
209.5470,2.649768
209.5470,2.649768
209.4953,2.649762
209.4393,2.649756
209.3812,2.649749
209.3812,2.649749
209.3810,2.653193
209.3808,2.656732
209.3806,2.660461
209.3032,2.649741
209.1652,2.641220
209.0212,2.627652
208.7810,2.605123
208.7810,2.605123
208.6067,2.604374
208.4326,2.603815
208.2589,2.603351
208.2589,2.603351
208.0865,2.597492
207.8993,2.592870
207.7019,2.587008
207.6253,2.585285
207.5074,2.587002
207.3853,2.588813
207.2613,2.590814
207.2613,2.590814
207.2130,2.594792
207.1625,2.598960
207.1079,2.603223
207.1079,2.603223
207.0312,2.604928
206.9524,2.606633
206.8694,2.608338
206.8694,2.608338
206.6698,2.607331
206.4706,2.606134
206.2718,2.604842
206.2718,2.604842
206.0541,2.609293
205.8117,2.616597
205.3377,2.633015
205.3377,2.633015
204.2782,2.697959
203.7102,2.732392
203.4308,2.747817
203.2429,2.755742
203.2429,2.755742
203.1599,2.755288
203.0750,2.754739
202.9861,2.753998
202.9861,2.753998
202.7611,2.733374
202.6313,2.723139
202.4854,2.714521
202.4854,2.714521
202.2173,2.708189
202.0809,2.704063
201.9588,2.698606
201.9588,2.698606
201.6455,2.700298
201.3550,2.704374
200.8395,2.714326
200.8395,2.714326
200.6779,2.719575
200.5165,2.725015
200.3554,2.730550
200.3554,2.730550
200.0958,2.743928
199.8350,2.757496
199.5708,2.771159
199.5708,2.771159
199.1564,2.801213
198.8240,2.827943
198.2895,2.874263
198.2895,2.874263
198.0466,2.873345
197.8430,2.871669
197.6013,2.870751
197.6013,2.870751
197.4957,2.873150
197.2441,2.874008
196.6333,2.874059
196.6333,2.874059
196.2021,2.887986
195.8201,2.900395
195.4606,2.909474
195.4606,2.909474
195.2386,2.930139
195.0152,2.950995
194.7886,2.971945
194.7886,2.971945
194.6703,2.990037
194.5109,3.009075
194.2972,3.039151
194.2972,3.039151
194.2035,3.067006
194.1099,3.094955
194.0164,3.123095
194.0164,3.123095
193.9826,3.124074
193.9825,3.131660
193.9575,3.129943
193.9469,3.125244
193.9325,3.128225
193.9075,3.126508
193.9075,3.126508
193.8407,3.124786
193.7964,3.124780
193.7485,3.124774
193.6987,3.124768
193.6987,3.124768
193.6461,3.128205
193.5897,3.131736
193.5315,3.135458
193.5315,3.135458
193.4256,3.164310
193.3531,3.192405
193.2518,3.243823
193.2518,3.243823
193.1596,3.255507
193.0656,3.267381
192.9681,3.279349
192.9681,3.279349
192.8725,3.328563
192.8368,3.357218
192.8303,3.389875
192.8303,3.389875
192.7145,3.393843
192.5987,3.398002
192.4831,3.402256
192.4831,3.402256
192.2501,3.442993
192.0855,3.474408
191.9693,3.492595
191.9693,3.492595
191.8706,3.494312
191.7702,3.496123
191.6663,3.498125
191.6663,3.498125
191.6227,3.503816
191.5756,3.509698
191.5266,3.515674
191.5266,3.515674
191.3470,3.516206
191.1659,3.516928
190.9815,3.517744
190.9815,3.517744
190.7263,3.553273
190.4682,3.588802
190.2091,3.624330
190.2091,3.624330
189.9656,3.624297
189.7192,3.624264
189.4717,3.624231
189.4717,3.624231
189.2465,3.640054
189.0945,3.651316
188.9128,3.661432
188.9128,3.661432
188.8944,3.666143
188.8724,3.670853
188.8487,3.675563
188.8487,3.675563
188.3887,3.711127
188.0974,3.736525
187.7246,3.773529
187.7246,3.773529
187.5524,3.772220
187.3806,3.770911
187.2090,3.769602
187.2090,3.769602
187.0902,3.775044
187.0234,3.779256
186.9514,3.785848
186.9514,3.785848
186.7123,3.789433
186.5617,3.790745
186.3701,3.790909
186.3701,3.790909
186.3081,3.787901
186.2445,3.784893
186.1776,3.781885
186.1776,3.781885
185.9771,3.781857
185.7753,3.781829
185.5706,3.781800
185.5706,3.781800
185.4782,3.787055
185.3842,3.792501
185.2869,3.798042
185.2869,3.798042
185.0078,3.803224
184.8341,3.807754
184.6167,3.815515
184.6167,3.815515
184.4327,3.815933
184.2458,3.816446
184.0575,3.817149
184.0575,3.817149
183.8388,3.827100
183.6207,3.837241
183.4030,3.847477
183.4030,3.847477
183.1341,3.847438
182.8660,3.847400
182.5987,3.847361
182.5987,3.847361
182.4133,3.852047
182.2283,3.856734
182.0437,3.861420
182.0437,3.861420
181.9529,3.866675
181.8589,3.872121
181.7634,3.877661
181.7634,3.877661
181.5849,3.880332
181.4036,3.883194
181.2209,3.886151
181.2209,3.886151
181.0213,3.896833
180.8190,3.907515
180.6154,3.918197
180.6154,3.918197
180.5571,3.918632
180.4972,3.919163
180.4342,3.919884
180.4342,3.919884
180.2537,3.912145
180.0735,3.904405
179.8938,3.896666
179.8938,3.896666
179.7480,3.893201
179.5992,3.889640
179.4491,3.885888
179.4491,3.885888
179.2914,3.885865
179.1325,3.885841
178.9706,3.885817
178.9706,3.885817
178.8563,3.889243
178.7406,3.892764
178.6218,3.896476
178.6218,3.896476
178.5225,3.896461
178.4234,3.896446
178.3243,3.896431
178.3243,3.896431
177.9880,3.886303
177.8057,3.881721
177.6206,3.878757
177.6206,3.878757
177.4101,3.878724
177.1986,3.878692
176.9845,3.878659
176.9845,3.878659
176.3821,3.890658
175.9750,3.899545
175.6079,3.906724
175.6079,3.906724
175.4797,3.906514
175.3822,3.905166
175.2317,3.901524
175.2317,3.901524
175.1079,3.895125
174.7502,3.884405
173.8580,3.860174
173.8580,3.860174
173.5828,3.855417
173.3070,3.850660
173.0290,3.845902
173.0290,3.845902
172.7081,3.845406
172.3854,3.844814
172.0625,3.844032
172.0625,3.844032
172.0275,3.846184
171.9897,3.848432
171.9504,3.850869
171.9504,3.850869
171.7138,3.854274
171.4780,3.857774
171.2427,3.861465
171.2427,3.861465
171.1542,3.866973
171.0224,3.871617
170.7349,3.879377
170.7349,3.879377
170.6163,3.869820
170.5394,3.861031
170.4385,3.845479
170.4385,3.845479
170.3866,3.845470
170.3333,3.845462
170.2772,3.845452
170.2772,3.845452
170.1201,3.859010
170.0163,3.870101
169.8767,3.888232
169.8767,3.888232
169.5756,3.888182
169.2756,3.888131
168.9766,3.888081
168.9766,3.888081
168.9067,3.885800
168.8354,3.883328
168.7613,3.880761
168.7613,3.880761
168.6771,3.880747
168.5902,3.880732
168.5020,3.880717
168.5020,3.880717
168.4577,3.882978
168.4135,3.885431
168.3693,3.887978
168.3693,3.887978
168.3182,3.900395
168.2657,3.912812
168.2104,3.925228
168.2104,3.925228
168.1599,3.925219
168.1080,3.925210
168.0533,3.925201
168.0533,3.925201
167.8265,3.912927
167.5712,3.901791
167.3789,3.892950
167.3789,3.892950
167.2168,3.892478
167.0537,3.891911
166.8882,3.891152
166.8882,3.891152
166.7951,3.897134
166.7021,3.903117
166.6093,3.909099
166.6093,3.909099
165.9634,3.908987
165.3211,3.908874
164.6812,3.908761
164.6812,3.908761
164.6492,3.910469
164.6145,3.912177
164.5785,3.913884
164.2779,3.913830
164.1507,3.911174
163.7411,3.905229
162.7270,3.893842
162.7270,3.893842
162.3131,3.883689
162.1554,3.879106
162.1174,3.876163
162.1174,3.876163
161.9474,3.872911
161.7880,3.868041
161.5880,3.856357
161.5880,3.856357
161.5879,3.858626
161.5878,3.861086
161.5877,3.863640
161.5877,3.863640
161.2884,3.854587
160.9924,3.852819
160.6988,3.851050
160.6988,3.851050
160.5566,3.848310
160.2303,3.847249
159.4454,3.846958
159.4454,3.846958
159.2947,3.843105
159.0343,3.836851
158.4628,3.825776
158.4628,3.825776
157.9320,3.821307
157.4047,3.816859
156.8810,3.812451
156.3607,3.808106
155.8439,3.803842
155.7737,3.801686
155.6551,3.802948
155.5366,3.804210
155.4183,3.805471
155.4183,3.805471
154.6805,3.845187
##END=
