##TITLE=1-Pentanethiol
##JCAMP-DX=4.24
##DATA TYPE=UV/VIS SPECTRUM
##ORIGIN=INSTITUTE OF ENERGY PROBLEMS OF CHEMICAL PHYSICS, RAS
##OWNER=INEP CP RAS, NIST OSRD
Collection (C) 2007 copyright by the U.S. Secretary of Commerce
on behalf of the United States of America. All rights reserved.
##CAS REGISTRY NO=110-66-7
##MOLFORM=C5H12S
##MP=-75.7
##BP=126.6
##SOURCE REFERENCE=RAS UV No. 2871
##$NIST SQUIB=1954HAI/HEL270-278
##$NIST SOURCE=TSGMTE
##SPECTROMETER/DATA SYSTEM=Beckman DU
##XUNITS=Wavelength (nm)
##YUNITS=Logarithm epsilon
##XFACTOR=1.000000
##YFACTOR=1.000000
##FIRSTX=210.3185
##LASTX=276.2366
##FIRSTY=2.54341
##MAXX=276.237
##MINX=210.319
##MAXY=2.54341
##MINY=0.070592
##NPOINTS=149
##$REF AUTHOR=Haines, W.E.; Helm, R.V.; Bailey, c.W.; Ball, J.S.
##$REF TITLE=Purification and properties of ten organic sulfur compounds
##$REF JOURNAL=J. Phys. Chem.
##$REF VOLUME=58
##$REF PAGE=270-278
##$REF DATE=1954
##XYPOINTS=(XY..XY)
210.3185,2.543410
210.6923,2.512997
210.9169,2.499640
211.1846,2.491890
211.8666,2.448687
211.9854,2.448666
212.1041,2.448644
212.2228,2.448622
212.2228,2.448622
212.3748,2.438485
212.5869,2.427599
212.7379,2.414148
213.0901,2.401244
213.2334,2.376978
213.5372,2.359956
214.3950,2.343015
214.3950,2.343015
215.0654,2.306626
216.2065,2.269323
217.7068,2.247969
217.7068,2.247969
217.8908,2.237642
218.2141,2.226828
218.5781,2.213431
218.5781,2.213431
219.1034,2.212076
219.6287,2.210630
220.1539,2.209000
220.4246,2.206879
221.6799,2.210861
223.3880,2.216829
225.3392,2.222754
227.3237,2.226602
229.1317,2.226340
230.5533,2.219935
230.5533,2.219935
230.6710,2.216600
231.1051,2.212655
232.2276,2.204717
233.6312,2.191620
234.2952,2.183628
234.9667,2.175635
235.6420,2.167641
236.9588,2.147932
237.1953,2.144990
237.4318,2.142047
237.6683,2.139104
239.4059,2.108963
239.7816,2.101024
240.1648,2.093084
240.5518,2.085143
241.8646,2.052594
242.3241,2.041204
242.7910,2.029628
243.2616,2.017959
244.6573,1.979182
244.9143,1.971265
245.1788,1.963347
245.4471,1.955427
246.5720,1.918357
246.8905,1.906271
247.2090,1.894094
247.5274,1.881732
248.3159,1.853836
248.6012,1.841756
248.8901,1.829584
249.1866,1.817225
250.4107,1.771853
250.6021,1.759193
250.7802,1.751965
251.0974,1.743975
252.1363,1.702779
252.3210,1.692742
252.6256,1.680383
252.9221,1.666184
253.7080,1.629590
253.9783,1.620305
254.2251,1.607803
254.6621,1.588823
255.4466,1.547673
255.6560,1.534072
255.9586,1.517510
256.3152,1.504436
256.9999,1.469931
257.2338,1.458582
257.4677,1.447048
257.7016,1.435424
258.3851,1.396776
258.6399,1.381803
258.9022,1.366737
259.1682,1.351485
259.7675,1.314924
259.9049,1.304131
260.0498,1.293334
260.1985,1.282538
260.9817,1.237245
261.1815,1.225180
261.3813,1.213026
261.5810,1.200686
262.3642,1.155394
262.5307,1.143336
262.7010,1.131185
262.8787,1.118850
263.5771,1.073572
263.7436,1.061513
263.9139,1.049365
264.0916,1.037028
264.7900,0.991749
264.9894,0.978336
265.1887,0.964740
265.3880,0.951051
266.1699,0.901616
266.3688,0.886654
266.5677,0.871596
266.7666,0.856354
267.3619,0.806960
267.5282,0.794070
267.6982,0.781094
267.8757,0.767927
268.7391,0.707706
268.9052,0.694298
269.0750,0.680707
269.2523,0.667023
269.7811,0.621778
269.9470,0.607541
270.1165,0.593120
270.2936,0.578605
270.8075,0.539991
270.9736,0.526585
271.1434,0.512991
271.3207,0.499302
271.8312,0.449509
272.0310,0.437449
272.2307,0.425290
272.4305,0.412947
273.0414,0.358981
273.2863,0.340385
273.3756,0.330393
273.3857,0.320396
274.0652,0.268905
274.2302,0.251784
274.3988,0.234467
274.5750,0.217036
275.1046,0.174292
275.2706,0.160589
275.4404,0.146872
275.6177,0.133187
275.9483,0.105374
276.2366,0.070592
##END=
