##TITLE=2,4-Hexadienoic acid, (E,E)-
##JCAMP-DX=4.24
##DATA TYPE=UV/VIS SPECTRUM
##ORIGIN=INSTITUTE OF ENERGY PROBLEMS OF CHEMICAL PHYSICS, RAS
##OWNER=INEP CP RAS, NIST OSRD
Collection (C) 2007 copyright by the U.S. Secretary of Commerce
on behalf of the United States of America. All rights reserved.
##CAS REGISTRY NO=110-44-1
##MOLFORM=C6H8O2
##MP=133-135
##SOURCE REFERENCE=RAS UV No. 19947
##$NIST SQUIB=1966TIMb7/1
##$NIST SOURCE=TYUGLMTE
##SPECTROMETER/DATA SYSTEM=Unicam SP 700
##XUNITS=Wavelength (nm)
##YUNITS=Logarithm epsilon
##XFACTOR=1.0
##YFACTOR=1.0
##FIRSTX=200.07
##LASTX=292.23
##FIRSTY=3.531
##MAXX=292.23
##MINX=200.07
##MAXY=4.443
##MINY=2.65
##NPOINTS=126
##$REF AUTHOR=Timmons, C.J.
##$REF JOURNAL=UV atlas of organic compouds
##$REF VOLUME=1
##$REF PAGE=B7/1
##$REF DATE=1966
##XYPOINTS=(XY..XY)
200.07,3.531
200.16,3.528
200.24,3.528
200.33,3.528
200.59,3.513
201.11,3.503
201.63,3.494
202.16,3.481
202.69,3.471
203.22,3.462
203.76,3.456
204.30,3.447
204.84,3.438
205.38,3.434
205.93,3.430
206.48,3.426
207.03,3.421
207.58,3.415
208.14,3.411
208.70,3.406
209.27,3.404
209.83,3.400
210.40,3.396
210.98,3.396
211.55,3.391
212.13,3.391
212.72,3.389
213.30,3.391
213.89,3.393
214.49,3.398
215.08,3.404
215.68,3.411
216.28,3.419
216.89,3.430
217.50,3.441
218.11,3.451
218.73,3.462
219.35,3.475
219.97,3.492
220.60,3.513
221.23,3.533
221.86,3.552
222.50,3.576
223.14,3.597
223.79,3.625
224.44,3.648
225.09,3.676
225.75,3.706
226.41,3.734
227.07,3.764
227.74,3.792
228.41,3.820
229.09,3.848
229.77,3.878
230.45,3.899
231.14,3.929
231.83,3.959
232.53,3.983
233.23,4.004
233.94,4.030
234.64,4.053
235.36,4.075
236.08,4.096
236.80,4.117
237.52,4.139
238.26,4.160
238.99,4.182
239.73,4.201
240.48,4.222
241.23,4.242
241.98,4.259
242.74,4.276
243.50,4.295
244.27,4.310
245.05,4.330
245.82,4.342
246.61,4.355
247.40,4.372
248.19,4.383
248.99,4.394
249.79,4.402
250.60,4.413
251.41,4.419
252.23,4.424
253.06,4.430
253.89,4.434
254.72,4.439
255.56,4.443
256.41,4.443
257.26,4.439
258.12,4.434
258.99,4.430
259.85,4.424
260.73,4.417
261.61,4.407
262.50,4.398
263.39,4.390
264.29,4.377
265.20,4.357
266.11,4.340
267.03,4.315
267.95,4.291
268.88,4.259
269.82,4.233
270.76,4.199
271.71,4.162
272.67,4.120
273.64,4.077
274.61,4.027
275.58,3.974
276.57,3.931
277.56,3.869
278.56,3.815
279.57,3.753
280.58,3.680
281.60,3.610
282.63,3.528
283.66,3.456
284.71,3.363
285.76,3.258
286.82,3.136
287.89,3.044
288.96,2.948
289.99,2.866
291.13,2.768
292.23,2.650
##END=
