##TITLE=Piperidine
##JCAMP-DX=4.24
##DATA TYPE=UV/VIS SPECTRUM
##ORIGIN=INSTITUTE OF ENERGY PROBLEMS OF CHEMICAL PHYSICS, RAS
##OWNER=INEP CP RAS, NIST OSRD
Collection (C) 2007 copyright by the U.S. Secretary of Commerce
on behalf of the United States of America. All rights reserved.
##CAS REGISTRY NO=110-89-4
##MOLFORM=C5H11N
##MP=-11.03
##BP=106.2
##SOURCE REFERENCE=RAS UV No. 819
##$NIST SQUIB=1953PIC/COR1618-1622
##$NIST SOURCE=TSGMTE
##SPECTROMETER/DATA SYSTEM=Fluorite prism vacuum spectrograph or Beckman DU
##XUNITS=Wavelength (nm)
##YUNITS=Logarithm epsilon
##XFACTOR=1.000000
##YFACTOR=1.000000
##FIRSTX=240.6350
##LASTX=163.1028
##FIRSTY=2.0572
##MAXX=240.635
##MINX=163.103
##MAXY=3.55062
##MINY=2.0572
##NPOINTS=316
##$REF AUTHOR=Pickett, L.W.; Corning, M.E.; Wieder, G.M.; Semenow, D.A.; Buckley, J.M.
##$REF TITLE=The vacuum ultraviolet spectra of cyclic compounds. III. Amines
##$REF JOURNAL=J. Am. Chem. Soc.
##$REF VOLUME=75
##$REF PAGE=1618-1622
##$REF DATE=1953
##XYPOINTS=(XY..XY)
240.6350,2.057201
239.9934,2.057201
239.3553,2.057201
238.7205,2.057201
236.9212,2.118649
236.8079,2.128523
236.6947,2.137461
236.5816,2.144810
234.4807,2.195662
234.1121,2.203947
233.7324,2.211472
233.3479,2.217678
231.5200,2.238630
231.0798,2.238630
230.6293,2.238630
230.1746,2.238630
228.7389,2.270660
228.4213,2.280058
228.0988,2.289257
227.7655,2.298265
226.2562,2.334593
226.0754,2.332462
225.8949,2.329861
225.7146,2.326315
224.4356,2.390311
224.1298,2.402754
223.8193,2.414849
223.4984,2.426617
222.4440,2.478166
222.1547,2.482994
221.9933,2.489367
221.8211,2.502510
220.5857,2.551203
220.4620,2.563433
220.3330,2.575066
220.1932,2.585884
218.6857,2.664519
218.2572,2.675774
218.0702,2.683695
217.9636,2.695067
217.0795,2.760498
216.9844,2.776323
216.8893,2.791434
216.7944,2.805728
215.4265,2.872393
215.3562,2.874763
215.2860,2.877121
215.2158,2.879466
214.5397,2.914819
214.0724,2.940623
213.7557,2.956578
213.4758,2.975105
212.9249,3.010666
212.8563,3.012694
212.7877,3.014522
212.7191,3.016248
212.5365,3.041928
212.4841,3.044734
212.4216,3.047522
212.3541,3.050293
211.9677,3.072592
211.9157,3.075841
211.8535,3.078903
211.7864,3.081861
211.4923,3.106810
211.4689,3.108436
211.4405,3.109903
211.4020,3.111290
211.0191,3.133346
211.0191,3.136172
211.0191,3.138838
211.0191,3.141416
210.6599,3.162333
210.6599,3.164765
210.6599,3.167183
210.6599,3.169588
210.2797,3.189221
210.2797,3.190926
210.2797,3.192561
210.2797,3.194064
209.7229,3.214540
209.7229,3.216148
209.7229,3.217692
209.7229,3.219110
209.3682,3.236412
209.3682,3.238644
209.3682,3.240750
209.3682,3.242790
208.9925,3.257236
208.9419,3.260094
208.8815,3.262825
208.8162,3.265486
208.4426,3.279208
208.4426,3.281231
208.4426,3.283141
208.4426,3.284992
208.0921,3.298120
208.0921,3.300565
208.0921,3.302997
208.0921,3.305416
207.7211,3.317950
207.6711,3.320286
207.6114,3.322611
207.5469,3.324923
207.3513,3.339556
207.3015,3.341571
207.2420,3.343531
207.1778,3.345394
206.8100,3.358589
206.8100,3.359694
206.8100,3.360711
206.8100,3.361682
206.4650,3.375892
206.4156,3.377938
206.3566,3.379974
206.2929,3.382000
206.0997,3.392532
206.0505,3.395037
205.9917,3.397526
205.9283,3.400002
205.7571,3.410111
205.6930,3.412002
205.6289,3.413885
205.5649,3.415760
205.3943,3.425513
205.3454,3.426957
205.2871,3.428324
205.2240,3.429650
204.9479,3.442470
204.9259,3.443222
204.8992,3.443901
204.8631,3.444544
204.3347,3.467632
204.2863,3.468944
204.2285,3.470185
204.1661,3.471389
203.9979,3.479981
203.9348,3.481591
203.8719,3.483196
203.8089,3.484794
203.6412,3.494406
203.5932,3.495640
203.5358,3.496807
203.4739,3.497939
203.2859,3.506026
203.2380,3.507543
203.1808,3.509055
203.1191,3.510561
201.9179,3.528897
201.8089,3.529814
201.6909,3.530728
201.5685,3.531641
199.1362,3.549625
199.0554,3.549995
198.9702,3.550337
198.8762,3.550624
196.4301,3.546490
196.4099,3.545987
196.3854,3.545482
196.3522,3.544978
195.4607,3.539129
195.3836,3.538232
195.3065,3.537333
195.2295,3.536433
194.5008,3.526136
194.5008,3.526922
194.5008,3.527677
194.5008,3.528373
194.0244,3.520695
193.9808,3.519223
193.9287,3.517747
193.8725,3.516265
193.3991,3.508231
193.3558,3.507365
193.3040,3.506435
193.2481,3.505473
192.9281,3.496671
192.8529,3.495357
192.7778,3.493975
192.7028,3.492558
192.3098,3.483632
192.2670,3.482029
192.2158,3.480421
192.1605,3.478806
191.8441,3.471389
191.7698,3.470340
191.6955,3.469289
191.6213,3.468236
191.2327,3.458790
191.1582,3.457711
191.0796,3.456629
190.9930,3.455544
190.7722,3.448347
190.6749,3.446244
190.5696,3.444060
190.4603,3.441830
190.0034,3.432441
189.9116,3.430144
189.8159,3.427834
189.7122,3.425513
189.4037,3.418641
189.2770,3.416603
189.1505,3.414517
189.0241,3.412345
188.5023,3.400002
188.4611,3.398360
188.4119,3.396632
188.3588,3.394858
187.9120,3.383468
187.8407,3.381258
187.7695,3.378995
187.6983,3.376637
187.3254,3.367992
187.2015,3.365135
187.0777,3.362259
186.9541,3.359365
186.5842,3.348780
186.5438,3.346585
186.4956,3.344334
186.4436,3.341981
185.8662,3.328472
185.8138,3.326179
185.7615,3.323873
185.7093,3.321556
185.2749,3.310863
185.2351,3.308845
185.1877,3.306721
185.1364,3.304538
184.4294,3.284992
184.4116,3.283380
184.3900,3.281762
184.3608,3.280139
183.8473,3.267405
183.7791,3.265727
183.7109,3.264042
183.6427,3.262350
183.2858,3.259435
183.2305,3.251988
183.1602,3.247984
183.0148,3.244055
182.3071,3.227848
182.2183,3.225736
182.1221,3.223555
182.0223,3.221245
181.6050,3.205528
181.5211,3.204422
181.4337,3.203314
181.3389,3.202204
177.6941,3.143967
177.6097,3.143967
177.5183,3.143967
177.4234,3.143967
176.3805,3.138850
176.2973,3.138850
176.2073,3.138850
176.1138,3.138850
175.2721,3.140135
175.1280,3.141416
174.9773,3.142694
174.8234,3.143967
173.9939,3.154646
173.8870,3.156412
173.7802,3.158034
173.6735,3.159582
170.3275,3.220179
170.2499,3.222829
170.1659,3.225404
170.0788,3.227848
169.4240,3.244055
169.3655,3.246498
169.3038,3.248817
169.2358,3.251068
168.6449,3.265486
168.6449,3.266855
168.6449,3.268114
168.6449,3.269315
167.9298,3.288653
167.9298,3.290010
167.9298,3.291312
167.9298,3.292510
167.2208,3.310863
167.2208,3.312152
167.2208,3.313389
167.2208,3.314528
166.5178,3.330132
166.4856,3.332549
166.4473,3.334862
166.4058,3.337117
165.9457,3.350365
165.8721,3.353124
165.7924,3.355865
165.7096,3.358589
165.3637,3.369697
165.3637,3.374398
165.2906,3.371018
165.2906,3.374204
165.2114,3.372336
165.2114,3.373969
165.1293,3.373650
165.1293,3.373650
165.1293,3.376637
165.0600,3.378995
164.9876,3.381258
164.9093,3.383468
164.4573,3.395571
164.4573,3.396586
164.4573,3.397520
164.4573,3.398412
163.8315,3.413714
163.7768,3.415879
163.7191,3.417959
163.6555,3.419990
163.1028,3.432441
163.1028,3.433373
163.1028,3.434231
163.1028,3.435051
##END=
