##TITLE=Acetamide, N-butyl-
##JCAMP-DX=4.24
##DATA TYPE=UV/VIS SPECTRUM
##ORIGIN=INSTITUTE OF ENERGY PROBLEMS OF CHEMICAL PHYSICS, RAS
##OWNER=INEP CP RAS, NIST OSRD
Collection (C) 2007 copyright by the U.S. Secretary of Commerce
on behalf of the United States of America. All rights reserved.
##CAS REGISTRY NO=1119-49-9
##MOLFORM=C6H13NO
##BP=229
##SOURCE REFERENCE=RAS UV No. 4053
##$NIST SQUIB=1967NIE/SCH2297-2304
##$NIST SOURCE=TSGMTE
##SPECTROMETER/DATA SYSTEM=n.i.g.
##XUNITS=Wavelength (nm)
##YUNITS=Logarithm epsilon
##XFACTOR=1.000000
##YFACTOR=1.000000
##FIRSTX=180.4584
##LASTX=226.2765
##FIRSTY=4.11104
##MAXX=226.277
##MINX=180.458
##MAXY=4.20671
##MINY=2.43771
##NPOINTS=599
##$REF AUTHOR=Nielsen, E.B.; Schellman, J.A.
##$REF TITLE=The absorption spectra of simple amides and peptides
##$REF JOURNAL=J. Phys. Chem.
##$REF VOLUME=71
##$REF NUMBER=7
##$REF PAGE=2297-2304
##$REF DATE=1967
##XYPOINTS=(XY..XY)
180.4584,4.111040
180.4597,4.112184
180.5468,4.112821
180.5482,4.114032
180.6353,4.114596
180.6373,4.116367
180.7352,4.116928
180.7372,4.118690
180.8243,4.119318
180.8250,4.119880
181.1018,4.125650
181.1025,4.126272
181.1895,4.126821
181.1909,4.127993
181.2881,4.127988
181.2915,4.130801
181.6547,4.136493
181.6554,4.137032
181.7424,4.137568
181.7438,4.138711
181.8418,4.139310
181.8424,4.139847
181.9288,4.139843
181.9308,4.141514
182.0179,4.142044
182.0193,4.143175
182.1172,4.143702
182.1192,4.145359
182.2063,4.145950
182.2076,4.147006
182.2948,4.147594
182.2954,4.148121
182.6694,4.153525
182.6708,4.154627
182.7572,4.154624
182.7592,4.156239
182.8463,4.156751
182.8470,4.157331
182.9341,4.157841
182.9354,4.158933
183.0333,4.159441
183.0340,4.159953
183.4830,4.164767
183.4850,4.166346
183.5829,4.166845
183.5835,4.167349
183.6707,4.167911
183.6720,4.168914
183.7591,4.169474
183.7598,4.169974
183.8576,4.170470
183.8590,4.171530
183.9461,4.172024
184.4058,4.176645
184.4065,4.177199
184.4936,4.177687
184.4950,4.178729
184.5820,4.179215
184.5827,4.179704
184.6799,4.179700
184.6819,4.181225
185.3159,4.186766
185.3166,4.187307
185.4037,4.187784
185.4043,4.188264
185.5893,4.189273
185.5900,4.189751
185.6771,4.190285
185.6784,4.191238
185.8634,4.192241
185.8641,4.192716
185.9512,4.193246
185.9519,4.193720
186.2240,4.195185
186.2253,4.196187
186.3117,4.196183
186.3124,4.196654
186.4103,4.197120
187.0428,4.201476
187.0442,4.202463
187.1306,4.202459
187.1313,4.202923
187.2285,4.202919
187.2292,4.203440
187.3156,4.203437
187.4027,4.203896
187.5863,4.203889
187.5870,4.204351
187.6741,4.204867
187.7713,4.204863
187.7720,4.205324
187.8584,4.205321
187.9455,4.205835
188.1292,4.205828
188.1298,4.206288
188.3135,4.206281
189.1134,4.206709
189.3835,4.206698
189.4801,4.206234
189.5665,4.206231
189.7501,4.206224
190.3739,4.204239
190.6419,4.202782
190.7276,4.202315
190.7283,4.202778
190.8249,4.202311
190.9099,4.201320
190.9106,4.201843
191.0922,4.200381
191.5276,4.194968
191.5290,4.195970
191.6235,4.193960
191.6242,4.194492
191.7086,4.193009
191.7093,4.193483
191.7936,4.191997
191.7950,4.193006
191.8888,4.190505
191.8902,4.191517
191.9739,4.189487
191.9746,4.190024
192.3243,4.184967
192.3256,4.185992
192.4094,4.183996
192.4107,4.184963
192.5052,4.182962
192.5066,4.183992
192.5903,4.181926
192.5909,4.182412
192.6746,4.180399
192.6760,4.181436
193.1202,4.174235
193.1216,4.175286
193.2053,4.173178
193.2060,4.173736
193.3004,4.171620
193.3018,4.172677
193.3842,4.169556
193.3862,4.171118
193.8291,4.162727
193.8304,4.163742
193.9142,4.161641
193.9155,4.162723
193.9978,4.159466
193.9999,4.161127
194.0950,4.159461
194.1808,4.158945
194.2645,4.156820
194.2672,4.158941
194.5278,4.151363
194.5285,4.151949
194.6223,4.149200
194.6243,4.150836
194.7067,4.147554
194.7087,4.149196
194.7917,4.146430
194.7925,4.147023
194.8863,4.144242
194.8883,4.145897
195.2339,4.136936
195.2360,4.138686
195.3183,4.135243
195.3197,4.136392
195.4027,4.133543
195.4047,4.135239
195.4979,4.131836
195.4993,4.132994
195.5830,4.130738
195.5837,4.131285
195.7612,4.126122
195.8442,4.123204
195.8470,4.125564
195.9293,4.122085
195.9300,4.122642
196.0238,4.119700
196.0258,4.121451
196.1082,4.117938
196.1102,4.119696
196.1933,4.116805
196.1940,4.117370
196.3701,4.110822
196.3708,4.111394
196.4531,4.107799
196.4559,4.110244
196.5483,4.105987
196.5497,4.107216
196.6321,4.103586
196.6341,4.105403
196.7171,4.102342
196.7185,4.103582
196.8947,4.096820
196.8967,4.098666
196.9784,4.094368
196.9804,4.096224
197.0722,4.091227
197.0756,4.094363
197.4192,4.082352
197.4220,4.084945
197.5036,4.080432
197.5050,4.081736
197.5907,4.070717
197.5955,4.075327
197.5981,4.077884
197.6008,4.080427
197.6765,4.070084
197.6771,4.070713
197.6825,4.075944
197.6846,4.077880
197.7615,4.068740
197.7622,4.069449
197.8574,4.067470
197.8587,4.068734
197.9411,4.064766
197.9431,4.066752
198.0200,4.057372
198.0268,4.064124
198.1024,4.053299
198.1058,4.056719
198.1956,4.049185
198.1990,4.052638
198.2793,4.046448
198.2813,4.048520
198.3623,4.042940
198.3651,4.045778
198.4575,4.040836
198.4589,4.042264
198.5399,4.036603
198.5433,4.040157
198.6236,4.033785
198.6256,4.035918
198.7182,4.030948
198.7202,4.033094
198.8012,4.027312
198.8038,4.030167
198.8856,4.025131
198.8876,4.027307
198.9800,4.022149
198.9820,4.024339
199.0631,4.018527
199.0658,4.021440
199.1468,4.015499
199.1495,4.018522
199.2399,4.011010
199.2433,4.014779
199.3230,4.007294
199.3257,4.010283
199.4067,4.004187
199.4087,4.006469
199.5012,4.001149
199.5033,4.003447
199.5850,3.998090
199.5870,4.000405
199.6673,3.993323
199.6707,3.997248
199.7618,3.990208
199.7638,3.992565
199.8448,3.986213
199.8476,3.989445
199.9285,3.983047
199.9306,3.985443
200.0217,3.978207
200.0251,3.982270
200.1055,3.974982
200.1075,3.977423
200.1878,3.970052
200.1911,3.974094
200.2823,3.966665
200.2843,3.969153
200.3654,3.962547
200.3680,3.965860
200.4477,3.957371
200.4511,3.961633
200.5422,3.953986
200.5442,3.956548
200.6252,3.949642
200.6280,3.953157
200.7063,3.942730
200.7110,3.948804
200.7893,3.938271
200.7927,3.942723
200.8825,3.932903
200.8859,3.937410
200.9655,3.928341
200.9682,3.932032
201.0486,3.923842
201.0512,3.927462
201.1424,3.919183
201.1450,3.922842
201.2240,3.912556
201.2281,3.918173
201.3078,3.908802
201.3098,3.911644
201.4009,3.903055
201.4043,3.907881
201.4839,3.898167
201.4873,3.903048
201.5670,3.893342
201.5697,3.897224
201.6615,3.889297
201.6635,3.892269
201.7418,3.880250
201.7473,3.888334
201.8242,3.874110
201.8276,3.879268
201.9167,3.866878
201.9208,3.873113
201.9991,3.860544
202.0024,3.865738
202.0821,3.855151
202.0848,3.859388
202.1773,3.851904
202.1786,3.854108
202.2603,3.846401
202.2630,3.850855
202.3447,3.843089
202.3460,3.845339
202.4386,3.837606
202.4412,3.842018
202.5208,3.830691
202.5243,3.836387
202.6046,3.826155
202.6066,3.829590
202.6984,3.820313
202.7012,3.825041
202.7801,3.812118
202.7842,3.819184
202.8645,3.808533
202.8665,3.812110
202.9583,3.802447
202.9611,3.807373
203.0427,3.798781
203.0447,3.802439
203.1265,3.793897
203.1285,3.797595
203.2203,3.787601
203.2230,3.792696
203.3040,3.782588
203.3067,3.787592
203.3864,3.774886
203.3897,3.781204
203.4808,3.769565
203.4836,3.774876
203.5639,3.763065
203.5666,3.768297
203.6476,3.757597
203.6496,3.761617
203.7320,3.753530
203.7334,3.756293
203.8272,3.749424
203.8285,3.752213
203.9103,3.742612
203.9129,3.748095
203.9933,3.735522
203.9959,3.741094
204.0878,3.729865
204.0898,3.734148
204.1729,3.726918
204.1742,3.729855
204.2572,3.722551
204.2585,3.725344
204.3517,3.716544
204.3537,3.720961
204.4348,3.709192
204.4375,3.715111
204.5192,3.704643
204.5205,3.707553
204.6136,3.698382
204.6157,3.702986
204.6974,3.692218
204.6994,3.696887
204.7811,3.685965
204.7838,3.692207
204.8763,3.681163
204.8776,3.684234
204.9614,3.677865
204.9627,3.681152
205.0451,3.671400
205.0471,3.676298
205.1396,3.664637
205.1416,3.669610
205.2247,3.661411
205.2253,3.663021
205.3083,3.654491
205.3104,3.659581
205.4029,3.647665
205.4049,3.652835
205.4865,3.640520
205.4886,3.645775
205.5717,3.637109
205.5730,3.640507
205.6661,3.629785
205.6681,3.635172
205.7505,3.624318
205.7519,3.628034
205.8356,3.620777
205.8363,3.622545
205.9301,3.613170
205.9321,3.618766
206.0145,3.607488
206.0165,3.613157
206.0996,3.603807
206.1002,3.605645
206.1954,3.599861
206.1961,3.601715
206.2798,3.594001
206.2812,3.597985
206.3636,3.586147
206.3656,3.592099
206.4594,3.582036
206.4608,3.586131
206.5431,3.573714
206.5452,3.580081
206.6288,3.571721
206.6295,3.573699
206.7132,3.565466
206.7146,3.569719
206.8078,3.557072
206.8104,3.565449
206.8928,3.552677
206.8942,3.557056
206.9772,3.546139
206.9786,3.550585
207.1574,3.534922
207.1594,3.541613
207.2425,3.530568
207.2432,3.532742
207.3377,3.523684
207.3390,3.528090
207.4228,3.518936
207.4234,3.521169
207.5072,3.511866
207.5085,3.516674
207.6023,3.504676
207.6044,3.511846
207.6874,3.499714
207.6881,3.502339
207.7711,3.489934
207.7732,3.497350
207.8677,3.487514
207.8683,3.489914
207.9527,3.482351
207.9534,3.484780
208.0371,3.474654
208.0384,3.479584
208.1330,3.469332
208.1343,3.474633
208.2180,3.463947
208.2187,3.466797
208.3038,3.461380
208.3044,3.463928
208.3990,3.453296
208.4003,3.458794
208.5691,3.442379
208.5704,3.447687
208.6650,3.436644
208.6656,3.439341
208.7500,3.430835
208.7507,3.433909
208.8351,3.425295
208.8364,3.430814
209.0160,3.413281
209.0174,3.419307
209.1018,3.410395
209.1024,3.413260
209.1976,3.404219
209.1983,3.407486
209.2827,3.398326
209.2840,3.404197
209.4643,3.388942
209.4650,3.391952
209.5494,3.382454
209.5500,3.385509
209.6344,3.375867
209.6351,3.379354
209.7202,3.372720
209.7208,3.375844
209.8160,3.365980
209.8167,3.369547
209.9868,3.355865
209.9875,3.359516
210.0826,3.348856
210.0834,3.352566
210.1691,3.348831
210.2542,3.342131
210.2548,3.345481
210.3500,3.334894
210.3507,3.338301
210.5208,3.324020
210.5215,3.327513
210.6174,3.320469
210.6180,3.323990
210.9704,3.301383
210.9711,3.305062
211.0555,3.293432
211.0562,3.297645
211.1520,3.289621
211.2378,3.285780
211.2385,3.289593
211.3228,3.277535
211.3235,3.281421
211.4201,3.277502
211.5902,3.261033
211.5915,3.269067
211.6867,3.256414
211.6874,3.260999
211.7725,3.252265
211.8582,3.248077
211.8589,3.252234
211.9541,3.239073
211.9547,3.243317
212.0398,3.234755
212.0405,3.239041
212.1255,3.229850
212.1263,3.234723
212.2221,3.225434
212.2227,3.229813
212.4895,3.206784
212.4901,3.211353
212.5752,3.201550
212.5759,3.206749
212.9282,3.176275
212.9289,3.181784
213.0146,3.176238
213.1106,3.166225
213.1112,3.171240
213.1970,3.166187
213.3786,3.150049
213.3792,3.155252
213.4643,3.144080
213.4650,3.150010
213.5507,3.144040
213.6472,3.138654
213.7330,3.133206
213.7337,3.138614
213.8187,3.126999
213.8194,3.133165
213.9146,3.115768
213.9159,3.126952
214.0010,3.115725
214.0867,3.109261
214.1839,3.109213
214.3547,3.090769
214.3555,3.097467
214.4513,3.084675
214.4519,3.090718
214.5377,3.084630
214.6235,3.078454
214.7200,3.071401
214.7207,3.078402
214.8064,3.071354
214.8921,3.064985
214.9894,3.064932
215.0751,3.058468
215.1608,3.051085
215.1615,3.058419
215.2580,3.051030
215.5248,3.015785
215.5261,3.029818
216.5057,2.992266
216.5921,2.992209
216.7744,2.975783
216.8608,2.975725
216.9573,2.967766
217.1294,2.958589
217.1302,2.967646
217.2267,2.958521
217.3982,2.941809
218.6572,2.873407
218.8294,2.863242
218.8301,2.873258
219.0130,2.863081
219.1953,2.840819
219.3681,2.840659
219.4647,2.829760
219.8212,2.829422
219.9068,2.816837
220.9830,2.738683
221.2530,2.738367
221.4354,2.710245
221.7054,2.709907
221.7911,2.693258
222.0611,2.692907
222.1469,2.677527
222.2441,2.677396
222.4169,2.677162
223.0522,2.624652
223.4087,2.624108
223.4945,2.606033
223.5917,2.605878
223.6774,2.584612
223.9474,2.584160
224.0332,2.564303
225.1984,2.516911
225.8357,2.515665
225.9215,2.492322
226.0079,2.492144
226.1044,2.467441
226.1909,2.467252
226.2765,2.437711
##END=
