##TITLE=Glutarimide
##JCAMP-DX=4.24
##DATA TYPE=UV/VIS SPECTRUM
##ORIGIN=INSTITUTE OF ENERGY PROBLEMS OF CHEMICAL PHYSICS, RAS
##OWNER=INEP CP RAS, NIST OSRD
Collection (C) 2007 copyright by the U.S. Secretary of Commerce
on behalf of the United States of America. All rights reserved.
##CAS REGISTRY NO=1121-89-7
##MOLFORM=C5H7NO2
##MP=155-157
##SOURCE REFERENCE=RAS UV No. 12561
##$NIST SQUIB=1957TUR/WHE4555
##$NIST SOURCE=TYUGLMTE
##SPECTROMETER/DATA SYSTEM=n.i.g.
##XUNITS=Wavelength (nm)
##YUNITS=Logarithm epsilon
##XFACTOR=1.0
##YFACTOR=1.0
##FIRSTX=179.3
##LASTX=206.61
##FIRSTY=3.205
##MAXX=206.61
##MINX=179.3
##MAXY=4.128
##MINY=3.205
##NPOINTS=99
##$REF AUTHOR=Turner, D.W.; Wheeler, (Mrs) R.B.
##$REF JOURNAL=J. Chem. Soc.
##$REF PAGE=4555
##$REF DATE=1957
##XYPOINTS=(XY..XY)
179.30,3.205
179.55,3.226
179.80,3.237
180.05,3.251
180.30,3.265
180.55,3.284
180.81,3.297
181.06,3.314
181.32,3.330
181.57,3.350
181.83,3.365
182.08,3.383
182.34,3.397
182.60,3.414
182.86,3.431
183.09,3.444
183.35,3.461
183.62,3.476
183.88,3.491
184.13,3.507
184.42,3.526
184.69,3.543
184.96,3.562
185.22,3.576
185.49,3.596
185.76,3.611
186.03,3.629
186.30,3.645
186.57,3.661
186.84,3.675
187.11,3.690
187.38,3.704
187.65,3.719
187.93,3.735
188.20,3.750
188.48,3.764
188.75,3.778
189.03,3.797
189.31,3.812
189.59,3.825
189.86,3.840
190.15,3.856
190.43,3.871
190.71,3.882
190.99,3.899
191.27,3.914
191.56,3.929
191.84,3.941
192.13,3.956
192.42,3.970
192.70,3.983
192.99,3.997
193.28,4.011
193.57,4.030
193.86,4.038
194.16,4.053
194.45,4.063
194.74,4.077
195.04,4.084
195.33,4.092
195.63,4.099
195.93,4.104
196.23,4.109
196.53,4.113
196.83,4.116
197.13,4.119
197.43,4.122
197.73,4.125
198.04,4.126
198.34,4.128
198.65,4.128
198.95,4.128
199.26,4.128
199.57,4.125
199.88,4.121
200.19,4.116
200.50,4.111
200.81,4.106
201.13,4.100
201.44,4.093
201.76,4.088
202.07,4.080
202.39,4.074
202.71,4.068
203.03,4.060
203.35,4.051
203.67,4.044
203.99,4.035
204.32,4.025
204.64,4.014
204.97,4.005
205.29,3.992
205.62,3.975
205.95,3.960
206.28,3.942
206.36,3.929
206.44,3.927
206.53,3.926
206.61,3.924
##END=
