##TITLE=2-Undecanone
##JCAMP-DX=4.24
##DATA TYPE=UV/VIS SPECTRUM
##ORIGIN=INSTITUTE OF ENERGY PROBLEMS OF CHEMICAL PHYSICS, RAS
##OWNER=INEP CP RAS, NIST OSRD
Collection (C) 2007 copyright by the U.S. Secretary of Commerce
on behalf of the United States of America. All rights reserved.
##CAS REGISTRY NO=112-12-9
##MOLFORM=C11H22O
##MP=15
##BP=231.5
##SOURCE REFERENCE=RAS UV No. 3612
##$NIST SQUIB=1988NOW/WHI3430-3437
##$NIST SOURCE=TSGMTE
##SPECTROMETER/DATA SYSTEM=HP 8451A Spectrophotometer
##XUNITS=Wavelength (nm)
##YUNITS=Logarithm epsilon
##XFACTOR=1.000000
##YFACTOR=1.000000
##FIRSTX=224.3026
##LASTX=330.1509
##FIRSTY=4.27832
##MAXX=330.151
##MINX=224.303
##MAXY=4.3324
##MINY=2.78764
##NPOINTS=191
##$REF AUTHOR=Nowakowska, M.; White, B.; Guillet, J.E.
##$REF TITLE=Studies of the antenna effect in polymer molecules. 11. Photochemical reactions of 2-undecanone solubilized in an aqueous solution of poly(sodium styrenesulfonate-co-2-vinylnaphthalene)
##$REF JOURNAL=Macromolecules
##$REF VOLUME=21
##$REF PAGE=3430-3437
##$REF DATE=1988
##XYPOINTS=(XY..XY)
224.3026,4.278323
224.6795,4.271830
225.0193,4.265866
225.3269,4.260357
225.6072,4.255225
225.8648,4.250385
226.1044,4.245750
226.3308,4.241227
226.5487,4.236717
226.7629,4.232121
226.9782,4.227331
227.1992,4.222238
227.4308,4.216726
227.6775,4.210671
227.9443,4.203943
228.2357,4.196400
228.5568,4.187887
229.8492,4.160381
230.4503,4.154831
231.1071,4.150554
231.8169,4.147492
232.5775,4.145573
233.3860,4.144715
234.2402,4.144829
235.1374,4.145815
236.0751,4.147570
237.0508,4.149991
238.0621,4.152970
239.1062,4.156400
240.1808,4.160179
241.2835,4.164202
242.4116,4.168371
243.5625,4.172590
244.7338,4.176767
245.9230,4.180814
245.9230,4.180814
246.8335,4.186256
247.7160,4.191715
248.5733,4.197178
249.4083,4.202637
250.2238,4.208081
251.0229,4.213501
251.8083,4.218889
252.5829,4.224235
253.3496,4.229532
254.1114,4.234773
254.8711,4.239950
255.6315,4.245056
256.3957,4.250084
257.1663,4.255030
257.9465,4.259886
258.7389,4.264648
259.5466,4.269309
260.3724,4.273865
261.2192,4.278311
262.0899,4.282641
262.9873,4.286851
263.9144,4.290938
264.8741,4.294896
265.8692,4.298721
266.9025,4.302409
266.9025,4.302409
267.7165,4.307184
268.5189,4.311469
269.3099,4.315290
270.0894,4.318671
270.8575,4.321634
271.6141,4.324198
272.3593,4.326383
273.0931,4.328205
273.8156,4.329680
274.5267,4.330824
275.2264,4.331651
275.9149,4.332173
276.5919,4.332404
277.2578,4.332356
277.9124,4.332040
278.5557,4.331466
279.1878,4.330646
279.8086,4.329590
280.4183,4.328307
281.0169,4.326807
281.6042,4.325099
282.1805,4.323193
282.7455,4.321099
283.2995,4.318824
283.8425,4.316379
284.3743,4.313773
284.8951,4.311014
285.4049,4.308112
285.9037,4.305077
286.3914,4.301918
286.8683,4.298645
287.3340,4.295268
287.7890,4.291798
288.2330,4.288245
288.6661,4.284620
289.0883,4.280935
289.4997,4.277202
289.9001,4.273432
290.2898,4.269638
290.6686,4.265833
291.0367,4.262032
291.3940,4.258246
291.7405,4.254492
292.0763,4.250785
292.4014,4.247139
292.7157,4.243571
293.0195,4.240097
293.3125,4.236734
293.5949,4.233499
293.8667,4.230409
293.8667,4.230409
294.2323,4.224675
294.5979,4.218865
294.9637,4.212975
295.3293,4.207004
295.6949,4.200951
296.0606,4.194811
296.4262,4.188583
296.7918,4.182266
297.1576,4.175854
297.5232,4.169347
297.8888,4.162741
298.2545,4.156032
298.6201,4.149218
298.9857,4.142296
299.3515,4.135262
299.7171,4.128111
300.0827,4.120841
300.4484,4.113448
300.8140,4.105926
301.1796,4.098272
301.5454,4.090480
301.9110,4.082546
302.2766,4.074464
302.6423,4.066230
303.0079,4.057836
303.3735,4.049276
303.7393,4.040545
304.1049,4.031634
304.4705,4.022536
304.8362,4.013245
305.2018,4.003749
305.5674,3.994041
305.9332,3.984112
306.2988,3.973951
306.6644,3.963545
307.0301,3.952885
307.3957,3.941956
307.7613,3.930744
308.1271,3.919237
308.4927,3.907415
308.8583,3.895262
309.2240,3.882761
309.5896,3.869888
309.9552,3.856621
310.3210,3.842937
310.6866,3.828809
311.0522,3.814204
311.4179,3.799091
311.7835,3.783434
312.1491,3.767190
312.5149,3.750316
312.8805,3.732760
313.2461,3.714463
313.6118,3.695361
313.9774,3.675382
314.3430,3.654437
314.7088,3.632431
315.0744,3.609252
315.4400,3.584764
315.4400,3.584764
315.9711,3.560115
316.4878,3.534149
316.9990,3.506770
317.5139,3.477876
318.0414,3.447342
318.5905,3.415035
319.1703,3.380793
319.7898,3.344437
320.4580,3.305749
321.1839,3.264485
321.9766,3.220344
322.8449,3.172974
323.7980,3.121947
324.8450,3.066730
325.9948,3.006667
327.2563,2.940918
328.6387,2.868396
330.1509,2.787641
##END=
