##TITLE=Butylthiobenzene
##JCAMP-DX=4.24
##DATA TYPE=UV/VIS SPECTRUM
##ORIGIN=INSTITUTE OF ENERGY PROBLEMS OF CHEMICAL PHYSICS, RAS
##OWNER=INEP CP RAS, NIST OSRD
Collection (C) 2007 copyright by the U.S. Secretary of Commerce
on behalf of the United States of America. All rights reserved.
##CAS REGISTRY NO=1126-80-3
##MOLFORM=C10H14S
##BP=112/ 15 mm
##SOURCE REFERENCE=RAS UV No. 19973
##$NIST SQUIB=1966LAN33
##$NIST SOURCE=TYUGLMTE
##SPECTROMETER/DATA SYSTEM=SF-4
##XUNITS=Wavelength (nm)
##YUNITS=Logarithm epsilon
##XFACTOR=1.0
##YFACTOR=1.0
##FIRSTX=221.92
##LASTX=310.13
##FIRSTY=3.597
##MAXX=310.13
##MINX=221.92
##MAXY=3.892
##MINY=0.514
##NPOINTS=112
##$REF AUTHOR=Lang (editor), L.
##$REF JOURNAL=Absorption Spectra in the Ultraviolet and Visible Region
##$REF VOLUME=17
##$REF PAGE=33
##$REF DATE=1966
##XYPOINTS=(XY..XY)
221.92,3.597
222.77,3.570
223.61,3.543
224.62,3.519
225.47,3.496
226.31,3.469
227.32,3.445
228.33,3.425
229.34,3.404
230.69,3.387
232.21,3.377
233.73,3.374
235.25,3.381
236.60,3.394
237.61,3.415
238.62,3.435
239.63,3.455
240.64,3.475
241.66,3.499
242.67,3.523
243.51,3.546
244.35,3.574
245.37,3.597
246.21,3.624
247.05,3.648
247.73,3.675
248.57,3.702
249.41,3.729
250.26,3.753
250.93,3.780
251.78,3.804
252.79,3.827
253.80,3.851
254.98,3.868
256.33,3.882
257.68,3.892
259.20,3.882
260.21,3.858
261.05,3.834
261.89,3.810
262.57,3.783
263.41,3.756
263.92,3.729
264.59,3.702
265.44,3.675
265.94,3.648
266.45,3.621
266.95,3.594
267.63,3.567
268.30,3.540
268.81,3.513
269.48,3.486
269.99,3.459
270.66,3.431
271.51,3.404
272.01,3.377
272.69,3.350
273.36,3.323
274.04,3.296
274.88,3.272
275.55,3.245
276.06,3.218
276.90,3.191
277.41,3.164
278.42,3.140
279.10,3.113
279.94,3.086
280.61,3.059
281.46,3.035
282.30,3.008
283.31,2.988
283.99,2.961
285.00,2.937
285.84,2.910
286.69,2.883
287.53,2.856
288.20,2.829
289.05,2.802
289.55,2.775
290.23,2.748
290.90,2.721
291.41,2.694
292.08,2.667
292.76,2.639
293.26,2.609
293.94,2.582
294.27,2.551
295.29,2.494
295.62,2.463
295.96,2.433
296.47,2.406
296.64,2.376
297.14,2.345
297.48,2.315
297.82,2.284
298.15,2.254
298.49,2.223
299.00,2.193
299.33,2.162
299.50,2.132
299.84,2.101
300.18,2.071
304.06,1.519
304.73,1.350
305.41,1.194
306.08,1.076
306.75,0.954
307.43,0.846
308.10,0.741
308.78,0.663
309.45,0.575
310.13,0.514
##END=
