##TITLE=Decanal
##JCAMP-DX=4.24
##DATA TYPE=UV/VIS SPECTRUM
##ORIGIN=INSTITUTE OF ENERGY PROBLEMS OF CHEMICAL PHYSICS, RAS
##OWNER=INEP CP RAS, NIST OSRD
Collection (C) 2007 copyright by the U.S. Secretary of Commerce
on behalf of the United States of America. All rights reserved.
##CAS REGISTRY NO=112-31-2
##MOLFORM=C10H20O
##MP=-5
##BP=208.5
##SOURCE REFERENCE=RAS UV No. 5564
##$NIST SQUIB=1951COO/MEL1984-1993
##$NIST SOURCE=TSGMTE
##SPECTROMETER/DATA SYSTEM=Uvispec spectrophotometer
##XUNITS=Wavelength (nm)
##YUNITS=Logarithm epsilon
##XFACTOR=1.000000
##YFACTOR=1.000000
##FIRSTX=213.3769
##LASTX=377.5019
##FIRSTY=-0.859178
##MAXX=377.502
##MINX=213.377
##MAXY=1.83883
##MINY=-0.859178
##NPOINTS=311
##$REF AUTHOR=Cooper, H.R.; Melville, H.W.
##$REF TITLE=The kinetics of the autoxidation of n-decanal. Part I. The mechanism of reaction
##$REF JOURNAL=J. Chem. Soc.
##$REF PAGE=1984-1993
##$REF DATE=1951
##XYPOINTS=(XY..XY)
213.3769,-0.859178
213.4499,-0.796152
213.5199,-0.734004
213.5871,-0.672845
213.6515,-0.612610
213.7134,-0.553308
213.7727,-0.494850
213.8296,-0.437231
213.8841,-0.380594
213.9363,-0.324772
213.9864,-0.269945
214.0343,-0.215882
214.0803,-0.162727
214.1244,-0.110418
214.1668,-0.058936
214.2074,-0.008331
214.2464,0.041432
214.2839,0.090399
214.3200,0.138492
214.3547,0.185769
214.3882,0.232259
214.4205,0.277907
214.4519,0.322777
214.4822,0.366834
214.5117,0.410102
214.5404,0.452599
214.5684,0.494308
214.5959,0.535243
214.6228,0.575407
214.6494,0.614813
214.6756,0.653473
214.7016,0.691373
214.7276,0.728532
214.7534,0.764953
214.7794,0.800648
214.8055,0.835614
214.8319,0.869865
214.8586,0.903399
214.8858,0.936232
214.9134,0.968357
214.9417,0.999791
214.9708,1.030535
215.0007,1.060600
215.0314,1.089986
215.0632,1.118701
215.0960,1.146751
215.1300,1.174141
215.1653,1.200881
215.2020,1.226973
215.2401,1.252426
215.2799,1.277245
215.3212,1.301434
215.3643,1.324998
215.4092,1.347950
215.4561,1.370289
215.5050,1.392025
215.5560,1.413161
215.6092,1.433704
215.6647,1.453662
215.7226,1.473040
215.7830,1.491845
215.8460,1.510080
215.9116,1.527752
215.9801,1.544869
216.0514,1.561434
216.1257,1.577456
216.2029,1.592940
216.2834,1.607892
216.3670,1.622317
216.4540,1.636223
216.5445,1.649614
216.6384,1.662497
216.7359,1.674879
216.8371,1.686763
216.9422,1.698157
217.0512,1.709068
217.1640,1.719500
217.2810,1.729462
217.4021,1.738957
217.5276,1.747991
217.6573,1.756573
217.7916,1.764707
217.9302,1.772397
218.0737,1.779651
218.2218,1.786477
218.3747,1.792879
218.5325,1.798864
218.6953,1.804435
218.8633,1.809601
219.0364,1.814369
219.2148,1.818741
219.3986,1.822727
219.5878,1.826331
219.7827,1.829558
219.9832,1.832416
220.1895,1.834911
220.4015,1.837048
220.6195,1.838833
220.6195,1.838833
221.0351,1.836246
221.4377,1.831941
221.8281,1.825978
222.2068,1.818422
222.5748,1.809331
222.9326,1.798775
223.2810,1.786810
223.6209,1.773498
223.9529,1.758906
224.2777,1.743093
224.5960,1.726122
224.9087,1.708055
225.2163,1.688955
225.5198,1.668885
225.8198,1.647909
226.1170,1.626083
226.4121,1.603476
226.7059,1.580146
226.9992,1.556157
227.2927,1.531572
227.5870,1.506454
227.8829,1.480863
228.1813,1.454862
228.4827,1.428514
228.7879,1.401883
229.0976,1.375027
229.4127,1.348011
229.7338,1.320898
230.0617,1.293749
230.3969,1.266629
230.7405,1.239597
231.0930,1.212715
231.4552,1.186049
231.8277,1.159660
232.2114,1.133609
232.6070,1.107959
233.0152,1.082771
233.4368,1.058111
233.8725,1.034039
234.3228,1.010618
234.7889,0.987907
235.2711,0.965973
235.7704,0.944877
236.2874,0.924677
236.8228,0.905445
237.3775,0.887235
237.9521,0.870111
238.5474,0.854142
239.1641,0.839377
239.8029,0.825887
240.4645,0.813741
241.1497,0.802986
241.8594,0.793693
242.5940,0.785927
243.3544,0.779748
244.1415,0.775210
244.9557,0.772388
245.7979,0.771338
246.6688,0.772124
247.5693,0.774802
248.4999,0.779445
249.4613,0.786112
250.4545,0.794864
250.4545,0.794864
251.5491,0.812720
252.6208,0.830832
253.6708,0.849167
254.7006,0.867680
255.7112,0.886338
256.7042,0.905110
257.6810,0.923959
258.6427,0.942851
259.5909,0.961744
260.5267,0.980608
261.4516,0.999413
262.3668,1.018114
263.2737,1.036681
264.1737,1.055076
265.0680,1.073267
265.9581,1.091217
266.8452,1.108890
267.7307,1.126252
268.6159,1.143268
269.5023,1.159901
270.3909,1.176117
271.2833,1.191881
272.1808,1.207155
273.0847,1.221910
273.9964,1.236104
274.9171,1.249705
275.8482,1.262676
276.7911,1.274982
277.7471,1.286591
278.7175,1.297465
279.7037,1.307569
280.7070,1.316867
281.7286,1.325325
282.7702,1.332909
283.8327,1.339579
284.9178,1.345305
286.0265,1.350048
287.1605,1.353774
288.3208,1.356448
289.5090,1.358036
290.7263,1.358502
291.9741,1.357809
293.2536,1.355923
294.5663,1.352807
295.9135,1.348429
297.2965,1.342752
298.7166,1.335741
300.1752,1.327359
301.6736,1.317574
303.2132,1.306350
304.7953,1.293648
304.7953,1.293648
305.8795,1.278680
306.9366,1.263241
307.9671,1.247342
308.9716,1.230995
309.9508,1.214205
310.9054,1.196985
311.8360,1.179348
312.7431,1.161302
313.6277,1.142859
314.4901,1.124025
315.3311,1.104815
316.1512,1.085237
316.9513,1.065303
317.7318,1.045022
318.4935,1.024404
319.2370,1.003461
319.9629,0.982199
320.6720,0.960637
321.3647,0.938775
322.0417,0.916633
322.7038,0.894211
323.3516,0.871526
323.9856,0.848589
324.6066,0.825407
325.2151,0.801993
325.8119,0.778361
326.3976,0.754517
326.9727,0.730459
327.5381,0.706223
328.0942,0.681793
328.6419,0.657199
329.1815,0.632447
329.7140,0.607541
330.2398,0.582495
330.7596,0.557327
331.2741,0.532028
331.7839,0.506627
332.2897,0.481113
332.7920,0.455530
333.2916,0.429865
333.7891,0.404132
334.2851,0.378325
334.7804,0.352491
335.2755,0.326623
335.7709,0.300704
336.2675,0.274781
336.7659,0.248856
337.2667,0.222950
337.7704,0.197032
338.2780,0.171170
338.7898,0.145321
339.3066,0.119520
339.8290,0.093772
340.3576,0.068112
340.8932,0.042497
341.4364,0.016992
341.9877,-0.008464
342.5478,-0.033764
343.1175,-0.058936
343.6972,-0.084020
344.2878,-0.108909
344.8898,-0.133713
345.5037,-0.158328
346.1304,-0.182765
346.7705,-0.206978
347.4246,-0.231066
348.0932,-0.254925
348.7772,-0.278602
349.4771,-0.302074
350.1935,-0.325231
350.9272,-0.348238
351.6787,-0.370896
352.4486,-0.393404
353.2378,-0.415556
354.0468,-0.437469
354.8761,-0.459045
355.7266,-0.480303
356.5987,-0.501276
357.4933,-0.522011
358.4108,-0.542269
359.3519,-0.562249
360.3174,-0.581865
360.3174,-0.581865
361.5948,-0.599808
362.8611,-0.617443
364.1215,-0.634887
365.3809,-0.652280
366.6443,-0.669181
367.9168,-0.686133
369.2034,-0.702458
370.5092,-0.718739
371.8392,-0.734475
373.1984,-0.750068
374.5919,-0.765230
376.0247,-0.779892
377.5019,-0.794254
##END=
