##TITLE=Naphthalene, 1-ethyl-
##JCAMP-DX=4.24
##DATA TYPE=UV/VIS SPECTRUM
##ORIGIN=INSTITUTE OF ENERGY PROBLEMS OF CHEMICAL PHYSICS, RAS
##OWNER=INEP CP RAS, NIST OSRD
Collection (C) 2007 copyright by the U.S. Secretary of Commerce
on behalf of the United States of America. All rights reserved.
##CAS REGISTRY NO=1127-76-0
##MOLFORM=C12H12
##MP=-13.9
##BP=258.6
##SOURCE REFERENCE=RAS UV No. 635
##$NIST SQUIB=1950RAM259-265
##$NIST SOURCE=TSGMTE
##SPECTROMETER/DATA SYSTEM=n.i.g.
##XUNITS=Wavelength (nm)
##YUNITS=Logarithm epsilon
##XFACTOR=1.000000
##YFACTOR=1.000000
##FIRSTX=328.2917
##LASTX=234.5280
##FIRSTY=1.13276
##MAXX=328.292
##MINX=234.528
##MAXY=3.72703
##MINY=1.13276
##NPOINTS=592
##$REF AUTHOR=Ramart-Lucas, P.
##$REF TITLE=Introduction a l'etude du comportement spectral des combinaisons polynucleaires
##$REF JOURNAL=Bull. Soc. Chim. Fr.
##$REF VOLUME=17
##$REF PAGE=259-265
##$REF DATE=1950
##XYPOINTS=(XY..XY)
328.2917,1.132756
328.1888,1.149111
328.1165,1.157680
328.0178,1.207220
328.0128,1.165808
327.9620,1.204950
327.9126,1.202856
327.8757,1.200850
327.7509,1.335036
327.7152,1.342602
327.6670,1.350169
327.6126,1.357735
327.6126,1.357735
327.4362,1.298014
327.4346,1.285391
327.4331,1.272946
327.4316,1.260587
327.3069,1.375616
326.9770,1.395622
326.5795,1.417487
326.3109,1.512256
326.2204,1.525914
326.1175,1.539750
326.0084,1.553673
325.7348,1.599072
325.7345,1.596285
325.7342,1.593497
325.7338,1.590710
325.4339,1.644470
325.3992,1.656032
325.3522,1.667684
325.2990,1.679512
325.2990,1.679512
325.2633,1.682816
325.2154,1.686297
325.1612,1.689868
324.8871,1.718542
324.6929,1.717766
324.4990,1.717078
324.3054,1.716566
324.3054,1.716566
324.0575,1.713800
323.8162,1.711122
323.5874,1.708621
323.5874,1.708621
323.4853,1.706352
323.3954,1.704260
323.3117,1.702256
323.3117,1.702256
323.0654,1.699476
322.8255,1.696694
322.5981,1.693913
322.5981,1.693913
322.5978,1.691141
322.5975,1.688456
322.5972,1.685949
322.5972,1.685949
322.4886,1.683681
322.3861,1.681590
322.2959,1.679587
321.7278,1.714640
321.6465,1.725510
321.5592,1.736558
321.4599,1.747695
321.1943,1.797074
321.1940,1.794301
321.1937,1.791618
321.1934,1.789111
320.9003,1.830129
320.8656,1.833433
320.8189,1.836915
320.7662,1.840485
320.7662,1.840485
320.7324,1.850839
320.6865,1.861192
320.6347,1.871545
319.8089,1.953987
319.7758,1.968337
319.7307,1.982775
319.6796,1.997391
319.6796,1.997391
319.6260,1.997908
319.5724,1.998603
319.5188,1.999386
319.2555,2.040802
319.2552,2.038015
319.2549,2.035228
319.2546,2.032441
318.6993,2.086207
318.6197,2.098553
318.5342,2.110898
318.4369,2.123244
317.7562,2.216034
317.7233,2.228895
317.6786,2.241932
317.6313,2.284124
317.6280,2.255058
317.5974,2.287429
317.5516,2.290910
317.5000,2.294480
317.5000,2.294480
317.4471,2.294998
317.3942,2.295692
317.3414,2.296475
317.0831,2.350234
317.0823,2.343185
317.0815,2.336313
317.0807,2.329530
316.7950,2.370549
316.7620,2.380902
316.7173,2.391255
316.6668,2.401609
316.6668,2.401609
316.4108,2.432113
316.1782,2.458457
315.9922,2.482057
315.1860,2.527469
315.1343,2.523901
315.0885,2.520422
315.0543,2.517120
313.8306,2.494457
313.8300,2.488897
313.8294,2.483426
313.8288,2.478132
313.2835,2.453460
313.2324,2.449892
313.1872,2.446413
313.1534,2.443111
313.1534,2.443111
313.0577,2.440326
312.9735,2.437541
312.8950,2.434756
312.8950,2.434756
312.7139,2.425205
312.5331,2.415654
312.3525,2.406102
310.6169,2.389426
310.5402,2.392215
310.4579,2.395005
310.3645,2.397794
310.3645,2.397794
310.2877,2.399006
310.2054,2.400305
310.1120,2.401783
310.1120,2.401783
309.9357,2.406566
309.7596,2.411348
309.5837,2.416131
307.5144,2.482284
307.5144,2.482284
307.5139,2.478022
307.5135,2.473937
307.5131,2.469941
307.3408,2.485076
307.1675,2.487868
306.9943,2.490660
306.9943,2.490660
306.9629,2.496751
306.9204,2.503020
306.8765,2.546406
306.8765,2.546406
306.8752,2.534063
306.8738,2.521720
306.8725,2.509377
306.8725,2.509377
306.7036,2.548402
306.5308,2.550398
306.4856,2.589818
306.4852,2.585452
306.4847,2.581176
306.4843,2.577076
306.3583,2.552393
306.3583,2.552393
306.3266,2.555181
306.2840,2.557970
306.2359,2.560758
305.9971,2.630842
305.9175,2.644500
305.8270,2.658336
305.7311,2.672259
304.9789,2.742358
304.9479,2.748449
304.9060,2.754718
304.8587,2.761075
304.8587,2.761075
304.7848,2.763068
304.7054,2.765061
304.6153,2.767055
304.6153,2.767055
304.4239,2.783724
304.3241,2.794463
304.2300,2.808475
303.7248,2.853880
303.7245,2.851093
303.7243,2.848306
303.7240,2.845519
303.2205,2.890924
303.1481,2.900482
303.0704,2.910040
302.9820,2.919599
302.9820,2.919599
302.9027,2.920914
302.8127,2.922406
302.7174,2.923986
302.7174,2.923986
302.6458,2.939119
302.5690,2.954251
302.4815,2.969384
302.2429,2.985716
302.2126,2.993282
302.1716,3.000848
302.1253,3.008415
302.1253,3.008415
302.0774,3.008932
302.0295,3.009627
301.9816,3.010410
301.6258,3.041477
301.4926,3.054694
301.2227,3.077383
301.0112,3.097238
300.2799,3.146632
300.2794,3.141073
300.2788,3.135601
300.2783,3.130307
299.6704,3.198412
299.6704,3.198412
299.6697,3.191362
299.6690,3.184491
299.6683,3.177707
299.5057,3.202413
299.3412,3.206502
299.1769,3.210769
299.1769,3.210769
299.1470,3.216757
299.1067,3.222834
299.0612,3.229088
299.0612,3.229088
298.9839,3.230403
298.8962,3.231895
298.8033,3.233476
298.8033,3.233476
298.7732,3.236780
298.7328,3.240261
298.6871,3.243831
298.6871,3.243831
298.6568,3.244348
298.6160,3.245043
298.5701,3.245826
298.0831,3.286851
298.0827,3.282589
298.0823,3.278504
298.0819,3.274508
297.2497,3.334656
297.0583,3.346223
296.8569,3.357879
296.6507,3.369712
295.9396,3.410745
295.8640,3.412753
295.7782,3.414849
295.6875,3.419114
295.6874,3.418332
295.6873,3.417639
295.6873,3.417123
295.6873,3.417123
294.9808,3.458554
294.8326,3.466050
294.6292,3.478148
294.3907,3.491221
294.3907,3.491221
294.3221,3.496797
294.2485,3.502374
294.1648,3.507951
294.1648,3.507951
294.1194,3.508468
294.0740,3.509163
294.0286,3.509946
292.0497,3.580083
291.7299,3.582895
291.5793,3.583932
291.4684,3.584083
289.8660,3.543121
289.5851,3.536081
289.3145,3.529217
289.0493,3.522442
289.0493,3.522442
289.0060,3.519656
288.9675,3.516870
288.9388,3.514084
287.3446,3.497809
287.3170,3.503900
287.2798,3.510169
287.2379,3.516526
287.2379,3.516526
287.1291,3.520526
287.0156,3.524614
286.8925,3.528880
286.8925,3.528880
286.6053,3.529405
286.3090,3.530108
286.0087,3.530899
286.0087,3.530899
285.9811,3.534203
285.9440,3.537685
285.9022,3.541255
285.9022,3.541255
285.8371,3.543248
285.7674,3.545241
285.6881,3.547234
285.6881,3.547234
285.3042,3.565769
285.0205,3.578371
284.7939,3.588672
284.7939,3.588672
284.7665,3.591460
284.7297,3.594249
284.6881,3.597037
284.0094,3.609402
283.9821,3.611910
283.9455,3.614595
283.9041,3.617369
283.9041,3.617369
283.6921,3.621372
283.4756,3.625464
283.2502,3.629733
283.2502,3.629733
283.1865,3.633039
283.1181,3.636521
283.0404,3.640092
283.0404,3.640092
282.9717,3.646878
282.8936,3.653753
282.8109,3.660805
282.8109,3.660805
282.7473,3.662812
282.6790,3.664909
282.6015,3.667182
282.6015,3.667182
282.5745,3.669690
282.5382,3.672375
282.4973,3.675149
282.4973,3.675149
282.4283,3.676464
282.3500,3.677956
282.2672,3.679536
282.2672,3.679536
282.1354,3.679541
281.9945,3.679545
281.8502,3.691893
281.8498,3.687631
281.8494,3.683546
281.8491,3.679550
281.8491,3.679550
280.9776,3.708247
280.9510,3.711551
280.9152,3.715032
280.8748,3.718603
280.8748,3.718603
280.8120,3.720610
280.7447,3.722706
280.6682,3.724980
280.6682,3.724980
280.6000,3.725498
280.5227,3.726194
280.4409,3.726978
280.4409,3.726978
279.9457,3.726995
279.4523,3.727011
278.9607,3.727028
278.9607,3.727028
278.9196,3.725023
278.8785,3.722931
278.8375,3.720661
277.7769,3.696010
277.6979,3.694302
277.6189,3.691621
277.4722,3.685668
277.4722,3.685668
277.2906,3.681412
277.1137,3.677334
276.9460,3.673343
276.9460,3.673343
276.8310,3.671872
276.7250,3.670578
276.6236,3.669372
274.1501,3.642382
273.9727,3.645175
273.7955,3.647968
273.6186,3.650762
272.2114,3.675497
272.0161,3.675504
271.8167,3.675511
271.6098,3.683880
271.6095,3.681093
271.6093,3.678306
271.6091,3.675518
271.6091,3.675518
269.3988,3.687940
269.3612,3.685169
269.3278,3.682486
269.3028,3.679980
269.3028,3.679980
269.1614,3.675119
269.0623,3.670787
268.9208,3.663271
268.9208,3.663271
268.7875,3.658498
268.6543,3.653725
268.5212,3.648951
268.5212,3.648951
268.3703,3.639887
268.2914,3.634006
268.2165,3.626267
267.4218,3.589266
267.4212,3.580919
267.4205,3.572661
267.4198,3.564580
267.4198,3.564580
267.2888,3.561797
267.1621,3.559015
267.0438,3.556232
266.0673,3.486190
266.0304,3.481930
265.9977,3.477846
265.9733,3.473850
265.9733,3.473850
265.8222,3.469078
265.7208,3.465366
265.5823,3.459531
265.5823,3.459531
265.5132,3.453959
265.4524,3.448387
265.3958,3.442815
264.0521,3.451226
263.9601,3.455226
263.8642,3.459314
263.7602,3.463580
263.7602,3.463580
263.5773,3.468881
263.3905,3.474359
263.1961,3.481917
263.1961,3.481136
263.1960,3.480442
263.1960,3.479926
263.1960,3.479926
262.0746,3.511026
261.7976,3.512437
261.6249,3.512960
261.4086,3.513042
261.4086,3.513042
261.3419,3.510272
261.2832,3.507590
261.2285,3.505085
261.2285,3.505085
261.0366,3.503515
260.8529,3.502032
260.6735,3.500727
260.6735,3.500727
260.6372,3.493163
260.6009,3.485599
260.5646,3.478035
259.8345,3.469702
259.7994,3.465441
259.7682,3.461358
259.7449,3.457362
259.7449,3.457362
259.6792,3.456583
259.6214,3.455892
259.5676,3.455378
259.5676,3.455378
259.5318,3.450602
259.4960,3.445825
259.4603,3.441048
259.4603,3.441048
259.3363,3.438266
259.2124,3.435484
259.0887,3.432701
257.0879,3.362702
256.9519,3.358195
256.8123,3.354484
256.5496,3.348389
256.5496,3.348389
256.4853,3.345604
256.4288,3.342819
256.3761,3.340034
254.9299,3.292710
254.8962,3.290440
254.8663,3.288347
254.8440,3.286343
253.8721,3.247361
253.8388,3.246581
253.8092,3.245889
253.7873,3.245374
253.7873,3.245374
253.7538,3.241807
253.7241,3.238327
253.7019,3.235025
253.7019,3.235025
253.6052,3.231460
253.5161,3.227983
253.4308,3.224684
251.0849,3.156693
251.0521,3.153907
251.0231,3.151121
251.0014,3.148335
251.0014,3.148335
250.9093,3.146245
250.7290,3.140884
250.3065,3.127659
250.3065,3.127659
250.2740,3.124888
250.2452,3.122205
250.2237,3.119699
249.3695,3.099030
249.3089,3.097042
249.2555,3.095053
249.2058,3.093064
248.3579,3.062043
248.2075,3.056873
247.9890,3.050379
247.5161,3.036994
245.6748,2.983718
245.6746,2.980931
245.6744,2.978144
245.6742,2.975357
245.6742,2.975357
245.5362,2.974581
245.4053,2.973893
245.2782,2.973383
245.2782,2.973383
245.2465,2.971909
245.2148,2.970613
245.1831,2.969405
245.1831,2.969405
245.0730,2.967832
244.9666,2.966347
244.8673,2.965039
244.8673,2.965039
244.7773,2.963052
244.6944,2.961065
244.6150,2.959078
244.6150,2.959078
244.5566,2.956809
244.5053,2.954717
244.4574,2.952714
241.6340,2.977525
241.5568,2.979534
241.4764,2.981631
241.3891,2.983906
241.3891,2.983906
241.1710,2.992676
241.0683,2.996397
240.9926,2.998258
240.9926,2.998258
240.7032,3.001574
240.4145,3.005068
240.1265,3.008650
240.1265,3.008650
240.0175,3.014612
239.9588,3.017299
239.9001,3.019012
239.9001,3.019012
239.7943,3.020226
239.6887,3.021529
239.5832,3.023008
239.5832,3.023008
239.5336,3.025016
239.4773,3.027112
239.4178,3.029386
238.4144,3.054119
238.4144,3.054119
238.4142,3.052128
238.4141,3.050137
238.4140,3.048146
238.3692,3.056908
238.3207,3.059697
238.2656,3.062487
238.2656,3.062487
237.9164,3.071484
237.6933,3.076759
237.4048,3.082833
236.5651,3.107957
236.4917,3.109169
236.4183,3.110470
236.3450,3.111949
234.9759,3.155413
234.8307,3.160714
234.6825,3.166192
234.5281,3.173750
234.5281,3.172968
234.5280,3.172275
234.5280,3.171759
234.5280,3.171759
##END=
