##TITLE=Pyridine-1-oxide, 4-nitro-
##JCAMP-DX=4.24
##DATA TYPE=UV/VIS SPECTRUM
##ORIGIN=INSTITUTE OF ENERGY PROBLEMS OF CHEMICAL PHYSICS, RAS
##OWNER=INEP CP RAS, NIST OSRD
Collection (C) 2007 copyright by the U.S. Secretary of Commerce
on behalf of the United States of America. All rights reserved.
##CAS REGISTRY NO=1124-33-0
##MOLFORM=C5H4N2O3
##MP=160.5
##SOURCE REFERENCE=RAS UV No. 12087
##$NIST SQUIB=1955JAF4451
##$NIST SOURCE=TYUGLMTE
##SPECTROMETER/DATA SYSTEM=Beckman DU
##XUNITS=Wavelength (nm)
##YUNITS=Logarithm epsilon
##XFACTOR=1.0
##YFACTOR=1.0
##FIRSTX=200.79
##LASTX=360.41
##FIRSTY=3.548
##MAXX=360.41
##MINX=200.79
##MAXY=3.996
##MINY=2.983
##NPOINTS=146
##$REF AUTHOR=Jaffe, H.H.
##$REF JOURNAL=J. Am. Chem. Soc.
##$REF VOLUME=77
##$REF PAGE=4451
##$REF DATE=1955
##XYPOINTS=(XY..XY)
200.79,3.548
200.99,3.549
201.18,3.551
201.38,3.551
201.58,3.552
201.77,3.553
201.97,3.554
202.17,3.554
202.36,3.555
202.56,3.556
203.15,3.560
204.34,3.570
205.52,3.581
206.70,3.593
207.88,3.610
209.06,3.633
210.25,3.662
211.43,3.688
212.61,3.711
213.79,3.732
214.98,3.750
216.16,3.767
217.34,3.780
218.52,3.792
219.71,3.799
220.89,3.800
222.07,3.799
223.25,3.795
224.44,3.788
225.62,3.779
226.80,3.767
227.98,3.744
229.16,3.722
230.35,3.691
231.53,3.660
232.71,3.615
233.89,3.562
235.08,3.503
236.26,3.445
237.44,3.404
238.62,3.338
239.81,3.275
240.99,3.222
242.17,3.170
243.35,3.120
244.54,3.075
245.72,3.050
246.90,3.023
248.08,3.012
249.26,2.999
250.19,2.991
250.71,2.987
251.63,2.983
252.38,2.987
253.12,2.992
253.99,2.999
255.18,3.016
256.36,3.035
257.54,3.053
258.72,3.081
259.91,3.114
261.09,3.147
262.27,3.184
263.45,3.215
264.64,3.246
265.82,3.273
267.00,3.303
268.18,3.330
269.36,3.365
270.55,3.394
271.73,3.421
272.91,3.451
274.09,3.482
275.28,3.513
276.46,3.545
277.64,3.571
278.82,3.596
280.01,3.622
281.19,3.648
282.37,3.677
283.55,3.697
284.74,3.718
285.92,3.738
287.10,3.759
288.28,3.780
289.46,3.799
290.65,3.816
291.83,3.833
293.01,3.850
294.19,3.866
295.38,3.882
296.56,3.895
297.74,3.908
298.92,3.922
300.11,3.932
301.29,3.941
302.47,3.950
303.65,3.958
304.83,3.966
306.02,3.974
307.20,3.980
308.38,3.985
309.56,3.990
310.75,3.992
311.93,3.995
313.11,3.996
314.29,3.996
315.48,3.995
316.66,3.992
317.84,3.988
319.02,3.984
320.21,3.980
321.39,3.974
322.57,3.968
323.75,3.961
324.93,3.953
326.12,3.942
327.30,3.931
328.48,3.919
329.66,3.904
330.85,3.887
332.03,3.869
333.21,3.849
334.39,3.832
335.58,3.811
336.76,3.791
337.94,3.767
339.12,3.745
340.31,3.720
341.49,3.695
342.67,3.674
343.85,3.653
345.03,3.626
346.22,3.598
347.40,3.573
348.58,3.545
349.76,3.517
350.95,3.485
352.13,3.451
353.31,3.420
354.49,3.386
355.68,3.353
356.86,3.324
358.04,3.292
359.22,3.255
360.41,3.220
##END=
