##TITLE=5-Aminoisoquinoline
##JCAMP-DX=4.24
##DATA TYPE=UV/VIS SPECTRUM
##ORIGIN=INSTITUTE OF ENERGY PROBLEMS OF CHEMICAL PHYSICS, RAS
##OWNER=INEP CP RAS, NIST OSRD
Collection (C) 2007 copyright by the U.S. Secretary of Commerce
on behalf of the United States of America. All rights reserved.
##CAS REGISTRY NO=1125-60-6
##MOLFORM=C9H8N2
##MP=70
##BP=157(19)
##SOURCE REFERENCE=RAS UV No. 478
##$NIST SQUIB=1948STE/EWI3397-3406
##$NIST SOURCE=TSGMTE
##SPECTROMETER/DATA SYSTEM=n.i.g.
##XUNITS=Wavelength (nm)
##YUNITS=Logarithm epsilon
##XFACTOR=1.000000
##YFACTOR=1.000000
##FIRSTX=210.2087
##LASTX=456.0563
##FIRSTY=4.54347
##MAXX=456.056
##MINX=210.209
##MAXY=4.54347
##MINY=2.44887
##NPOINTS=540
##$REF AUTHOR=Steck, E.A.; Ewing, G.W.
##$REF TITLE=Absorption spectra of heterocyclic compounds. II. Amino-derivatives of pyridine, quinoline and isoquinoline
##$REF JOURNAL=J. Am. Chem. Soc.
##$REF VOLUME=70
##$REF PAGE=3397-3406
##$REF DATE=1948
##XYPOINTS=(XY..XY)
210.2087,4.543468
210.2154,4.540728
210.2217,4.538102
210.2280,4.535534
211.3409,4.501131
211.4855,4.492267
211.6150,4.483514
211.7370,4.474817
211.7370,4.474817
211.8710,4.473822
211.9975,4.472882
212.1089,4.472055
212.1089,4.472055
212.2468,4.465930
212.3699,4.459803
212.4856,4.453675
212.4856,4.453675
212.6196,4.452680
212.7461,4.451740
212.8576,4.450913
212.8576,4.450913
213.0021,4.442048
213.1316,4.433296
213.2536,4.424599
213.2536,4.424599
213.4903,4.422841
213.7270,4.421083
213.9637,4.419325
214.0153,4.398082
214.1513,4.392735
214.2724,4.387442
214.3858,4.382262
215.1669,4.347811
215.2395,4.344750
215.3048,4.341687
215.3553,4.338622
216.2991,4.305475
216.4370,4.299350
216.5601,4.293223
216.6759,4.287095
218.8379,4.258220
218.9829,4.254221
219.1624,4.251193
219.5303,4.246543
222.6671,4.240084
222.8181,4.239158
223.0865,4.238533
223.7022,4.237674
223.7022,4.237674
224.2242,4.241002
224.7390,4.244215
225.2392,4.247369
225.2392,4.247369
225.7678,4.247948
226.2892,4.248469
226.7961,4.248874
226.7961,4.248874
227.6088,4.242335
228.4216,4.235796
229.2344,4.229257
232.4284,4.199251
232.6485,4.195205
232.9135,4.190939
233.1578,4.186043
237.0318,4.149479
237.0362,4.147688
237.0406,4.145896
237.0449,4.144105
239.8577,4.120701
239.8864,4.119510
240.0729,4.117147
240.5771,4.111588
242.3578,4.089315
242.7679,4.084510
243.1780,4.079704
243.5882,4.074899
246.5445,4.060733
246.8854,4.061114
247.2408,4.061611
247.6035,4.062166
247.6035,4.062166
247.7643,4.064314
247.9248,4.066575
248.0851,4.068893
248.0851,4.068893
248.3586,4.069710
248.6467,4.070586
248.9419,4.071577
251.3263,4.087795
251.4436,4.092648
251.5659,4.095454
251.7980,4.098617
251.7980,4.098617
251.9633,4.099418
252.1358,4.100278
252.3228,4.101253
253.6652,4.122697
253.7554,4.127072
253.8528,4.131505
253.9647,4.136054
255.2901,4.150839
255.5162,4.153442
255.7421,4.156101
255.9678,4.158874
255.9678,4.158874
256.2388,4.160705
256.5246,4.162539
256.8177,4.164374
256.8177,4.164374
256.8576,4.165659
256.9123,4.166948
256.9743,4.168237
262.2231,4.139808
262.3657,4.135296
262.5006,4.130897
262.6206,4.126552
263.3423,4.102846
263.4848,4.098334
263.6198,4.093935
263.7398,4.089590
264.8396,4.060562
264.8463,4.057823
264.8527,4.055197
264.8589,4.052628
265.9588,4.023600
265.9632,4.021808
265.9675,4.020017
265.9719,4.018225
266.3679,3.991912
266.5019,3.990916
266.6284,3.989977
266.7399,3.989149
266.7399,3.989149
266.7465,3.986410
266.7529,3.983784
266.7592,3.981215
267.5141,3.957514
267.5227,3.953940
267.5313,3.950423
267.5396,3.947020
268.2743,3.917939
268.4146,3.914375
268.5475,3.910810
268.6656,3.907243
269.0685,3.878114
269.1411,3.875052
269.2063,3.871989
269.2568,3.868924
269.8682,3.835985
269.9433,3.831909
270.0108,3.827889
270.0634,3.823980
270.6754,3.790785
270.6859,3.786434
270.6965,3.782083
270.7071,3.777732
271.4819,3.745841
271.4906,3.742267
271.4992,3.738750
271.5074,3.735347
271.9165,3.703659
272.0427,3.702331
272.1372,3.698893
272.2808,3.690398
272.7106,3.663833
272.7237,3.658468
272.7366,3.653160
272.7492,3.647965
273.1652,3.613462
273.1718,3.610722
273.1782,3.608096
273.1844,3.605528
273.5805,3.579214
273.5915,3.574683
273.6022,3.570266
273.6128,3.565905
274.0557,3.533966
274.1284,3.530904
274.1936,3.527841
274.2441,3.524776
274.8492,3.494396
274.8602,3.489865
274.8710,3.485448
274.8816,3.481088
274.9457,3.454726
275.0726,3.453104
275.1721,3.447609
275.3293,3.433531
275.7191,3.409777
275.7321,3.404402
275.7452,3.399028
275.7583,3.393653
276.1875,3.367344
276.1962,3.363761
276.2049,3.360178
276.2136,3.356595
276.2777,3.330233
276.2865,3.326650
276.2952,3.323067
276.3039,3.319484
276.6875,3.298289
276.6961,3.294715
276.7047,3.291198
276.7130,3.287795
277.1553,3.256112
277.1640,3.252529
277.1727,3.248946
277.1814,3.245363
277.5905,3.213674
277.5948,3.211883
277.5992,3.210091
277.6036,3.208300
277.7000,3.168629
277.7979,3.178960
277.8739,3.183087
277.9933,3.184545
278.1097,3.136685
278.1184,3.133111
278.1270,3.129595
278.1353,3.126192
278.6099,3.081199
278.7361,3.079871
278.8305,3.076433
278.9742,3.067939
279.3770,3.038810
279.3881,3.034279
279.3988,3.029861
279.4094,3.025501
279.8455,2.996377
279.8585,2.991012
279.8714,2.985703
279.8841,2.980509
280.2801,2.954195
280.4327,2.939472
280.5001,2.929459
280.5400,2.915573
280.5400,2.915573
280.6759,2.913809
280.8043,2.912102
280.9176,2.910507
280.9176,2.910507
280.9906,2.907265
281.0560,2.904135
281.1066,2.901061
281.8807,2.869425
281.9577,2.864572
282.0273,2.859718
282.0822,2.854861
282.6942,2.821666
282.7691,2.817656
282.8364,2.813759
282.8887,2.809917
282.8887,2.809917
283.0614,2.807201
283.2337,2.804599
283.4059,2.802055
284.1577,2.779633
284.5472,2.775706
284.7347,2.772946
284.8808,2.768984
284.8808,2.768984
285.1175,2.767236
285.3540,2.765544
285.5903,2.763966
288.8661,2.754967
289.0324,2.755323
289.2059,2.755794
289.3940,2.756323
292.0742,2.787434
292.1675,2.790520
292.2682,2.793607
292.3837,2.796696
292.3837,2.796696
292.6117,2.798521
292.8397,2.800346
293.0676,2.802172
294.3976,2.828735
294.6799,2.837537
295.0753,2.848404
295.3555,2.858060
296.3036,2.891481
296.8805,2.906566
297.1331,2.912443
297.2777,2.914152
298.2388,2.942198
298.3575,2.944463
298.4430,2.948259
298.5684,2.956840
300.0149,2.990076
300.1703,2.994963
300.3330,2.999851
300.5105,3.004742
301.4716,3.032788
301.6921,3.037684
301.9126,3.042580
302.1331,3.047477
303.1011,3.072707
303.2073,3.074012
303.3282,3.075376
303.4562,3.076855
303.4562,3.076855
303.5444,3.082064
303.6396,3.087388
303.7495,3.092771
304.8834,3.118026
305.1316,3.124169
305.2583,3.128701
305.3721,3.135507
306.7083,3.159510
306.9003,3.166527
307.1067,3.173659
307.3205,3.180849
308.4606,3.203544
308.8295,3.211136
309.0526,3.214952
309.3212,3.218263
310.4483,3.246332
310.6755,3.251998
310.8074,3.254407
310.9569,3.255623
312.0908,3.280878
312.1287,3.283007
312.1810,3.285253
312.2406,3.287556
312.2406,3.287556
312.3479,3.288415
312.4698,3.289391
312.5989,3.290424
313.8987,3.315703
314.2181,3.321391
314.5448,3.327137
314.8859,3.332999
315.8595,3.355927
316.2343,3.363614
316.4988,3.368100
316.8799,3.373228
318.5085,3.399834
318.5464,3.401964
318.5987,3.404209
318.6583,3.406513
318.6583,3.406513
318.8203,3.408660
318.9894,3.410923
319.1732,3.413244
320.6653,3.441367
320.7032,3.443496
320.7555,3.445742
320.8151,3.448045
320.8151,3.448045
321.2941,3.452846
321.4698,3.454929
321.4928,3.456080
323.3231,3.481691
323.9123,3.489211
324.1286,3.492296
324.1574,3.493589
326.1667,3.513850
326.6039,3.519176
327.1082,3.524170
327.5253,3.528640
330.9193,3.552941
331.3587,3.553782
331.8127,3.554682
332.2739,3.555698
336.0778,3.561624
336.8744,3.561739
337.6710,3.561854
338.4676,3.561970
341.6068,3.554487
341.7560,3.554309
342.0262,3.552954
342.6488,3.549261
345.4485,3.531232
345.6821,3.530763
345.9155,3.530351
346.1486,3.530053
346.1486,3.530053
346.4069,3.528013
346.6340,3.526652
347.0247,3.524803
349.9940,3.505262
350.7919,3.505377
351.5970,3.505494
352.4170,3.505612
356.2008,3.506160
356.6655,3.506227
357.1302,3.506294
357.5948,3.506361
361.7043,3.509516
362.4013,3.509616
363.0983,3.509717
363.7954,3.509818
367.2404,3.513132
368.0370,3.513248
368.8336,3.513363
369.6302,3.513478
373.4471,3.514030
374.1208,3.514127
374.8092,3.514227
375.5050,3.514328
379.2956,3.512059
379.9693,3.512157
380.6577,3.512256
381.3535,3.512357
385.5217,3.505023
385.6989,3.503958
386.1504,3.502364
387.2632,3.498874
391.0831,3.484577
391.6204,3.481582
392.1503,3.478586
392.6655,3.475588
396.3381,3.453589
396.7000,3.450901
397.0469,3.448324
397.3863,3.445804
400.1928,3.424959
400.3555,3.422783
400.7585,3.418877
401.2836,3.413340
404.1001,3.388400
404.1413,3.387117
404.4155,3.384103
405.1576,3.376776
407.9872,3.346462
408.0411,3.345028
408.4039,3.340965
409.3866,3.330790
411.1642,3.309797
411.2069,3.308409
411.4915,3.304667
412.2618,3.295362
414.3806,3.270578
414.4514,3.268293
414.5146,3.266065
414.5628,3.263948
414.5628,3.263948
414.8171,3.261007
415.0020,3.259308
415.2760,3.257394
415.2760,3.257394
415.3455,3.255612
415.4076,3.253829
415.4550,3.252043
417.2388,3.228491
417.4755,3.226733
417.7122,3.224975
417.9489,3.223217
417.9489,3.223217
417.9532,3.221435
417.9574,3.219709
417.9614,3.218098
417.9614,3.218098
418.1981,3.216340
418.4348,3.214582
418.6714,3.212824
420.8003,3.183945
420.9307,3.180891
421.0463,3.177836
421.1546,3.174779
422.9421,3.149691
423.1842,3.145705
423.4261,3.141833
423.6678,3.138018
425.4616,3.110371
425.4904,3.109123
425.6779,3.106362
426.1847,3.099722
426.1847,3.099722
426.1891,3.097940
426.1932,3.096215
426.1972,3.094603
427.9878,3.068235
428.3787,3.059710
428.6579,3.054640
429.0647,3.048677
430.4809,3.026095
430.8815,3.017619
431.0739,3.012868
431.2228,3.007769
433.3578,2.976330
433.5003,2.971818
433.6352,2.967419
433.7553,2.963074
435.5714,2.926213
435.6972,2.925083
435.7882,2.923039
435.9226,2.918326
435.9226,2.918326
436.0567,2.917331
436.1831,2.916392
436.2946,2.915564
436.2946,2.915564
436.2990,2.913772
436.3033,2.911981
436.3077,2.910189
438.4558,2.873376
438.5284,2.870314
438.5936,2.867251
438.6441,2.864186
438.6441,2.864186
439.0359,2.859321
439.2249,2.855964
439.3729,2.851234
440.6425,2.820694
440.7953,2.819028
441.0763,2.813228
441.7262,2.798321
443.1880,2.770625
443.3412,2.763772
443.5343,2.758689
443.9330,2.751019
445.0360,2.720711
445.1824,2.719139
445.4188,2.713996
445.9475,2.700872
447.2164,2.670589
447.5324,2.663029
447.8407,2.655583
448.1342,2.648191
449.4369,2.617656
449.6873,2.609755
449.9304,2.601854
450.1586,2.593950
451.2517,2.567737
451.4994,2.561448
451.7468,2.555273
451.9941,2.549154
453.4722,2.514804
453.6082,2.509457
453.7292,2.504164
453.8427,2.498984
454.9426,2.469956
455.1689,2.466404
455.4473,2.459617
455.6844,2.451629
455.6844,2.451629
455.8184,2.450634
455.9449,2.449694
456.0563,2.448867
##END=
