##TITLE=4-Hydroxybenzophenone
##JCAMP-DX=4.24
##DATA TYPE=UV/VIS SPECTRUM
##ORIGIN=INSTITUTE OF ENERGY PROBLEMS OF CHEMICAL PHYSICS, RAS
##OWNER=INEP CP RAS, NIST OSRD
Collection (C) 2007 copyright by the U.S. Secretary of Commerce
on behalf of the United States of America. All rights reserved.
##CAS REGISTRY NO=1137-42-4
##MOLFORM=C13H10O2
##MP=135
##SOURCE REFERENCE=RAS UV No. 3878
##$NIST SQUIB=1953GRA865-872
##$NIST SOURCE=TSGMTE
##SPECTROMETER/DATA SYSTEM=n.i.g.
##XUNITS=Wavelength (nm)
##YUNITS=Logarithm epsilon
##XFACTOR=1.000000
##YFACTOR=1.000000
##FIRSTX=386.7681
##LASTX=245.3846
##FIRSTY=0.481958
##MAXX=386.768
##MINX=245.385
##MAXY=4.14074
##MINY=0.481958
##NPOINTS=172
##$REF AUTHOR=Grammaticakis, P.
##$REF TITLE=Contribution a l'etude de l'absorption dans l'U.-V. moyen et le visible des composes carbonyles aromatiques et de leurs derives. (2^e memoire)
##$REF JOURNAL=Bull. Soc. Chim. Fr.
##$REF VOLUME=20
##$REF PAGE=865-872
##$REF DATE=1953
##XYPOINTS=(XY..XY)
386.7681,0.481958
386.5507,0.515132
386.2751,0.548353
385.9497,0.581586
385.5828,0.614834
385.1825,0.648087
384.7571,0.681341
384.3147,0.714598
383.8635,0.747831
383.4114,0.781044
382.9663,0.814228
382.5361,0.847369
382.1286,0.880476
381.7516,0.913528
381.4126,0.946521
381.1194,0.979448
380.8796,1.012301
380.7007,1.045076
380.7007,1.045076
380.2153,1.067974
379.6793,1.106616
379.1964,1.129513
379.1964,1.129513
378.8420,1.162845
378.4599,1.196243
378.0536,1.229697
377.6267,1.263191
377.1826,1.296713
376.7249,1.330247
376.2571,1.363781
375.7825,1.397302
375.3046,1.430796
374.8268,1.464247
374.3522,1.497644
373.8844,1.530972
373.4264,1.564217
372.9816,1.597367
372.5531,1.630408
372.1442,1.663325
372.1442,1.663325
371.7635,1.677499
371.4053,1.699942
371.0260,1.714117
371.0260,1.714117
370.5683,1.752727
370.0893,1.783944
369.4768,1.822242
368.6202,1.882097
368.6202,1.882097
367.9719,1.913889
367.0792,1.969826
366.3191,2.004339
366.3191,2.004339
365.6405,2.046047
365.0617,2.080259
364.5447,2.109427
364.0518,2.136003
363.5457,2.162439
362.9899,2.191186
362.3479,2.224697
361.5841,2.265422
360.6637,2.315815
360.6637,2.315815
359.9099,2.344784
358.6019,2.404442
357.3034,2.464100
356.5635,2.493070
356.5635,2.493070
355.7369,2.532079
354.9043,2.571052
354.0692,2.609951
353.2346,2.648737
353.2346,2.648737
351.8699,2.679899
350.3766,2.711064
348.7973,2.742260
347.1733,2.773513
345.5446,2.804848
343.9497,2.836293
342.4256,2.867872
341.0081,2.899613
339.7321,2.931542
338.6314,2.963685
337.7395,2.996068
337.7395,2.996068
337.3740,3.000588
337.0092,3.005017
336.6449,3.009267
336.6449,3.009267
335.6250,3.041140
334.6110,3.073018
333.6032,3.104900
332.6017,3.136783
331.6070,3.168665
330.6192,3.200542
329.6386,3.232412
328.6654,3.264273
327.6999,3.296122
326.7423,3.327957
325.7929,3.359775
324.8518,3.391573
323.9192,3.423350
322.9955,3.455102
322.0806,3.486826
321.1750,3.518521
320.2787,3.550184
320.2787,3.550184
320.1430,3.561698
319.8523,3.572803
319.6264,3.585959
319.6264,3.585959
318.7707,3.619486
317.9262,3.652777
317.0878,3.685841
316.2507,3.718688
315.4100,3.751329
314.5612,3.783772
313.6996,3.816029
312.8209,3.848109
311.9205,3.880023
310.9943,3.911781
310.0383,3.943393
309.0483,3.974868
308.0205,4.006217
308.0205,4.006217
304.5842,4.058112
303.0224,4.080898
301.9500,4.094107
301.9500,4.094107
300.7496,4.102320
300.1266,4.108479
299.5421,4.117866
299.5421,4.117866
295.3337,4.130945
293.7507,4.136876
293.3574,4.140741
293.3574,4.140741
291.4480,4.139052
289.5519,4.134551
287.6764,4.127513
285.8285,4.118209
284.0148,4.106915
282.2414,4.093901
280.5143,4.079442
278.8392,4.063811
277.2214,4.047280
275.6659,4.030124
274.1778,4.012615
274.1778,4.012615
273.5427,3.992588
272.4298,3.972101
271.2977,3.954951
271.2977,3.954951
270.3525,3.927455
268.8562,3.901601
267.1637,3.878253
265.6155,3.858273
265.6155,3.858273
262.6558,3.834905
261.1473,3.823594
260.5046,3.816092
260.5046,3.816092
258.8423,3.813661
257.2378,3.811422
255.6813,3.809804
254.1633,3.809233
252.6748,3.810138
251.2070,3.812948
249.7518,3.818091
248.3013,3.825994
246.8479,3.837086
245.3846,3.851795
##END=
