##TITLE=2,2':6',2"-Terpyridine
##JCAMP-DX=4.24
##DATA TYPE=UV/VIS SPECTRUM
##ORIGIN=INSTITUTE OF ENERGY PROBLEMS OF CHEMICAL PHYSICS, RAS
##OWNER=INEP CP RAS, NIST OSRD
Collection (C) 2007 copyright by the U.S. Secretary of Commerce
on behalf of the United States of America. All rights reserved.
##CAS REGISTRY NO=1148-79-4
##MOLFORM=C15H11N3
##MP=80-82
##SOURCE REFERENCE=RAS UV No. 12783
##$NIST SQUIB=1956MAR/LIS938
##$NIST SOURCE=TYUGLMTE
##SPECTROMETER/DATA SYSTEM=Beckman DU
##XUNITS=Wavelength (nm)
##YUNITS=Logarithm epsilon
##XFACTOR=1.0
##YFACTOR=1.0
##FIRSTX=250.82
##LASTX=336.44
##FIRSTY=3.964
##MAXX=336.44
##MINX=250.82
##MAXY=4.207
##MINY=3.102
##NPOINTS=99
##$REF AUTHOR=Martin, R.B.; Lissfelt, J.A.
##$REF JOURNAL=J. Am. Chem. Soc.
##$REF VOLUME=78
##$REF PAGE=938
##$REF DATE=1956
##XYPOINTS=(XY..XY)
250.82,3.964
250.98,3.964
251.47,3.964
251.63,3.964
251.79,3.964
251.96,3.964
252.12,3.962
252.28,3.962
252.45,3.962
252.61,3.962
252.77,3.962
252.94,3.962
253.10,3.962
253.26,3.962
254.08,3.961
254.89,3.962
255.71,3.964
256.48,3.966
257.34,3.970
258.97,3.982
260.60,3.996
262.23,4.013
263.05,4.025
263.74,4.035
264.71,4.047
265.50,4.059
266.31,4.072
267.13,4.088
267.94,4.102
268.76,4.119
269.58,4.132
270.42,4.142
271.39,4.152
272.02,4.158
272.88,4.165
273.65,4.171
274.47,4.176
275.29,4.180
276.64,4.187
277.73,4.190
279.36,4.198
281.00,4.202
282.63,4.206
284.26,4.207
285.07,4.207
286.70,4.206
287.52,4.206
288.34,4.203
289.97,4.198
290.78,4.193
291.60,4.189
292.41,4.185
293.23,4.181
294.04,4.175
294.60,4.171
295.45,4.163
296.49,4.148
297.12,4.140
298.00,4.126
298.97,4.109
299.67,4.094
300.41,4.074
301.00,4.059
301.78,4.037
303.02,4.008
303.83,3.986
304.65,3.961
305.46,3.940
306.28,3.910
307.10,3.881
307.91,3.852
308.73,3.823
309.54,3.792
310.45,3.754
311.99,3.695
312.73,3.665
313.55,3.634
314.44,3.593
315.05,3.564
315.84,3.526
316.48,3.491
317.23,3.454
318.19,3.406
319.33,3.346
320.15,3.313
320.82,3.289
321.65,3.254
322.59,3.225
324.23,3.186
325.04,3.176
327.49,3.147
329.12,3.137
330.26,3.131
331.34,3.128
332.46,3.124
334.01,3.116
334.86,3.110
335.64,3.105
336.44,3.102
##END=
