##TITLE=1,2-Diphenyltetramethyldisilane
##JCAMP-DX=4.24
##DATA TYPE=UV/VIS SPECTRUM
##ORIGIN=INSTITUTE OF ENERGY PROBLEMS OF CHEMICAL PHYSICS, RAS
##OWNER=INEP CP RAS, NIST OSRD
Collection (C) 2007 copyright by the U.S. Secretary of Commerce
on behalf of the United States of America. All rights reserved.
##CAS REGISTRY NO=1145-98-8
##MOLFORM=C16H22Si2
##MP=34-35
##SOURCE REFERENCE=RAS UV No. 19035
##$NIST SQUIB=1971LAN391
##$NIST SOURCE=TYUGLMTE
##SPECTROMETER/DATA SYSTEM=Spektromom 201
##XUNITS=Wavelength (nm)
##YUNITS=Logarithm epsilon
##XFACTOR=1.0
##YFACTOR=1.0
##FIRSTX=202.37
##LASTX=281.94
##FIRSTY=4.566
##MAXX=281.94
##MINX=202.37
##MAXY=4.566
##MINY=1.308
##NPOINTS=107
##$REF AUTHOR=Lang (editor), L.
##$REF JOURNAL=Absorption Spectra in the Ultraviolet and Visible Region
##$REF VOLUME=15
##$REF PAGE=391
##$REF DATE=1971
##XYPOINTS=(XY..XY)
202.37,4.566
203.39,4.545
204.23,4.522
205.08,4.498
205.93,4.474
206.77,4.450
207.79,4.427
208.63,4.403
209.65,4.379
210.50,4.355
211.34,4.332
212.19,4.304
213.04,4.277
213.71,4.250
214.22,4.223
215.07,4.199
215.58,4.172
216.08,4.145
216.76,4.118
217.27,4.091
218.12,4.064
219.13,4.043
220.66,4.036
221.84,4.053
223.03,4.074
223.87,4.101
224.89,4.121
225.73,4.148
226.75,4.169
227.77,4.192
228.78,4.216
229.97,4.237
231.15,4.257
232.34,4.277
233.69,4.294
235.22,4.301
236.57,4.311
238.09,4.308
239.45,4.298
240.63,4.281
241.65,4.260
242.66,4.240
243.68,4.216
244.70,4.196
245.54,4.169
246.39,4.145
247.24,4.121
247.91,4.094
248.76,4.070
249.44,4.043
250.28,4.016
250.79,3.986
251.30,3.958
251.98,3.931
252.48,3.904
252.99,3.877
253.67,3.850
254.18,3.819
254.69,3.792
255.19,3.765
255.70,3.738
256.21,3.711
256.72,3.684
257.22,3.656
257.73,3.629
258.24,3.602
258.75,3.575
259.43,3.548
259.93,3.521
260.44,3.494
261.12,3.466
261.63,3.436
262.13,3.409
262.81,3.382
263.32,3.354
264.00,3.327
264.50,3.300
265.01,3.270
265.52,3.242
266.03,3.215
266.54,3.188
267.04,3.161
267.55,3.134
268.06,3.103
268.57,3.076
269.08,3.046
269.58,3.015
269.92,2.985
270.43,2.957
270.94,2.930
271.62,2.873
272.12,2.842
272.46,2.812
272.80,2.781
273.14,2.750
273.65,2.720
273.99,2.689
277.37,2.313
277.88,2.238
278.39,2.170
278.90,2.079
279.40,1.977
279.91,1.841
280.42,1.722
280.93,1.590
281.44,1.448
281.94,1.308
##END=
