##TITLE=9,10-Anthracenedione, 1,5-dihydroxy-
##JCAMP-DX=4.24
##DATA TYPE=UV/VIS SPECTRUM
##ORIGIN=INSTITUTE OF ENERGY PROBLEMS OF CHEMICAL PHYSICS, RAS
##OWNER=INEP CP RAS, NIST OSRD
Collection (C) 2007 copyright by the U.S. Secretary of Commerce
on behalf of the United States of America. All rights reserved.
##CAS REGISTRY NO=117-12-4
##MOLFORM=C14H8O4
##MP=280
##BP=sub.
##SOURCE REFERENCE=RAS UV No. 20235
##$NIST SQUIB=1969BOL/338
##$NIST SOURCE=TYUGLMTE
##SPECTROMETER/DATA SYSTEM=unknown
##XUNITS=Wavelength (nm)
##YUNITS=Logarithm epsilon
##XFACTOR=1.0
##YFACTOR=1.0
##FIRSTX=221.49
##LASTX=468.92
##FIRSTY=4.867
##MAXX=468.92
##MINX=221.49
##MAXY=4.96
##MINY=2.852
##NPOINTS=277
##$REF AUTHOR=Bolshakov, G.F.; et al.
##$REF JOURNAL=Ultraviolet Spectra of Heteroorganic Compounds
##$REF PAGE=338
##$REF DATE=1969
##XYPOINTS=(XY..XY)
221.49,4.867
221.65,4.871
221.82,4.876
221.98,4.880
222.15,4.884
222.31,4.888
222.48,4.892
222.64,4.896
222.81,4.900
222.98,4.905
223.14,4.909
223.31,4.913
223.47,4.917
223.61,4.920
223.77,4.924
223.98,4.929
224.13,4.934
224.30,4.938
224.46,4.942
224.64,4.947
224.79,4.950
224.96,4.954
225.12,4.959
225.29,4.960
225.45,4.959
225.62,4.954
225.73,4.951
225.93,4.941
226.12,4.934
226.93,4.898
227.13,4.890
227.27,4.884
227.44,4.876
227.93,4.842
228.93,4.768
229.92,4.676
230.91,4.602
231.90,4.490
232.89,4.436
233.88,4.378
234.88,4.332
235.61,4.300
236.63,4.262
237.85,4.220
238.84,4.200
239.83,4.187
240.83,4.187
241.82,4.200
242.81,4.212
243.80,4.224
244.77,4.235
245.78,4.249
246.78,4.266
247.77,4.282
248.76,4.294
249.75,4.299
250.74,4.303
251.74,4.303
252.73,4.303
253.70,4.297
254.71,4.282
255.70,4.262
256.69,4.241
257.69,4.220
258.68,4.208
259.61,4.194
260.66,4.175
261.65,4.154
262.64,4.137
263.64,4.125
264.63,4.108
265.58,4.099
266.61,4.088
267.60,4.075
268.51,4.065
269.59,4.054
270.58,4.046
271.57,4.034
272.56,4.017
273.55,4.005
274.54,3.988
275.54,3.967
276.53,3.955
277.52,3.951
278.51,3.971
279.50,3.984
280.50,3.976
281.49,3.955
282.48,3.951
283.47,3.963
284.46,3.984
285.47,3.987
286.48,3.983
287.44,3.967
288.43,3.934
289.42,3.897
290.41,3.859
291.20,3.823
292.15,3.784
293.23,3.721
294.38,3.619
295.37,3.511
296.36,3.395
297.35,3.320
298.35,3.250
299.34,3.196
300.33,3.138
301.32,3.092
302.31,3.055
303.31,3.026
304.01,3.005
305.29,2.968
306.09,2.947
307.27,2.918
308.26,2.901
309.26,2.881
310.25,2.864
311.24,2.860
312.23,2.856
313.22,2.852
314.21,2.852
315.21,2.856
316.20,2.860
317.19,2.872
318.18,2.885
319.17,2.897
320.29,2.914
321.16,2.930
322.15,2.951
323.14,2.972
324.13,2.984
325.12,3.001
326.11,3.013
327.11,3.026
328.10,3.042
329.09,3.063
330.08,3.080
331.07,3.100
332.07,3.117
333.06,3.125
334.05,3.142
335.04,3.163
336.03,3.179
337.07,3.193
338.02,3.208
339.01,3.221
340.00,3.241
340.99,3.254
341.88,3.269
342.97,3.287
343.95,3.298
344.96,3.312
345.95,3.324
346.94,3.341
347.89,3.356
348.92,3.370
349.92,3.387
350.91,3.395
351.90,3.411
352.89,3.420
354.00,3.435
354.87,3.445
355.87,3.453
356.86,3.470
357.85,3.482
358.81,3.494
359.83,3.503
360.83,3.511
361.82,3.528
362.81,3.536
363.72,3.549
364.79,3.557
365.78,3.569
366.89,3.581
367.77,3.590
368.76,3.598
369.75,3.611
370.74,3.619
371.73,3.627
372.73,3.635
373.72,3.648
374.71,3.656
375.70,3.669
376.69,3.677
377.68,3.681
378.68,3.689
379.67,3.693
380.66,3.706
381.65,3.714
382.61,3.721
383.63,3.731
384.63,3.735
385.56,3.742
386.61,3.747
387.60,3.752
388.59,3.756
389.59,3.764
390.58,3.768
391.46,3.773
392.56,3.776
393.55,3.785
394.54,3.789
395.54,3.793
396.48,3.796
397.52,3.797
398.51,3.801
399.50,3.805
400.49,3.805
401.48,3.808
402.48,3.818
403.47,3.830
404.46,3.843
405.45,3.851
406.44,3.864
407.59,3.874
408.43,3.884
409.42,3.888
410.41,3.897
411.40,3.901
412.39,3.909
413.40,3.915
414.38,3.922
415.37,3.926
416.36,3.926
417.35,3.926
418.35,3.926
419.34,3.930
420.33,3.933
421.32,3.934
422.31,3.934
423.30,3.938
424.30,3.934
425.29,3.934
426.28,3.930
427.27,3.926
428.26,3.926
429.25,3.922
430.06,3.916
431.24,3.913
432.23,3.909
433.22,3.901
434.21,3.897
435.20,3.893
436.20,3.884
437.11,3.876
438.18,3.864
439.13,3.856
440.16,3.847
441.08,3.840
442.15,3.826
442.76,3.819
444.13,3.801
445.12,3.793
446.11,3.781
447.11,3.772
448.10,3.756
449.09,3.739
450.08,3.727
451.07,3.710
451.93,3.691
453.06,3.669
454.05,3.648
455.04,3.627
456.03,3.606
457.02,3.586
458.01,3.561
459.01,3.540
460.04,3.517
460.99,3.486
461.98,3.453
462.97,3.420
463.96,3.391
464.96,3.353
465.95,3.316
466.94,3.275
467.93,3.229
468.92,3.179
##END=
