##TITLE=1,4-Naphthalenedione, 2,3-dichloro-
##JCAMP-DX=4.24
##DATA TYPE=UV/VIS SPECTRUM
##ORIGIN=INSTITUTE OF ENERGY PROBLEMS OF CHEMICAL PHYSICS, RAS
##OWNER=INEP CP RAS, NIST OSRD
Collection (C) 2007 copyright by the U.S. Secretary of Commerce
on behalf of the United States of America. All rights reserved.
##CAS REGISTRY NO=117-80-6
##MOLFORM=C10H4Cl2O2
##MP=194
##SOURCE REFERENCE=RAS UV No. 18950
##$NIST SQUIB=1976KOP6
##$NIST SOURCE=TYUGLMTE
##SPECTROMETER/DATA SYSTEM=SF-16
##XUNITS=Wavelength (nm)
##YUNITS=Logarithm epsilon
##XFACTOR=1.0
##YFACTOR=1.0
##FIRSTX=201.61
##LASTX=395.66
##FIRSTY=4.41
##MAXX=395.66
##MINX=201.61
##MAXY=4.41
##MINY=2.048
##NPOINTS=179
##$REF AUTHOR=(editor), Koptyug V.A.
##$REF JOURNAL=Atlas of Spectra of Aromatic and Heterocyclic Compounds
##$REF VOLUME=10
##$REF PAGE=6
##$REF DATE=1976
##XYPOINTS=(XY..XY)
201.61,4.410
202.14,4.399
202.68,4.357
203.75,4.335
204.82,4.314
205.90,4.288
206.97,4.266
208.04,4.224
209.11,4.197
210.19,4.171
211.26,4.155
212.33,4.128
213.40,4.107
214.47,4.081
215.55,4.054
216.62,4.028
217.69,4.006
218.76,3.980
219.83,3.959
220.91,3.932
221.98,3.900
223.05,3.874
224.12,3.847
225.19,3.831
226.27,3.815
227.34,3.799
228.41,3.794
229.48,3.799
230.56,3.815
231.63,3.821
232.70,3.826
233.77,3.847
234.84,3.879
235.92,3.911
236.99,3.943
238.06,3.980
239.13,4.001
240.20,4.028
241.28,4.054
242.35,4.081
243.42,4.097
244.49,4.102
245.56,4.081
246.64,4.070
247.71,4.065
248.78,4.070
249.85,4.081
250.93,4.086
252.00,3.969
253.07,3.911
254.14,3.874
255.21,3.858
256.29,3.852
257.36,3.852
258.43,3.863
259.50,3.879
260.57,3.900
261.65,3.927
262.72,3.953
263.79,3.985
264.86,4.017
265.94,4.049
267.01,4.075
268.08,4.102
269.15,4.128
270.22,4.150
271.30,4.166
272.37,4.182
273.44,4.192
274.51,4.203
275.58,4.208
276.66,4.213
277.73,4.219
278.80,4.213
279.87,4.187
280.94,4.144
282.02,4.102
283.09,4.049
284.16,3.996
285.23,3.953
286.31,3.863
287.38,3.789
288.45,3.730
290.59,3.576
291.67,3.481
292.74,3.401
293.81,3.343
294.88,3.284
295.95,3.237
297.03,3.189
298.10,3.136
299.17,3.109
300.24,3.088
301.31,3.083
302.39,3.077
303.46,3.077
304.53,3.083
305.60,3.088
306.68,3.104
307.75,3.125
308.82,3.136
309.89,3.157
310.96,3.168
312.04,3.184
313.11,3.205
314.18,3.226
315.25,3.237
316.32,3.258
320.61,3.295
321.69,3.316
322.76,3.332
323.83,3.343
324.90,3.364
325.97,3.369
327.05,3.391
328.12,3.396
329.19,3.407
330.26,3.417
331.33,3.422
332.41,3.438
333.48,3.438
334.55,3.444
335.62,3.449
336.69,3.454
337.77,3.460
338.84,3.460
339.91,3.460
340.98,3.460
342.06,3.454
343.13,3.444
344.20,3.438
345.27,3.438
346.34,3.433
347.42,3.422
348.49,3.412
349.56,3.407
350.63,3.391
351.70,3.380
352.78,3.364
353.85,3.353
354.92,3.338
355.99,3.322
357.06,3.306
358.14,3.290
359.21,3.274
360.28,3.258
361.35,3.237
362.43,3.215
363.50,3.200
364.57,3.184
365.64,3.157
366.71,3.136
367.79,3.115
368.86,3.083
369.93,3.072
371.00,3.067
372.07,3.051
373.15,3.030
374.22,3.003
375.29,2.977
376.36,2.955
377.44,2.929
378.51,2.881
379.58,2.839
380.65,2.801
381.72,2.754
382.80,2.722
383.87,2.685
384.94,2.594
386.01,2.547
387.08,2.494
388.16,2.403
389.23,2.350
390.30,2.265
391.37,2.212
392.44,2.175
393.52,2.143
394.59,2.106
395.66,2.048
##END=
