##TITLE=Benzoic acid, 2-hydroxy-, ethyl ester
##JCAMP-DX=4.24
##DATA TYPE=UV/VIS SPECTRUM
##ORIGIN=INSTITUTE OF ENERGY PROBLEMS OF CHEMICAL PHYSICS, RAS
##OWNER=INEP CP RAS, NIST OSRD
Collection (C) 2007 copyright by the U.S. Secretary of Commerce
on behalf of the United States of America. All rights reserved.
##CAS REGISTRY NO=118-61-6
##MOLFORM=C9H10O3
##BP=234
##SOURCE REFERENCE=RAS UV No. 19630
##$NIST SQUIB=1965LAN57
##$NIST SOURCE=TYUGLMTE
##SPECTROMETER/DATA SYSTEM=Unicam SP 500
##XUNITS=Wavelength (nm)
##YUNITS=Logarithm epsilon
##XFACTOR=1.0
##YFACTOR=1.0
##FIRSTX=208.94
##LASTX=345.44
##FIRSTY=4.235
##MAXX=345.44
##MINX=208.94
##MAXY=4.235
##MINY=1.212
##NPOINTS=232
##$REF AUTHOR=Lang (editor), L.
##$REF JOURNAL=Absorption Spectra in the Ultraviolet and Visible Region
##$REF VOLUME=5
##$REF PAGE=57
##$REF DATE=1965
##XYPOINTS=(XY..XY)
208.94,4.235
210.12,4.214
210.97,4.190
211.98,4.167
212.65,4.139
213.50,4.115
214.00,4.088
214.51,4.061
215.02,4.033
215.52,4.003
216.03,3.972
216.37,3.941
216.70,3.910
217.04,3.880
217.38,3.849
217.72,3.818
217.88,3.787
218.22,3.757
218.56,3.726
219.23,3.699
219.91,3.671
221.09,3.651
222.61,3.641
223.96,3.651
225.31,3.668
226.49,3.685
227.67,3.702
228.51,3.726
229.53,3.746
230.54,3.770
231.55,3.791
232.39,3.818
233.41,3.839
234.42,3.863
235.43,3.886
236.61,3.907
237.79,3.924
239.14,3.938
240.66,3.938
241.84,3.921
242.86,3.900
243.70,3.876
244.54,3.852
245.05,3.825
245.55,3.798
246.06,3.767
246.40,3.736
246.74,3.705
247.07,3.675
247.41,3.644
247.58,3.613
247.92,3.582
248.09,3.552
248.42,3.521
248.59,3.490
248.93,3.460
249.10,3.429
249.44,3.398
249.60,3.367
249.94,3.337
250.11,3.306
250.62,3.279
250.79,3.248
251.12,3.217
251.29,3.186
251.46,3.156
251.80,3.125
252.14,3.094
252.30,3.063
252.47,3.033
252.81,3.002
252.98,2.971
253.32,2.940
253.65,2.910
253.82,2.879
253.99,2.848
254.33,2.817
254.50,2.787
254.83,2.756
255.17,2.725
255.34,2.694
255.51,2.664
255.85,2.633
256.02,2.602
256.35,2.571
256.69,2.541
257.03,2.510
257.37,2.479
257.70,2.448
258.21,2.421
258.72,2.394
259.39,2.367
260.23,2.339
261.08,2.315
262.43,2.298
263.78,2.315
264.62,2.343
265.46,2.370
265.97,2.397
266.65,2.425
267.15,2.452
267.99,2.479
268.50,2.507
269.18,2.534
269.85,2.561
270.36,2.589
271.20,2.616
271.71,2.647
272.55,2.674
273.06,2.701
273.73,2.729
274.58,2.756
275.08,2.783
275.76,2.811
276.43,2.838
277.11,2.865
277.78,2.893
278.46,2.920
279.13,2.947
279.64,2.975
280.48,3.002
281.16,3.029
281.83,3.056
282.67,3.084
283.18,3.111
284.02,3.138
284.70,3.166
285.54,3.193
286.22,3.220
287.23,3.244
287.90,3.272
288.58,3.299
289.42,3.326
290.27,3.354
291.11,3.378
291.95,3.405
292.97,3.425
293.98,3.446
294.99,3.470
296.00,3.490
297.18,3.507
298.36,3.524
299.55,3.542
300.73,3.559
302.08,3.572
303.60,3.579
304.95,3.589
306.46,3.589
307.98,3.589
309.50,3.586
311.02,3.576
312.37,3.562
313.72,3.545
314.90,3.528
316.08,3.507
317.09,3.487
317.94,3.463
318.95,3.439
319.62,3.412
320.30,3.384
320.97,3.357
321.48,3.330
322.15,3.302
322.83,3.275
323.50,3.248
324.01,3.220
324.52,3.190
324.85,3.159
325.36,3.132
325.87,3.104
326.20,3.074
326.71,3.046
327.05,3.015
327.39,2.985
327.55,2.954
327.89,2.923
328.23,2.893
328.57,2.862
328.73,2.831
329.07,2.800
329.41,2.770
329.58,2.739
329.92,2.708
330.25,2.677
330.42,2.647
330.76,2.616
331.10,2.585
331.27,2.554
331.60,2.524
331.94,2.493
332.28,2.462
332.45,2.431
332.78,2.401
332.95,2.370
333.29,2.339
333.63,2.308
333.97,2.278
334.13,2.247
334.47,2.216
334.64,2.185
335.15,2.155
335.48,2.124
335.65,2.093
335.99,2.063
336.33,2.032
336.66,2.001
337.00,1.970
337.17,1.940
337.51,1.909
337.68,1.878
338.01,1.847
338.35,1.817
338.52,1.786
338.86,1.755
339.20,1.724
339.53,1.694
339.87,1.663
340.21,1.632
340.38,1.601
340.88,1.574
341.05,1.543
341.39,1.513
341.73,1.482
342.06,1.451
342.57,1.420
342.91,1.390
343.24,1.359
343.75,1.328
344.09,1.297
344.43,1.267
344.93,1.239
345.44,1.212
##END=
