##TITLE=2-Aminobenzoic acid
##JCAMP-DX=4.24
##DATA TYPE=UV/VIS SPECTRUM
##ORIGIN=INSTITUTE OF ENERGY PROBLEMS OF CHEMICAL PHYSICS, RAS
##OWNER=INEP CP RAS, NIST OSRD
Collection (C) 2007 copyright by the U.S. Secretary of Commerce
on behalf of the United States of America. All rights reserved.
##CAS REGISTRY NO=118-92-3
##MOLFORM=C7H7NO2
##MP=146.5
##BP=sub
##SOURCE REFERENCE=RAS UV No. 5271
##$NIST SQUIB=1951GRA220-226
##$NIST SOURCE=TSGMTE
##SPECTROMETER/DATA SYSTEM=n.i.g.
##XUNITS=Wavelength (nm)
##YUNITS=Logarithm epsilon
##XFACTOR=1.000000
##YFACTOR=1.000000
##FIRSTX=391.3648
##LASTX=227.9651
##FIRSTY=0.797884
##MAXX=391.365
##MINX=227.965
##MAXY=4.1669
##MINY=0.797884
##NPOINTS=235
##$REF AUTHOR=Grammaticakis, P.
##$REF TITLE=Contribution a l'etude de l'absorption dans l'ultraviolet moyen et le visible des arylamines isomeres et de leurs derives N substitues (Premier memoire)
##$REF JOURNAL=Bull. Soc. Chim. Fr.
##$REF VOLUME=18
##$REF PAGE=220-226
##$REF DATE=1951
##XYPOINTS=(XY..XY)
391.3648,0.797884
391.1193,0.836685
390.8682,0.875461
390.6116,0.914211
390.3498,0.952928
390.0826,0.991625
389.8102,1.030296
389.5327,1.068942
389.2500,1.107566
388.9624,1.146165
388.6698,1.184745
388.3723,1.223301
388.0701,1.261838
387.7630,1.300356
387.4514,1.338855
387.1352,1.377335
386.8144,1.415799
386.4892,1.454249
386.1596,1.492681
385.8257,1.531098
385.4876,1.569503
385.1453,1.607892
384.7989,1.646271
384.4485,1.684638
384.0941,1.722994
383.7359,1.761340
383.3738,1.799678
383.0080,1.838005
382.6386,1.876327
382.2655,1.914641
381.8889,1.952950
381.5088,1.991253
381.1253,2.029552
380.7385,2.067847
380.3485,2.106140
379.9552,2.144430
379.5588,2.182719
379.1593,2.221008
378.7569,2.259298
378.3516,2.297588
377.9433,2.335880
377.5323,2.374175
377.1186,2.412474
377.1186,2.412474
376.7908,2.416183
376.4362,2.419601
376.0688,2.422874
376.0688,2.422874
375.7018,2.462906
375.2907,2.502860
374.8398,2.542734
374.3533,2.582529
373.8352,2.622242
373.2900,2.661874
372.7216,2.701422
372.1340,2.740887
371.5316,2.780268
370.9181,2.819563
370.2976,2.858772
369.6740,2.897894
369.0510,2.936928
368.4327,2.975874
367.8226,3.014729
367.2245,3.053495
367.2245,3.053495
366.3805,3.091337
365.4963,3.129678
364.5581,3.168289
363.5524,3.206939
362.4661,3.245400
361.2865,3.283440
360.0015,3.320831
358.5994,3.357342
357.0693,3.392743
355.4008,3.426806
353.5843,3.459299
351.6114,3.489994
349.4742,3.518659
347.1660,3.545067
344.6812,3.568986
344.6812,3.568986
340.4371,3.581786
337.2417,3.584638
334.5696,3.575368
331.9352,3.551801
328.8841,3.511764
328.8841,3.511764
327.3702,3.501598
326.2813,3.487680
325.0379,3.465358
322.0424,3.432664
321.2356,3.420060
320.4329,3.407165
319.6343,3.394125
319.6343,3.394125
318.0197,3.357546
316.5211,3.350997
316.5201,3.356669
316.5192,3.362052
316.5183,3.367289
315.0848,3.312950
312.5786,3.279810
312.5786,3.279810
312.3560,3.267105
311.7498,3.247289
310.8585,3.214572
310.8585,3.214572
310.8541,3.241944
310.8535,3.245661
310.8529,3.249089
310.8524,3.252371
310.5650,3.213885
310.2721,3.213053
309.9798,3.211931
309.9798,3.211931
309.4708,3.191056
308.9449,3.170181
308.4116,3.149305
308.4116,3.149305
308.2037,3.149296
307.9868,3.149288
307.7519,3.149279
307.7519,3.149279
306.7573,3.115977
305.2178,3.079685
303.4580,3.041899
301.7910,3.004116
300.5164,2.967832
299.9257,2.934546
299.9257,2.934546
299.4981,2.923908
299.0717,2.912979
298.6465,2.901907
298.1466,2.882334
296.5338,2.846545
295.0607,2.807159
293.6940,2.765242
292.4021,2.721861
291.1543,2.678084
289.9211,2.634977
288.8694,2.610164
287.8445,2.575542
286.8763,2.539951
285.9578,2.503507
285.0825,2.466325
284.2437,2.428519
283.4353,2.390205
282.6510,2.351499
281.8848,2.312515
281.1310,2.273369
280.3836,2.234175
279.6372,2.195048
278.8861,2.156105
278.8861,2.156105
278.0266,2.119368
277.2300,2.081657
276.3474,2.046004
275.2336,2.015445
273.7493,1.993014
271.7634,1.981744
271.2187,1.984323
269.9751,2.022039
269.1278,2.066495
268.5380,2.112675
268.0711,2.155562
268.0711,2.155562
267.7620,2.195789
267.4620,2.235953
267.1707,2.276060
266.8876,2.316114
266.6122,2.356122
266.3441,2.396090
266.0828,2.436021
265.8279,2.475922
265.5789,2.515798
265.3354,2.555653
265.0969,2.595495
264.8630,2.635327
264.6332,2.675156
264.4072,2.714986
264.1845,2.754823
263.9646,2.794673
263.7472,2.834541
263.5318,2.874431
263.3180,2.914350
263.1055,2.954303
263.1055,2.954303
262.9529,2.964529
262.7939,2.974465
262.6217,2.984255
262.6217,2.984255
262.2125,3.069490
261.8465,3.141274
261.5262,3.200638
261.2541,3.248611
261.0326,3.286224
260.8645,3.314507
260.7522,3.334490
260.7058,3.353674
260.6984,3.347202
260.1175,3.345820
258.9405,3.432964
258.2609,3.477267
257.9141,3.502761
257.9141,3.502761
257.7609,3.504707
257.5951,3.506653
257.4231,3.508599
257.4231,3.508599
256.9867,3.556897
256.3626,3.593600
255.6083,3.636232
255.4925,3.657732
253.6158,3.681757
251.7538,3.702971
249.8734,3.722471
247.9433,3.741356
247.9433,3.741356
246.7127,3.767066
245.3361,3.789871
243.8773,3.811028
242.3974,3.831794
240.9546,3.853428
239.6046,3.877188
238.4006,3.904331
238.4006,3.904331
238.1543,3.906849
237.6638,3.916420
236.5959,3.940718
234.6355,3.987415
231.5048,4.064185
231.5048,4.064185
230.4115,4.101956
229.2021,4.133056
227.9651,4.166905
##END=
