##TITLE=2,4-Dinitrosoresorcinol
##JCAMP-DX=4.24
##DATA TYPE=UV/VIS SPECTRUM
##ORIGIN=INSTITUTE OF ENERGY PROBLEMS OF CHEMICAL PHYSICS, RAS
##OWNER=INEP CP RAS, NIST OSRD
Collection (C) 2007 copyright by the U.S. Secretary of Commerce
on behalf of the United States of America. All rights reserved.
##CAS REGISTRY NO=118-02-5
##MOLFORM=C6H4N2O4
##MP=168
##SOURCE REFERENCE=RAS UV No. 11351
##$NIST SQUIB=1951EDW/TAT826
##$NIST SOURCE=TYUGLMTE
##SPECTROMETER/DATA SYSTEM=Beckman DU
##XUNITS=Wavelength (nm)
##YUNITS=Logarithm epsilon
##XFACTOR=1.0
##YFACTOR=1.0
##FIRSTX=230.28
##LASTX=347.47
##FIRSTY=3.568
##MAXX=347.47
##MINX=230.28
##MAXY=4.103
##MINY=3.508
##NPOINTS=132
##$REF AUTHOR=Edwards, W.R., Jr.; Tate, C.W.
##$REF JOURNAL=Anal. Chem.
##$REF VOLUME=23
##$REF PAGE=826
##$REF DATE=1951
##XYPOINTS=(XY..XY)
230.28,3.568
230.42,3.570
230.56,3.573
230.70,3.575
230.84,3.577
230.98,3.579
231.13,3.582
231.27,3.584
231.41,3.586
231.55,3.588
231.69,3.591
231.83,3.593
231.97,3.593
232.11,3.595
232.25,3.597
233.24,3.610
234.22,3.614
235.21,3.618
236.19,3.610
237.17,3.597
238.16,3.559
239.14,3.524
240.13,3.516
241.11,3.511
242.10,3.508
243.08,3.514
244.07,3.527
245.05,3.547
246.04,3.566
247.02,3.597
248.01,3.622
248.99,3.650
249.98,3.673
250.96,3.696
251.95,3.719
252.93,3.738
253.92,3.761
254.90,3.782
255.89,3.801
256.87,3.821
257.85,3.841
258.84,3.863
259.82,3.880
260.81,3.903
261.79,3.926
262.78,3.945
263.76,3.963
264.75,3.981
265.73,3.998
266.72,4.012
267.70,4.027
268.69,4.041
269.67,4.055
270.66,4.064
271.64,4.075
272.63,4.081
273.61,4.088
274.60,4.092
275.58,4.096
276.57,4.098
277.55,4.101
278.53,4.103
279.52,4.103
280.50,4.102
281.49,4.102
282.47,4.100
283.46,4.097
284.44,4.093
285.43,4.085
286.41,4.080
287.40,4.071
288.38,4.062
289.37,4.050
290.35,4.038
291.34,4.027
292.32,4.013
293.31,4.002
294.29,3.990
295.28,3.980
296.26,3.972
297.25,3.963
298.23,3.954
299.21,3.947
300.20,3.939
301.18,3.934
302.17,3.925
303.15,3.919
304.14,3.913
305.12,3.908
306.11,3.903
307.09,3.900
308.08,3.898
309.06,3.897
310.05,3.896
311.03,3.896
312.02,3.896
313.00,3.894
313.99,3.891
314.97,3.888
315.96,3.885
316.94,3.884
317.92,3.884
318.91,3.886
319.89,3.888
320.88,3.892
321.86,3.896
322.85,3.900
323.83,3.908
324.82,3.915
325.80,3.923
326.79,3.930
327.77,3.933
328.76,3.938
329.74,3.940
330.73,3.942
331.71,3.943
332.70,3.944
333.68,3.944
334.67,3.942
335.65,3.939
336.64,3.937
337.62,3.930
338.60,3.922
339.59,3.914
340.57,3.899
341.56,3.888
342.54,3.882
343.53,3.878
344.51,3.873
345.50,3.870
346.48,3.865
347.47,3.857
##END=
