##TITLE=Benzoic acid, 2-chloro-
##JCAMP-DX=4.24
##DATA TYPE=UV/VIS SPECTRUM
##ORIGIN=INSTITUTE OF ENERGY PROBLEMS OF CHEMICAL PHYSICS, RAS
##OWNER=INEP CP RAS, NIST OSRD
Collection (C) 2007 copyright by the U.S. Secretary of Commerce
on behalf of the United States of America. All rights reserved.
##CAS REGISTRY NO=118-91-2
##MOLFORM=C7H5ClO2
##MP=142
##BP=sub
##SOURCE REFERENCE=RAS UV No. 8936
##$NIST SQUIB=1961BAR/SZO172B
##$NIST SOURCE=TSGMTE
##SPECTROMETER/DATA SYSTEM=Beckman DU
##XUNITS=Wavelength (nm)
##YUNITS=Logarithm epsilon
##XFACTOR=1.000000
##YFACTOR=1.000000
##FIRSTX=203.4617
##LASTX=304.0980
##FIRSTY=4.32395
##MAXX=304.098
##MINX=203.462
##MAXY=4.33108
##MINY=0.959576
##NPOINTS=722
##$REF AUTHOR=Bartecki, A.; Szoke, J.; Varsanyi, G.; Vizesy, M.
##$REF TITLE=Absorption spectra in the ultraviolet and visible region. Volume 2
##$REF PAGE=172
##$REF DATE=1961
##$REF PUBLISHER=Academic Press Inc.
##$REF LOCATION=New York
##XYPOINTS=(XY..XY)
203.4617,4.323945
203.4643,4.331079
203.6120,4.320865
203.6132,4.323922
203.8129,4.317777
203.8141,4.320834
203.9645,4.317754
204.1133,4.310597
204.1145,4.313654
204.8129,4.290107
204.8156,4.297241
204.9633,4.287026
204.9644,4.290084
205.1133,4.282927
205.1148,4.287003
205.3131,4.276781
205.3153,4.282896
205.4619,4.269624
205.4631,4.272682
205.6123,4.266544
205.6135,4.269601
205.8106,4.256322
205.8129,4.262437
205.9606,4.252222
205.9621,4.256299
206.1099,4.246084
206.1110,4.249142
206.3092,4.238920
206.3104,4.241977
206.4581,4.231762
206.4596,4.235839
206.6074,4.225625
206.6085,4.228682
206.8068,4.218460
206.8079,4.221517
206.9556,4.211303
206.9572,4.215380
207.1049,4.205165
207.1060,4.208222
207.3043,4.198000
207.3069,4.205134
207.4532,4.190843
207.4547,4.194920
207.6009,4.180629
207.6035,4.187763
207.8007,4.174483
207.8018,4.177541
207.9495,4.167326
207.9507,4.170384
208.0973,4.157112
208.0999,4.164246
208.2955,4.146890
208.2982,4.154024
208.4444,4.139733
208.4459,4.143809
208.5937,4.133595
208.5948,4.136652
208.7930,4.126430
208.7942,4.129487
208.9408,4.116215
208.9434,4.123350
209.0885,4.106001
209.0912,4.113135
209.2868,4.095779
209.2894,4.102913
209.4356,4.088622
209.4372,4.092698
209.5834,4.078407
209.5860,4.085541
209.7816,4.068185
209.7843,4.075319
209.9309,4.062047
209.9320,4.065105
210.0786,4.051833
210.0809,4.057948
210.4246,4.031396
210.5708,4.017105
210.5746,4.027296
210.7717,4.014017
210.7729,4.017074
210.9168,3.996668
210.9221,4.010936
211.0646,3.986454
211.0684,3.996645
211.2628,3.976232
211.2655,3.983366
211.4121,3.970094
211.4132,3.973151
211.5583,3.955803
211.5621,3.965994
212.2556,3.929197
212.4045,3.922040
212.4056,3.925098
212.7542,3.911795
212.7554,3.914853
212.9031,3.904638
212.9046,3.908715
213.0535,3.901558
213.2544,3.898470
213.2555,3.901527
213.4033,3.891313
213.4059,3.898447
213.7542,3.884125
213.9057,3.884102
214.5574,3.870754
214.9098,3.867643
214.9110,3.870700
215.2634,3.867589
215.5638,3.860409
215.7659,3.860379
215.9162,3.857298
216.0678,3.857275
216.2683,3.853168
216.5714,3.853122
216.7723,3.850034
217.0753,3.849988
217.2762,3.846900
217.4262,3.842801
217.4277,3.846877
217.7798,3.842747
217.9302,3.839667
218.0817,3.839644
218.2826,3.836556
218.7877,3.836480
218.9377,3.832380
219.4417,3.829246
219.4428,3.832304
219.5921,3.826166
219.5932,3.829223
219.7941,3.826135
219.9441,3.822036
220.4481,3.818902
220.4492,3.821959
221.1036,3.815745
221.1047,3.818802
221.4571,3.815691
221.8080,3.808504
221.9596,3.808481
222.1100,3.805400
222.6151,3.805324
222.8156,3.801217
223.1186,3.801171
223.3195,3.798083
223.4699,3.795002
223.4711,3.798060
223.8235,3.794949
223.9735,3.790849
224.1250,3.790826
224.3259,3.787738
224.8310,3.787662
224.9814,3.784581
225.3335,3.780451
225.3350,3.784528
225.6354,3.777348
225.6365,3.780405
225.8374,3.777317
225.9878,3.774237
226.4929,3.774161
226.6429,3.770061
226.9965,3.770007
227.1469,3.766927
227.4993,3.763816
227.5004,3.766874
227.6508,3.763793
227.8514,3.759686
228.0029,3.759663
228.1533,3.756583
228.5068,3.756529
228.6572,3.753449
229.0108,3.753395
229.3617,3.746208
229.5132,3.746185
229.8642,3.738997
230.0157,3.738974
230.1661,3.735894
230.3681,3.735863
230.8694,3.725595
231.0198,3.722515
231.0209,3.725572
231.3719,3.718385
231.3734,3.722461
231.5223,3.715304
231.5234,3.718362
231.8732,3.708117
232.0236,3.705036
232.0247,3.708094
232.1751,3.705013
232.5249,3.694768
232.5260,3.697826
232.6753,3.691688
232.6764,3.694745
232.8773,3.691657
233.3771,3.677313
233.3786,3.681389
233.5275,3.674232
233.5286,3.677290
233.6790,3.674209
233.8784,3.667045
233.8799,3.671121
234.3797,3.656776
234.5301,3.653696
234.5312,3.656754
234.6790,3.646539
234.6805,3.650616
234.8799,3.643451
235.0303,3.640371
235.0314,3.643428
235.1803,3.636271
235.1818,3.640348
235.3800,3.630126
235.3812,3.633183
235.5300,3.626026
235.5316,3.630103
235.6804,3.622946
235.6816,3.626003
235.8798,3.615781
235.8825,3.622915
236.0313,3.615758
236.1806,3.609620
236.1817,3.612678
236.3811,3.605513
236.3826,3.609589
236.5304,3.599375
236.5315,3.602432
236.8802,3.589130
236.8813,3.592187
237.0290,3.581973
237.0302,3.585030
237.3777,3.568670
237.3799,3.574785
237.5277,3.564571
237.5292,3.568647
237.8763,3.551268
237.8790,3.558402
238.1745,3.537973
238.1767,3.544088
238.5242,3.527728
238.5254,3.530786
238.6720,3.517514
238.6743,3.523629
238.8702,3.507292
238.8725,3.513406
239.0180,3.497077
239.0202,3.503192
239.1657,3.486862
239.1695,3.497054
239.3662,3.482755
239.3677,3.486832
239.5140,3.472541
239.5166,3.479675
239.6632,3.466403
239.6644,3.469460
239.8615,3.456181
239.8637,3.462296
240.0103,3.449024
240.0115,3.452081
240.1581,3.438809
240.1607,3.445943
240.3575,3.431645
240.3590,3.435721
240.5052,3.421430
240.5090,3.431622
240.6545,3.415292
240.6556,3.418350
240.8527,3.405070
240.8550,3.411185
241.1505,3.390756
241.1531,3.397890
241.5002,3.380511
241.5018,3.384587
241.6495,3.374373
241.6506,3.377430
241.8489,3.367208
241.8500,3.370266
241.9966,3.356994
241.9993,3.364128
242.1470,3.353913
242.1482,3.356971
242.3464,3.346749
242.3475,3.349806
242.4953,3.339592
242.4979,3.346726
242.8451,3.329347
242.8466,3.333423
242.9943,3.323209
242.9955,3.326266
243.3441,3.312964
243.3452,3.316021
243.4930,3.305807
243.4941,3.308864
243.9931,3.292481
243.9943,3.295539
244.1420,3.285324
244.1432,3.288382
244.3429,3.282236
244.3441,3.285293
244.4929,3.278136
244.4944,3.282213
244.6422,3.271999
244.6433,3.275056
244.8416,3.264834
244.8427,3.267891
244.9904,3.257677
244.9931,3.264811
245.3402,3.247432
245.3417,3.251508
245.4880,3.237217
245.4906,3.244351
245.6357,3.227003
245.6384,3.234137
245.8355,3.220857
245.8366,3.223915
245.9817,3.206566
245.9855,3.216758
246.1294,3.196352
246.1321,3.203486
246.3277,3.186129
246.3303,3.193263
246.4754,3.175915
246.4781,3.183049
246.6209,3.159585
246.6258,3.172834
246.8153,3.139172
246.8214,3.155478
246.9631,3.128957
246.9654,3.135072
247.1055,3.104474
247.1131,3.124858
247.3038,3.094252
247.3064,3.101386
247.4477,3.073846
247.4542,3.091172
247.5905,3.050383
247.5981,3.070766
247.7850,3.029969
247.7914,3.047295
249.0615,2.930912
249.0641,2.938046
249.2613,2.924766
249.2624,2.927824
249.4075,2.910475
249.4113,2.920667
249.5567,2.904337
249.5579,2.907395
249.7550,2.894115
249.7573,2.900230
249.9039,2.886958
249.9050,2.890016
250.0516,2.876744
250.0554,2.886935
250.2525,2.873656
250.2536,2.876713
250.4014,2.866499
250.4025,2.869556
250.5491,2.856284
250.5518,2.863418
250.7500,2.853196
250.7512,2.856254
250.8989,2.846039
250.9000,2.849096
252.5456,2.791771
252.7462,2.787664
252.7477,2.791741
252.8954,2.781526
252.8977,2.787641
253.0454,2.777427
253.0469,2.781503
253.2463,2.774339
253.2475,2.777396
253.3979,2.774316
253.7476,2.764071
253.7488,2.767128
253.8980,2.760990
254.0480,2.756891
254.0495,2.760967
254.4005,2.753780
254.4016,2.756837
254.5520,2.753757
254.7514,2.746592
254.7529,2.750669
254.9018,2.743512
254.9029,2.746569
255.0522,2.740431
255.0533,2.743489
255.4042,2.736301
255.4057,2.740378
255.5557,2.736278
256.0570,2.726010
256.4095,2.722899
256.4106,2.725957
256.7630,2.722846
256.9134,2.719765
257.0650,2.719742
257.2655,2.715635
257.4170,2.715612
257.7683,2.709444
258.9300,2.709268
259.0800,2.705168
260.0902,2.705015
260.2938,2.709062
261.6070,2.708863
261.8102,2.711890
262.1132,2.711844
262.4695,2.718924
262.8230,2.718871
262.9757,2.721906
263.4808,2.721829
263.4819,2.724887
263.9870,2.724810
263.9885,2.728887
264.1401,2.728864
264.1412,2.731921
264.3432,2.731891
264.3444,2.734948
264.6474,2.734902
264.6489,2.738979
265.0025,2.738925
265.1552,2.741960
265.3572,2.741929
265.6629,2.749018
265.6641,2.752075
266.0176,2.752022
266.0188,2.755079
266.3723,2.755026
266.3738,2.759102
266.5254,2.759079
266.5265,2.762137
266.6780,2.762114
266.6792,2.765171
266.8812,2.765141
266.8827,2.769217
267.0342,2.769194
267.1869,2.772229
267.3889,2.772198
267.6947,2.779287
267.6958,2.782344
267.8978,2.782314
267.8990,2.785371
268.2020,2.785325
268.2035,2.789402
268.4056,2.789371
268.9145,2.799486
268.9156,2.802544
269.0671,2.802521
269.2198,2.805555
269.4218,2.805525
269.4233,2.809601
269.5749,2.809579
269.5760,2.812636
269.9322,2.819717
270.0837,2.819694
270.0849,2.822751
270.2364,2.822728
270.5926,2.829809
270.5938,2.832866
270.7453,2.832843
270.7464,2.835901
271.1000,2.835847
271.1015,2.839924
271.2530,2.839901
271.6089,2.845962
271.6104,2.850039
271.7619,2.850016
271.9651,2.853043
272.2682,2.852997
272.2693,2.856055
272.4713,2.856024
272.4728,2.860101
272.7782,2.866170
273.1317,2.866116
273.1333,2.870193
273.4868,2.870139
273.4880,2.873197
273.6395,2.873174
274.1484,2.883289
274.5019,2.883236
274.5031,2.886293
275.0082,2.886217
275.0097,2.890293
275.1612,2.890270
275.1623,2.893328
275.3139,2.893305
275.3150,2.896362
275.5170,2.896332
275.6701,2.900385
275.8216,2.900363
276.0248,2.903389
276.3278,2.903344
276.5310,2.906370
276.6825,2.906348
276.8356,2.910401
277.0376,2.910371
277.0388,2.913428
277.1903,2.913405
277.3430,2.916440
277.6965,2.916386
277.8496,2.920440
278.3547,2.920364
278.5578,2.923390
278.7094,2.923368
280.8813,2.923039
281.0833,2.923008
281.2337,2.919928
281.3852,2.919905
281.5857,2.915798
281.7373,2.915775
282.3890,2.902426
282.5899,2.899338
282.5910,2.902396
282.7414,2.899315
282.8914,2.895216
283.0912,2.889070
283.0934,2.895185
283.2412,2.884971
283.2427,2.889047
283.3927,2.884948
283.7425,2.874703
283.7440,2.878779
283.8929,2.871622
283.8940,2.874680
284.0938,2.868534
284.0949,2.871592
284.2438,2.864435
284.2453,2.868511
284.3942,2.861354
284.3953,2.864412
284.5936,2.854190
284.5962,2.861324
284.7440,2.851109
284.7451,2.854167
284.8944,2.848029
284.8955,2.851086
285.0949,2.843922
285.0964,2.847998
285.2441,2.837784
285.2464,2.843899
285.3957,2.837761
285.5962,2.833654
285.7454,2.827516
285.7477,2.833631
285.8955,2.823416
285.8970,2.827493
286.0964,2.820328
286.2467,2.817248
286.2479,2.820305
286.3968,2.813148
286.3983,2.817225
286.5965,2.807003
286.5988,2.813118
287.0963,2.792658
287.0978,2.796735
287.2456,2.786520
287.2478,2.792635
287.3956,2.782421
287.3971,2.786497
287.5965,2.779332
287.5976,2.782390
287.7454,2.772175
287.7469,2.776252
288.2444,2.755792
288.2467,2.761907
288.5942,2.745547
288.5953,2.748605
288.7430,2.738390
288.7442,2.741448
289.0917,2.725088
289.0940,2.731203
289.3910,2.714850
289.3921,2.717908
289.5892,2.704628
289.5915,2.710743
289.7381,2.697471
289.7392,2.700529
289.8858,2.687257
289.8885,2.694391
290.0867,2.684169
290.0879,2.687226
290.2345,2.673954
290.2367,2.680069
290.3833,2.666797
290.3845,2.669855
290.5816,2.656575
290.5854,2.666766
290.7305,2.649418
290.7331,2.656552
290.8782,2.639203
290.8820,2.649395
291.0780,2.633058
291.0791,2.636115
291.2257,2.622843
291.2295,2.633035
291.3734,2.612629
291.3757,2.618744
291.5717,2.602407
291.5740,2.608522
291.7179,2.588115
291.7232,2.602384
291.8683,2.585035
291.8694,2.588093
292.0654,2.571756
292.0692,2.581947
292.2132,2.561541
292.2169,2.571733
292.3594,2.547250
292.3632,2.557441
292.5576,2.537028
292.5603,2.544162
292.7031,2.520698
292.7080,2.533947
292.8493,2.506407
292.8546,2.520675
293.0453,2.490070
293.0502,2.503319
293.1904,2.472721
293.1953,2.485970
293.3355,2.455373
293.3408,2.469641
293.5326,2.442093
293.5364,2.452285
293.6765,2.421687
293.6830,2.439013
293.8194,2.398223
293.8269,2.418607
294.0150,2.380867
294.0199,2.394116
294.1578,2.357404
294.1653,2.377787
294.3017,2.336998
294.3078,2.353304
294.4947,2.312507
294.5022,2.332890
294.6363,2.285986
294.6451,2.309427
294.7803,2.265580
294.7864,2.281887
294.9721,2.238032
294.9808,2.261473
295.1161,2.217626
295.1225,2.234952
295.2562,2.187029
295.2664,2.214546
295.4556,2.179864
295.4583,2.186998
295.5958,2.149266
295.6060,2.176783
295.7397,2.128860
295.7462,2.146186
295.9319,2.102331
295.9406,2.125772
296.0759,2.081925
296.0819,2.098232
296.2259,2.077826
297.0353,1.945205
297.1781,1.921742
297.1857,1.942125
297.3737,1.904386
297.3790,1.918654
297.5165,1.880922
297.5241,1.901305
297.6605,1.860516
297.6669,1.877842
297.8538,1.837045
297.8614,1.857428
297.9962,1.812562
298.0038,1.832945
298.1390,1.789098
298.1466,1.809482
298.3308,1.761550
298.3399,1.786010
298.4748,1.741145
298.4824,1.761528
298.6176,1.717680
298.6263,1.741122
298.8109,1.694209
298.8185,1.714593
298.9549,1.673804
298.9625,1.694186
299.0988,1.653398
299.1049,1.669704
299.2918,1.628907
299.3009,1.653367
299.4357,1.608501
299.4422,1.625827
299.5774,1.581980
299.5861,1.605420
299.7704,1.557489
299.7795,1.581950
299.9132,1.534026
299.9208,1.554409
300.0545,1.506486
300.0636,1.530946
300.2505,1.490148
300.2554,1.503398
300.3918,1.462609
300.4005,1.486049
300.5357,1.442202
300.5421,1.459528
300.7366,1.439115
302.3110,1.190189
302.3174,1.207513
302.4538,1.166723
302.4614,1.187106
302.6483,1.146311
302.6558,1.166694
302.7896,1.118771
302.7987,1.143230
302.9350,1.102441
302.9411,1.118747
303.1268,1.074893
303.1355,1.098332
303.2708,1.054487
303.2784,1.074871
303.4147,1.034079
303.4212,1.051407
303.6092,1.013667
303.6156,1.030992
303.7543,0.996319
303.7596,1.010588
303.8971,0.972855
303.9047,0.993238
304.0942,0.959576
304.0980,0.969765
##END=
