##TITLE=guanosine
##JCAMP-DX=4.24
##DATA TYPE=UV/VIS SPECTRUM
##ORIGIN=INSTITUTE OF ENERGY PROBLEMS OF CHEMICAL PHYSICS, RAS
##OWNER=INEP CP RAS, NIST OSRD
Collection (C) 2007 copyright by the U.S. Secretary of Commerce
on behalf of the United States of America. All rights reserved.
##CAS REGISTRY NO=118-00-3
##MOLFORM=C10H13N5O5
##MP=228
##SOURCE REFERENCE=RAS UV No. 19716
##$NIST SQUIB=1961LAN323
##$NIST SOURCE=TYUGLMTE
##SPECTROMETER/DATA SYSTEM=Beckman Model DU
##XUNITS=Wavelength (nm)
##YUNITS=Logarithm epsilon
##XFACTOR=1.0
##YFACTOR=1.0
##FIRSTX=219.01
##LASTX=309.45
##FIRSTY=3.714
##MAXX=309.45
##MINX=219.01
##MAXY=4.127
##MINY=2.667
##NPOINTS=106
##$REF AUTHOR=Lang (editor), L.
##$REF JOURNAL=Absorption Spectra in the Ultraviolet and Visible Region
##$REF VOLUME=1
##$REF PAGE=323
##$REF DATE=1961
##XYPOINTS=(XY..XY)
219.01,3.714
219.70,3.687
220.38,3.660
220.90,3.632
221.58,3.605
222.09,3.578
222.78,3.550
223.29,3.523
223.98,3.496
225.01,3.472
226.21,3.452
227.75,3.462
228.77,3.486
229.46,3.513
230.32,3.540
231.17,3.568
231.86,3.595
232.71,3.622
233.57,3.649
234.26,3.677
235.11,3.704
235.97,3.731
236.65,3.759
237.34,3.786
238.19,3.813
238.71,3.840
239.56,3.864
240.42,3.892
241.28,3.919
242.13,3.943
242.99,3.970
244.02,3.990
245.22,4.011
246.24,4.035
247.44,4.055
248.64,4.072
249.84,4.089
251.21,4.103
252.58,4.113
254.12,4.117
255.66,4.120
257.21,4.127
258.75,4.127
260.29,4.117
261.66,4.100
262.86,4.083
264.23,4.065
265.43,4.045
266.80,4.028
268.17,4.014
269.54,4.001
270.91,3.987
272.45,3.980
273.82,3.970
275.36,3.960
276.90,3.956
278.44,3.953
279.99,3.950
281.53,3.939
283.07,3.932
284.27,3.915
285.30,3.892
286.32,3.871
287.35,3.851
288.21,3.827
289.06,3.803
289.92,3.776
290.78,3.752
291.46,3.724
292.15,3.697
293.00,3.670
293.52,3.643
294.37,3.615
294.89,3.585
295.40,3.557
295.91,3.530
296.60,3.503
297.11,3.475
297.63,3.448
298.14,3.421
298.48,3.390
299.00,3.363
299.51,3.336
300.02,3.308
300.20,3.278
300.54,3.247
301.05,3.220
301.57,3.192
301.91,3.162
302.42,3.134
302.94,3.104
303.28,3.073
303.79,3.046
304.31,3.018
304.65,2.988
305.16,2.960
305.68,2.933
306.02,2.902
306.36,2.872
306.88,2.845
307.39,2.817
307.73,2.787
308.07,2.756
308.76,2.729
309.10,2.698
309.45,2.667
##END=
