##TITLE=Benzoic acid, 3,4,5-trimethoxy-
##JCAMP-DX=4.24
##DATA TYPE=UV/VIS SPECTRUM
##ORIGIN=INSTITUTE OF ENERGY PROBLEMS OF CHEMICAL PHYSICS, RAS
##OWNER=INEP CP RAS, NIST OSRD
Collection (C) 2007 copyright by the U.S. Secretary of Commerce
on behalf of the United States of America. All rights reserved.
##CAS REGISTRY NO=118-41-2
##MOLFORM=C10H12O5
##MP=172.3
##BP=225-7/ 10 mm
##SOURCE REFERENCE=RAS UV No. 12383
##$NIST SQUIB=1955KOF/JOR1327
##$NIST SOURCE=TYUGLMTE
##SPECTROMETER/DATA SYSTEM=n.i.g.
##XUNITS=Wavelength (nm)
##YUNITS=Logarithm epsilon
##XFACTOR=1.0
##YFACTOR=1.0
##FIRSTX=218
##LASTX=305.43
##FIRSTY=4.326
##MAXX=305.43
##MINX=218
##MAXY=4.326
##MINY=2.551
##NPOINTS=156
##$REF AUTHOR=Kofod, H.; Jorgensen, C.
##$REF JOURNAL=Acta Chem. Scand
##$REF VOLUME=9
##$REF PAGE=1327
##$REF DATE=1955
##XYPOINTS=(XY..XY)
218.00,4.326
218.29,4.323
218.57,4.317
218.86,4.314
219.14,4.306
219.71,4.273
220.29,4.235
220.86,4.185
221.43,4.144
222.00,4.091
222.57,4.055
223.14,3.970
223.71,3.917
224.29,3.864
224.86,3.779
225.43,3.723
226.00,3.690
226.57,3.628
227.14,3.572
227.71,3.540
228.29,3.502
228.86,3.469
229.43,3.437
230.00,3.419
230.57,3.405
231.14,3.405
231.71,3.410
232.29,3.416
232.86,3.434
233.43,3.449
234.00,3.463
234.57,3.481
235.14,3.502
235.71,3.519
236.29,3.546
236.86,3.558
237.42,3.576
237.98,3.594
238.58,3.611
239.14,3.629
239.74,3.648
240.30,3.666
240.90,3.684
241.42,3.704
242.00,3.723
242.57,3.746
243.14,3.764
243.71,3.782
244.30,3.799
244.86,3.814
245.43,3.823
246.02,3.835
246.57,3.846
247.14,3.858
247.72,3.865
248.29,3.873
248.86,3.885
249.43,3.890
250.00,3.902
250.57,3.911
251.14,3.917
251.71,3.926
252.29,3.932
252.86,3.938
253.43,3.943
253.85,3.946
254.47,3.950
255.14,3.955
255.69,3.956
256.37,3.958
256.86,3.958
257.43,3.958
258.00,3.958
258.58,3.957
259.14,3.955
259.71,3.952
260.30,3.948
260.86,3.943
261.34,3.937
262.00,3.929
262.57,3.923
263.12,3.916
263.71,3.908
264.29,3.899
264.77,3.893
265.43,3.882
266.00,3.873
266.55,3.864
267.09,3.855
267.71,3.840
268.29,3.826
268.86,3.802
269.43,3.784
270.00,3.770
270.57,3.755
271.14,3.731
271.71,3.717
272.29,3.699
272.86,3.684
273.43,3.670
274.00,3.655
274.57,3.643
275.14,3.631
275.71,3.620
276.29,3.605
276.86,3.596
277.43,3.587
278.00,3.575
278.57,3.569
279.14,3.561
279.71,3.555
280.29,3.546
280.86,3.540
281.43,3.534
282.00,3.528
282.57,3.519
283.14,3.516
283.71,3.508
284.29,3.505
284.86,3.502
285.43,3.496
286.00,3.490
286.57,3.487
287.14,3.484
287.71,3.478
288.29,3.472
288.86,3.469
289.43,3.461
290.00,3.455
290.57,3.443
291.14,3.434
291.71,3.425
292.29,3.405
292.86,3.390
293.43,3.375
294.00,3.357
294.57,3.331
295.14,3.302
295.70,3.276
296.28,3.248
296.86,3.219
297.43,3.184
298.01,3.150
298.57,3.116
299.14,3.075
299.59,3.039
300.29,2.986
300.86,2.948
301.40,2.908
301.98,2.863
302.57,2.813
303.14,2.774
303.71,2.730
304.29,2.677
304.86,2.630
305.43,2.551
##END=
