##TITLE=Cyclobutanone
##JCAMP-DX=4.24
##DATA TYPE=UV/VIS SPECTRUM
##ORIGIN=INSTITUTE OF ENERGY PROBLEMS OF CHEMICAL PHYSICS, RAS
##OWNER=INEP CP RAS, NIST OSRD
Collection (C) 2007 copyright by the U.S. Secretary of Commerce
on behalf of the United States of America. All rights reserved.
##CAS REGISTRY NO=1191-95-3
##MOLFORM=C4H6O
##MP=-50.9
##BP=99
##SOURCE REFERENCE=RAS UV No. 1408
##$NIST SQUIB=1973HEM/682
##$NIST SOURCE=TSGMTE
##SPECTROMETER/DATA SYSTEM=Cary 14R
##XUNITS=Wavelength (nm)
##YUNITS=Logarithm epsilon
##XFACTOR=1.000000
##YFACTOR=1.000000
##FIRSTX=240.4959
##LASTX=328.3069
##FIRSTY=0.560588
##MAXX=328.307
##MINX=240.496
##MAXY=1.24868
##MINY=-0.262092
##NPOINTS=254
##$REF AUTHOR=Hemminger, J.C.; et al.
##$REF JOURNAL=J. Am. Chem. Soc.
##$REF VOLUME=95
##$REF PAGE=682
##$REF DATE=1973
##XYPOINTS=(XY..XY)
240.4959,0.560588
241.3084,0.572639
242.3683,0.593607
244.2852,0.628787
244.2852,0.628787
244.7543,0.640143
245.4181,0.653415
246.2077,0.671015
246.2077,0.671015
246.6584,0.678455
247.1981,0.690054
247.6487,0.697177
247.6487,0.697177
248.7079,0.724612
249.4897,0.742159
250.1396,0.758518
250.1396,0.758518
250.4811,0.763293
250.8974,0.772314
251.5163,0.784767
251.5163,0.784767
252.2656,0.803150
252.9158,0.818140
253.5652,0.832656
254.3117,0.849217
255.2535,0.869965
256.4885,0.896526
256.4885,0.896526
258.2246,0.936338
259.1941,0.957727
259.7106,0.968772
260.0875,0.975694
260.0875,0.975694
261.7356,1.010113
262.9362,1.033902
263.7764,1.050109
264.3433,1.060970
264.7241,1.068293
265.0058,1.073652
265.2758,1.078518
265.2758,1.078518
265.5519,1.082347
265.7657,1.086207
266.0418,1.089972
266.0418,1.089972
266.7869,1.105769
267.4713,1.118361
268.6818,1.138284
268.6818,1.138284
268.9533,1.141986
269.2321,1.145653
269.5146,1.149293
269.5146,1.149293
269.5330,1.150913
269.5551,1.152527
269.5845,1.154132
269.5845,1.154132
270.1841,1.161829
270.7838,1.169389
271.3834,1.176820
271.3834,1.176820
272.2183,1.179532
272.6635,1.180513
272.6878,1.179710
272.7708,1.179701
272.8575,1.179690
272.9515,1.179681
273.1006,1.180610
273.1006,1.180610
273.5520,1.176138
274.1523,1.170012
275.1933,1.161029
275.1933,1.161029
275.4898,1.160790
275.7862,1.160505
276.0825,1.160132
276.0825,1.160132
276.6332,1.168318
276.9062,1.172851
277.1356,1.177678
277.1356,1.177678
277.2737,1.184893
277.4119,1.192068
277.5502,1.199168
277.5502,1.199168
277.6388,1.200613
277.7347,1.202090
277.8344,1.203642
277.8344,1.203642
278.0487,1.203620
278.1811,1.203604
278.1989,1.205042
278.3172,1.203590
278.4606,1.203574
278.5670,1.206475
278.9426,1.207982
278.9426,1.207982
279.0846,1.218843
279.2267,1.229474
279.3689,1.239925
279.3689,1.239925
279.5745,1.242862
279.7169,1.241865
279.7874,1.245782
279.9302,1.241564
280.0012,1.245922
280.0040,1.248679
280.0490,1.244989
280.0933,1.244126
280.1303,1.243299
280.1400,1.241335
280.3424,1.241145
280.3424,1.241145
280.4527,1.236056
280.5631,1.230980
280.6735,1.225883
280.6735,1.225883
280.9820,1.219815
281.2642,1.213002
281.5297,1.207704
281.5297,1.207704
281.6576,1.203506
281.8401,1.198778
282.0097,1.191915
282.0097,1.191915
282.1234,1.190802
282.2336,1.189729
282.3364,1.188737
282.3364,1.188737
282.3823,1.185378
282.4245,1.181995
282.4594,1.178586
282.4594,1.178586
282.6744,1.175978
282.8847,1.172071
283.2704,1.163415
283.2704,1.163415
283.8895,1.155600
284.5050,1.147645
285.1132,1.139539
285.1132,1.139539
285.5020,1.137199
285.8834,1.134846
286.2612,1.132481
286.2612,1.132481
286.5862,1.132797
286.9037,1.133024
287.2176,1.133200
287.2176,1.133200
287.5200,1.135934
287.7016,1.138618
287.9179,1.143530
287.9179,1.143530
288.0944,1.158676
288.2673,1.173268
288.4327,1.187306
288.4327,1.187306
288.5667,1.189704
288.6171,1.190861
288.6677,1.192099
288.7183,1.193375
289.2393,1.186247
289.7991,1.185658
289.8368,1.184879
290.0953,1.187289
290.2374,1.188478
290.3470,1.190245
290.5551,1.183324
290.5551,1.183324
290.8738,1.169889
291.1383,1.159483
291.4909,1.146940
292.0739,1.126414
292.0739,1.126414
292.7940,1.108118
293.2872,1.095891
293.7814,1.084773
294.5046,1.069154
294.5046,1.069154
295.2345,1.056665
295.8227,1.046831
296.5795,1.034661
299.6466,0.989414
299.6466,0.989414
300.0428,0.986328
300.6165,0.979603
301.2855,0.972957
301.2855,0.972957
301.7865,0.965987
302.2735,0.960095
302.6436,0.954638
302.6436,0.954638
303.5404,0.946629
304.4800,0.936106
305.1017,0.926893
305.1017,0.926893
305.6690,0.920019
306.1777,0.912812
306.6582,0.907852
306.6582,0.907852
307.7435,0.886812
308.4793,0.871053
309.2021,0.853193
310.2485,0.824458
310.2485,0.824458
311.0491,0.793427
311.5961,0.768498
312.1429,0.741270
312.9428,0.700833
312.9428,0.700833
314.3997,0.630357
315.2026,0.587273
315.6368,0.565222
315.9880,0.551182
315.9880,0.551182
316.1951,0.536950
316.4971,0.520837
316.8023,0.501319
316.8023,0.501319
317.9264,0.446755
318.4736,0.421242
318.9128,0.407629
318.9128,0.407629
319.0259,0.396234
319.1354,0.384801
319.2376,0.373611
319.2376,0.373611
319.4674,0.366460
319.6972,0.359760
319.9271,0.353224
319.9271,0.353224
320.2827,0.327400
320.9013,0.293296
321.4973,0.250591
321.4973,0.250591
322.1088,0.225645
322.8762,0.181300
324.2196,0.096423
324.2196,0.096423
324.3125,0.079904
324.3980,0.062770
324.4798,0.044932
324.4798,0.044932
324.8765,0.033745
325.4260,0.006594
326.5994,-0.067374
326.5994,-0.067374
326.8851,-0.105241
327.4008,-0.163676
327.8283,-0.240861
328.0913,-0.262092
328.1582,-0.250496
328.2289,-0.236872
328.3069,-0.222718
##END=
