##TITLE=2-phenyl-5(4H)-oxazolone
##JCAMP-DX=4.24
##DATA TYPE=UV/VIS SPECTRUM
##ORIGIN=INSTITUTE OF ENERGY PROBLEMS OF CHEMICAL PHYSICS, RAS
##OWNER=INEP CP RAS, NIST OSRD
Collection (C) 2007 copyright by the U.S. Secretary of Commerce
on behalf of the United States of America. All rights reserved.
##CAS REGISTRY NO=1199-01-5
##MOLFORM=C9H7NO2
##MP=91
##SOURCE REFERENCE=RAS UV No. 22591
##$NIST SQUIB=1977VEL/477
##$NIST SOURCE=TYUGLMTE
##SPECTROMETER/DATA SYSTEM=SF-4
##XUNITS=Wavelength (nm)
##YUNITS=Logarithm epsilon
##XFACTOR=1.0
##YFACTOR=1.0
##FIRSTX=200.908
##LASTX=262.681
##FIRSTY=4.124
##MAXX=262.681
##MINX=200.908
##MAXY=4.233
##MINY=3.603
##NPOINTS=90
##$REF AUTHOR=Velezheva, V.S.; et al.
##$REF JOURNAL=Khim. Geterosikl. Soedin.
##$REF PAGE=477
##$REF DATE=1977
##XYPOINTS=(XY..XY)
200.908,4.124
201.608,4.191
202.308,4.221
203.008,4.231
203.708,4.233
204.408,4.230
205.108,4.221
205.854,4.193
206.554,4.137
207.254,4.070
207.954,4.001
208.654,3.939
209.354,3.885
210.054,3.839
210.452,3.807
211.054,3.772
211.524,3.747
212.224,3.721
212.924,3.702
213.624,3.689
214.324,3.680
215.024,3.675
215.724,3.674
216.424,3.674
217.124,3.677
217.824,3.682
218.524,3.688
219.224,3.697
219.924,3.706
220.624,3.717
221.324,3.730
222.024,3.744
222.820,3.762
223.520,3.776
224.220,3.791
224.920,3.805
225.620,3.819
226.320,3.833
227.020,3.848
227.720,3.862
228.420,3.877
229.120,3.892
229.820,3.906
230.520,3.921
231.220,3.936
231.920,3.951
232.620,3.965
233.320,3.980
234.020,3.994
234.720,4.008
235.420,4.021
236.120,4.033
236.820,4.045
237.520,4.056
238.220,4.066
238.920,4.074
239.620,4.082
240.320,4.087
241.020,4.092
241.720,4.094
242.420,4.095
243.120,4.094
243.820,4.090
244.520,4.085
245.220,4.077
245.920,4.067
246.620,4.054
247.281,4.041
247.981,4.025
248.681,4.008
249.381,3.992
250.081,3.974
250.781,3.957
251.481,3.939
252.181,3.921
252.881,3.902
253.581,3.883
254.281,3.864
254.981,3.844
255.681,3.824
256.381,3.803
257.081,3.783
257.781,3.761
258.481,3.740
259.181,3.718
259.881,3.696
260.581,3.673
261.281,3.650
261.981,3.627
262.681,3.603
##END=
