##TITLE=Benzophenone
##JCAMP-DX=4.24
##DATA TYPE=UV/VIS SPECTRUM
##ORIGIN=INSTITUTE OF ENERGY PROBLEMS OF CHEMICAL PHYSICS, RAS
##OWNER=INEP CP RAS, NIST OSRD
Collection (C) 2007 copyright by the U.S. Secretary of Commerce
on behalf of the United States of America. All rights reserved.
##CAS REGISTRY NO=119-61-9
##MOLFORM=C13H10O
##MP=47.8
##BP=305.4
##SOURCE REFERENCE=RAS UV No. 653
##$NIST SQUIB=1952TER/ERM547-550
##$NIST SOURCE=TSGMTE
##SPECTROMETER/DATA SYSTEM=n.i.g.
##XUNITS=Wavelength (nm)
##YUNITS=Logarithm epsilon
##XFACTOR=1.000000
##YFACTOR=1.000000
##FIRSTX=240.3466
##LASTX=382.1233
##FIRSTY=4.16392
##MAXX=382.123
##MINX=240.347
##MAXY=4.28242
##MINY=0.980935
##NPOINTS=313
##$REF AUTHOR=Terenin, A.N.; Ermolaev, V.L.
##$REF TITLE=Sensibilized phosphorescence of organic molecules at low temperatures
##$REF JOURNAL=Dokl. Akad. Nauk SSSR
##$REF VOLUME=85
##$REF NUMBER=3
##$REF PAGE=547-550
##$REF DATE=1952
##XYPOINTS=(XY..XY)
240.3466,4.163916
240.6775,4.164905
241.0174,4.166081
241.3753,4.167633
241.3753,4.167633
241.4657,4.172045
241.5741,4.176833
241.6882,4.185112
241.6896,4.183704
241.6907,4.182664
241.6915,4.181807
241.6915,4.181807
245.5967,4.241215
245.8022,4.243777
246.0168,4.246342
246.2498,4.248914
246.2498,4.248914
246.5346,4.253190
246.8192,4.257650
247.1035,4.262477
247.1035,4.262477
247.4342,4.263681
247.7737,4.265255
248.1314,4.267020
248.1314,4.267020
248.2243,4.268955
248.3352,4.271264
248.4550,4.273761
248.4550,4.273761
248.7421,4.275773
249.0288,4.278153
249.3153,4.280716
249.3153,4.280716
249.6982,4.281726
251.4198,4.282415
251.7096,4.281674
256.7765,4.211809
258.0270,4.184918
258.7049,4.170835
259.3913,4.157490
259.3913,4.157490
259.5169,4.154235
259.6333,4.150976
259.7314,4.147710
265.1558,4.050719
265.2319,4.044965
265.2897,4.039203
265.3383,4.033438
265.3383,4.033438
265.7973,4.028694
266.2561,4.024134
266.7146,4.019941
266.7146,4.019941
266.8431,4.015279
266.9713,4.010984
267.0993,4.006873
267.0993,4.006873
267.3892,4.004510
267.6700,4.002144
267.9324,3.999770
267.9324,3.999770
268.3599,3.983658
268.7780,3.967911
269.1774,3.952339
269.1774,3.952339
269.3046,3.949085
269.4317,3.945830
269.5589,3.942576
269.5589,3.942576
269.6364,3.935414
269.6952,3.928613
269.7446,3.921991
270.9930,3.871257
271.1588,3.872180
271.3336,3.873290
271.5263,3.874776
273.5838,3.840892
273.6624,3.832691
273.7224,3.824665
273.7729,3.817004
273.7729,3.817004
273.9720,3.812156
274.1525,3.807484
274.3236,3.803176
274.3236,3.803176
274.4506,3.798513
274.5681,3.794215
274.6670,3.790092
274.6670,3.790092
274.7933,3.787694
274.9194,3.785479
275.0452,3.783632
275.0452,3.783632
275.1724,3.778756
275.2903,3.774059
275.3895,3.769722
276.4529,3.738746
276.4619,3.729660
276.4710,3.720574
276.4801,3.711487
279.3211,3.596108
279.3929,3.594729
279.4459,3.593710
279.4895,3.592870
279.4895,3.592870
279.6216,3.584690
279.7535,3.576694
279.8850,3.569064
279.8850,3.569064
280.0112,3.565228
280.1279,3.561755
280.2260,3.558458
280.2260,3.558458
281.2623,3.511801
281.4190,3.468281
281.5569,3.425121
284.0264,3.350911
284.1058,3.341853
284.1669,3.332788
284.2187,3.323719
284.2187,3.323719
284.3484,3.317986
284.4780,3.312254
284.6076,3.306521
284.6076,3.306521
284.7382,3.298340
284.8594,3.290339
284.9618,3.282698
284.9618,3.282698
285.3094,3.266984
285.6682,3.249253
286.0450,3.231898
286.0450,3.231898
286.1236,3.223696
286.1836,3.215671
286.2341,3.208009
290.4060,2.959293
290.4060,2.959293
290.5464,2.942853
290.6865,2.926596
290.8263,2.910707
290.8263,2.910707
290.9591,2.900262
291.0824,2.890181
291.1871,2.880276
291.1871,2.880276
291.3127,2.877021
291.4292,2.873762
291.5272,2.870496
295.0254,2.634732
295.3862,2.633468
295.7281,2.632565
296.0608,2.631841
296.0608,2.631841
296.3094,2.629492
296.5486,2.627323
296.7692,2.625514
296.7692,2.625514
296.8940,2.623085
297.0096,2.620652
297.1068,2.618212
297.8507,2.576396
301.0385,2.485916
301.1171,2.477714
301.1771,2.469689
301.2276,2.462027
302.7996,2.418033
302.8045,2.413108
302.8092,2.408365
302.8136,2.403991
303.9048,2.345175
305.1831,2.264459
305.1831,2.264459
305.2067,2.283719
306.7619,2.201461
308.2924,2.128559
308.4229,2.121970
313.7796,2.092712
314.2754,2.093982
314.7800,2.095622
315.3029,2.097454
315.3029,2.097454
316.3711,2.104523
317.4482,2.111779
318.5434,2.119410
318.5434,2.119410
318.8743,2.120399
319.2143,2.121575
319.5722,2.123127
325.0221,2.165799
325.7618,2.169432
326.5014,2.173247
327.2405,2.177430
327.2405,2.177430
327.4466,2.179410
327.6614,2.181761
327.8944,2.184303
327.8944,2.184303
329.0923,2.185639
330.2991,2.187162
331.5239,2.189061
337.3652,2.170740
337.8226,2.167617
338.2800,2.164495
338.7374,2.161373
338.7374,2.161373
338.8091,2.159993
338.8621,2.158974
338.9058,2.158135
338.9058,2.158135
339.9215,2.145840
340.5929,2.138182
341.4958,2.128596
341.4958,2.128596
341.7811,2.123232
342.0094,2.119681
342.3767,2.114901
348.1115,2.037866
348.3634,2.032213
348.6060,2.026740
348.8298,2.021626
348.8298,2.021626
348.9027,2.019177
348.9571,2.016719
349.0024,2.014258
349.0024,2.014258
349.2938,2.011926
349.5850,2.009778
349.8759,2.007997
349.8759,2.007997
350.9333,1.983048
351.9903,1.958466
353.0471,1.934068
357.9291,1.842644
358.1809,1.835521
358.3564,1.831307
358.6061,1.826388
358.6061,1.826388
359.2410,1.809350
359.8654,1.793776
360.7255,1.771870
360.7255,1.771870
360.9763,1.767257
361.2177,1.763008
361.4405,1.758935
361.4405,1.758935
361.5677,1.754058
361.6856,1.749361
361.7847,1.745025
361.7847,1.745025
362.0381,1.737933
362.2819,1.731206
362.5072,1.724655
367.7532,1.599496
367.8269,1.596220
367.8821,1.592937
367.9282,1.589649
367.9282,1.589649
368.0554,1.586395
368.1825,1.583141
368.3097,1.579886
368.3097,1.579886
368.4830,1.571723
368.6562,1.563742
368.8290,1.556130
368.8290,1.556130
369.0809,1.550446
369.3237,1.544759
369.5481,1.539064
369.5481,1.539064
369.6801,1.529444
369.8025,1.520190
369.9064,1.511112
369.9064,1.511112
370.1584,1.505458
370.4009,1.499985
370.6247,1.494872
373.8274,1.389554
374.0677,1.384722
374.2896,1.380066
374.5019,1.375775
374.5019,1.375775
374.5780,1.370052
374.6355,1.364504
374.6835,1.359321
374.6835,1.359321
374.9388,1.350333
375.1849,1.341342
375.4126,1.332344
375.4126,1.332344
375.5873,1.322742
375.7618,1.313507
375.9360,1.304456
378.8356,1.171747
379.1451,1.149804
379.4451,1.128225
379.7265,1.106823
379.7265,1.106823
379.8569,1.100264
379.9874,1.093705
380.1178,1.087146
380.1178,1.087146
380.3720,1.068486
380.6075,1.050186
380.8337,1.032066
380.8337,1.032066
380.9320,1.014785
381.0210,0.997679
381.0913,0.980935
381.4215,0.981066
381.6401,0.981157
381.8771,0.981252
382.1233,0.981347
##END=
