##TITLE=N-(2,4-Dinitrophenyl)-N-(4-hydroxyphenyl)amine
##JCAMP-DX=4.24
##DATA TYPE=UV/VIS SPECTRUM
##ORIGIN=INSTITUTE OF ENERGY PROBLEMS OF CHEMICAL PHYSICS, RAS
##OWNER=INEP CP RAS, NIST OSRD
Collection (C) 2007 copyright by the U.S. Secretary of Commerce
on behalf of the United States of America. All rights reserved.
##CAS REGISTRY NO=119-15-3
##MOLFORM=C12H9N3O5
##MP=195.2
##SOURCE REFERENCE=RAS UV No. 19130
##$NIST SQUIB=1967LAN85
##$NIST SOURCE=TYUGLMTE
##SPECTROMETER/DATA SYSTEM=Unicam SP 800
##XUNITS=Wavelength (nm)
##YUNITS=Logarithm epsilon
##XFACTOR=1.0
##YFACTOR=1.0
##FIRSTX=211.16
##LASTX=445.77
##FIRSTY=4.195
##MAXX=445.77
##MINX=211.16
##MAXY=4.209
##MINY=3.569
##NPOINTS=175
##$REF AUTHOR=Lang (editor), L.
##$REF JOURNAL=Absorption Spectra in the Ultraviolet and Visible Region
##$REF VOLUME=8
##$REF PAGE=85
##$REF DATE=1967
##XYPOINTS=(XY..XY)
211.16,4.195
212.68,4.185
214.20,4.175
215.52,4.170
217.24,4.168
218.76,4.168
220.28,4.172
222.09,4.180
223.33,4.189
224.68,4.199
226.20,4.202
227.72,4.202
229.24,4.199
230.76,4.192
232.28,4.182
233.81,4.172
235.33,4.162
236.68,4.148
238.03,4.131
239.38,4.121
240.74,4.111
242.09,4.094
243.44,4.081
244.62,4.064
245.98,4.053
247.50,4.047
249.02,4.043
250.55,4.041
252.06,4.040
253.58,4.040
255.10,4.040
256.62,4.040
258.15,4.040
259.67,4.043
260.35,4.048
261.19,4.050
262.05,4.049
262.71,4.047
264.13,4.039
265.61,4.030
267.10,4.016
268.46,4.003
269.81,3.986
271.16,3.969
272.34,3.949
273.36,3.928
274.54,3.908
275.72,3.888
276.91,3.868
277.92,3.847
278.94,3.824
279.95,3.803
280.96,3.783
281.81,3.759
282.99,3.739
284.18,3.719
285.19,3.695
286.20,3.675
287.39,3.655
288.57,3.638
289.75,3.621
291.11,3.604
292.46,3.587
293.79,3.576
295.50,3.570
296.30,3.569
297.02,3.570
298.81,3.576
300.06,3.584
301.42,3.597
302.77,3.611
304.12,3.624
305.30,3.641
306.66,3.658
307.84,3.675
309.02,3.692
310.21,3.709
311.39,3.726
312.57,3.746
313.76,3.766
314.94,3.786
316.12,3.803
317.14,3.827
318.15,3.847
319.33,3.864
320.52,3.881
321.70,3.901
322.71,3.925
323.90,3.942
325.08,3.959
326.26,3.976
327.45,3.993
328.63,4.010
329.81,4.026
331.00,4.047
332.35,4.064
333.70,4.077
335.05,4.091
336.39,4.105
337.76,4.118
339.11,4.131
340.46,4.145
341.74,4.155
343.21,4.168
344.69,4.175
346.21,4.185
347.73,4.192
349.25,4.199
350.77,4.206
352.23,4.208
353.81,4.209
355.37,4.209
356.84,4.208
358.38,4.206
359.90,4.202
361.24,4.199
362.94,4.195
364.60,4.190
365.98,4.185
367.11,4.181
368.79,4.176
370.38,4.168
371.90,4.162
373.40,4.156
374.94,4.148
376.46,4.141
377.91,4.135
379.49,4.128
381.03,4.121
382.55,4.111
384.07,4.104
385.57,4.095
386.93,4.087
388.46,4.081
389.99,4.070
391.51,4.060
393.03,4.053
394.55,4.043
396.07,4.033
397.41,4.025
398.94,4.016
400.30,4.006
401.82,3.996
403.28,3.986
404.69,3.972
405.91,3.964
407.56,3.952
409.09,3.942
410.41,3.931
411.96,3.918
413.31,3.908
414.83,3.898
416.19,3.884
417.54,3.874
418.89,3.864
420.33,3.853
421.62,3.842
422.95,3.830
424.30,3.813
425.65,3.797
427.00,3.783
428.36,3.773
429.71,3.759
431.06,3.742
432.41,3.729
433.76,3.712
435.12,3.699
436.47,3.682
437.92,3.667
439.17,3.651
440.53,3.638
441.70,3.623
443.06,3.607
444.41,3.590
445.77,3.573
##END=
