##TITLE=Naphthalene, 1,2,3,4-tetrahydro-
##JCAMP-DX=4.24
##DATA TYPE=UV/VIS SPECTRUM
##ORIGIN=INSTITUTE OF ENERGY PROBLEMS OF CHEMICAL PHYSICS, RAS
##OWNER=INEP CP RAS, NIST OSRD
Collection (C) 2007 copyright by the U.S. Secretary of Commerce
on behalf of the United States of America. All rights reserved.
##CAS REGISTRY NO=119-64-2
##MOLFORM=C10H12
##MP=-35.7
##BP=207.6
##SOURCE REFERENCE=RAS UV No. 8974
##$NIST SQUIB=1966JOHd3/4C
##$NIST SOURCE=TSGMTE
##SPECTROMETER/DATA SYSTEM=Unicam SP 500, Hilger Ultrascan
##XUNITS=Wavelength (nm)
##YUNITS=Logarithm epsilon
##XFACTOR=1.000000
##YFACTOR=1.000000
##FIRSTX=280.8045
##LASTX=192.4653
##FIRSTY=1.12191
##MAXX=280.805
##MINX=192.465
##MAXY=4.66218
##MINY=1.12191
##NPOINTS=286
##$REF AUTHOR=Johnson, E.A.
##$REF TITLE=1,2,3,4-Tetrahydronaphthalene (Tetralin)
##$REF BOOK TITLE=UV Atlas of Organic Compounds - Vol. 2
##$REF PAGE=D3/4
##$REF DATE=1966
##$REF PUBLISHER=Plenum Press
##$REF LOCATION=New York
##XYPOINTS=(XY..XY)
280.8045,1.121908
280.6296,1.157991
280.4008,1.206629
280.1051,1.270388
279.7300,1.351835
279.7300,1.351835
279.5708,1.352863
279.4073,1.353893
279.2353,1.354922
279.2353,1.354922
279.1839,1.370877
279.1202,1.388531
279.0450,1.407884
278.9588,1.428935
278.8624,1.451684
278.7562,1.476128
278.6410,1.502270
278.5173,1.530105
278.3859,1.559636
278.2474,1.590861
278.1023,1.623778
277.9513,1.658389
277.7951,1.694692
277.6343,1.732686
277.4694,1.772369
277.3012,1.813743
277.1302,1.856806
276.9570,1.901557
276.7823,1.947997
276.6066,1.996123
276.4307,2.045936
276.4307,2.045936
276.3463,2.077982
276.2606,2.110025
276.1733,2.142062
276.0845,2.174093
275.9937,2.206117
275.9010,2.238133
275.8061,2.270140
275.7088,2.302136
275.6091,2.334122
275.5066,2.366095
275.4013,2.398055
275.2929,2.430001
275.1814,2.461931
275.0665,2.493846
274.9482,2.525743
274.8261,2.557622
274.7002,2.589482
274.5703,2.621322
274.4362,2.653140
274.2978,2.684937
274.1549,2.716710
274.0073,2.748458
274.0073,2.748458
273.6675,2.758406
273.5222,2.767039
273.4615,2.777148
273.2874,2.757954
273.2116,2.757691
273.1358,2.757372
273.0600,2.756938
273.0600,2.756938
272.9818,2.753332
272.9084,2.741653
272.8084,2.712785
272.6501,2.657611
272.4025,2.567014
272.4025,2.567014
272.0141,2.489358
271.7842,2.446783
271.6215,2.424269
271.4354,2.406796
271.1925,2.405781
271.1925,2.405781
271.1921,2.403723
271.1917,2.401609
271.1913,2.399381
271.0937,2.405784
270.9868,2.405788
270.8758,2.405792
270.8758,2.405792
270.7591,2.408346
270.6343,2.410844
270.5054,2.413228
270.5054,2.413228
270.1267,2.439416
269.8115,2.466178
269.3896,2.509744
268.6930,2.586342
268.6930,2.586342
268.2049,2.627573
267.4173,2.677349
266.3745,2.717747
266.3740,2.714922
266.3735,2.712040
266.3730,2.709044
266.2107,2.707001
266.2107,2.707001
265.1170,2.677837
264.7287,2.639121
264.3347,2.599684
263.2362,2.568361
263.2362,2.568361
262.2755,2.567628
261.6374,2.564324
260.8474,2.552321
260.8474,2.552321
259.8796,2.549200
259.2892,2.543164
258.5685,2.530135
258.5685,2.530135
257.8763,2.518717
257.3511,2.501605
256.8764,2.485401
256.8764,2.485401
255.4031,2.407351
254.7304,2.374668
254.5681,2.365686
254.5681,2.365686
253.9590,2.354436
253.3492,2.343130
252.7350,2.331711
252.7350,2.331711
251.7466,2.291475
250.9466,2.249960
250.2499,2.207434
249.5731,2.164162
249.5731,2.164162
248.8252,2.144681
248.1045,2.115299
247.6027,2.090517
247.6027,2.090517
246.6713,2.055342
246.1853,2.010422
245.2748,1.975418
245.2748,1.975418
244.8042,1.944288
244.2942,1.913178
243.7496,1.882091
243.1750,1.851030
242.5750,1.819997
241.9542,1.788994
241.3171,1.758025
240.6680,1.727092
240.0113,1.696197
239.3512,1.665344
238.6919,1.634534
238.0372,1.603770
237.3913,1.573056
236.7580,1.542393
236.7580,1.542393
236.1017,1.520389
235.3952,1.493153
234.3566,1.477480
234.1758,1.478513
233.5267,1.487834
233.1116,1.504086
232.8535,1.519020
232.8535,1.519020
232.5562,1.555383
232.2592,1.591741
231.9622,1.628083
231.6648,1.664404
231.3667,1.700696
231.0675,1.736953
231.0675,1.736953
230.7314,1.801034
230.4069,1.863142
230.0936,1.923320
229.7912,1.981611
229.4993,2.038056
229.2178,2.092697
228.9463,2.145579
228.6844,2.196742
228.4320,2.246230
228.1886,2.294083
227.9540,2.340346
227.7280,2.385060
227.5102,2.428267
227.3004,2.470010
227.0983,2.510332
226.9036,2.549273
226.7161,2.586878
226.5355,2.623188
226.3616,2.658246
226.1941,2.692094
226.0327,2.724774
225.8772,2.756329
225.7273,2.786801
225.5829,2.816232
225.4436,2.844665
225.3092,2.872143
225.1795,2.898706
225.0542,2.924399
224.9331,2.949263
224.8159,2.973340
224.7025,2.996673
224.5925,3.019305
224.4858,3.041277
224.3821,3.062632
224.2812,3.083412
224.1829,3.103660
224.0869,3.123418
223.9930,3.142728
223.9010,3.161634
223.8106,3.180176
223.7217,3.198398
223.6339,3.216341
223.5472,3.234049
223.4612,3.251563
223.3757,3.268926
223.2905,3.286180
223.2055,3.303368
223.1203,3.320531
223.0347,3.337713
222.9486,3.354956
222.8617,3.372302
222.7738,3.389793
222.6847,3.407471
222.5941,3.425380
222.5941,3.425380
222.5155,3.430826
222.4292,3.439148
222.3030,3.454788
222.1050,3.482192
221.8037,3.525802
221.3681,3.590063
220.7679,3.679418
220.7679,3.679418
220.2840,3.729921
219.9588,3.762657
219.6433,3.791937
219.1906,3.832071
219.1906,3.832071
219.0261,3.837200
218.8460,3.844206
218.5371,3.853609
218.5371,3.853609
217.6168,3.865661
216.6830,3.876861
215.7547,3.889085
215.7547,3.889085
215.3384,3.904581
214.8971,3.916153
214.3049,3.927563
214.3049,3.927563
212.6428,3.929172
209.9252,3.930387
207.7227,3.932032
207.7227,3.932032
206.4895,3.949067
205.5338,3.975155
204.8016,4.006649
204.2423,4.039903
203.8072,4.071269
203.8072,4.071269
203.4749,4.103624
203.1712,4.136122
202.8920,4.168734
202.6332,4.201434
202.3906,4.234196
202.1602,4.266993
201.9381,4.299798
201.7202,4.332584
201.5027,4.365326
201.2818,4.397996
201.0535,4.430568
200.8140,4.463015
200.5596,4.495310
200.2865,4.527427
199.9911,4.559339
199.6697,4.591020
199.3188,4.622442
199.3188,4.622442
199.0236,4.636626
198.7202,4.649274
198.3200,4.660905
198.3200,4.660905
197.8424,4.662177
196.8283,4.661380
194.4464,4.657830
194.4464,4.657830
193.6473,4.638409
192.9024,4.613410
192.4653,4.585262
##END=
