##TITLE=Sydnone, 3-phenyl-
##JCAMP-DX=4.24
##DATA TYPE=UV/VIS SPECTRUM
##ORIGIN=INSTITUTE OF ENERGY PROBLEMS OF CHEMICAL PHYSICS, RAS
##OWNER=INEP CP RAS, NIST OSRD
Collection (C) 2007 copyright by the U.S. Secretary of Commerce
on behalf of the United States of America. All rights reserved.
##CAS REGISTRY NO=120-06-9
##MOLFORM=C8H6N2O2
##SOURCE REFERENCE=RAS UV No. 19852
##$NIST SQUIB=1967TIM/HUNg4/2
##$NIST SOURCE=TYUGLMTE
##SPECTROMETER/DATA SYSTEM=Unicam SP 700
##XUNITS=Wavelength (nm)
##YUNITS=Logarithm epsilon
##XFACTOR=1.0
##YFACTOR=1.0
##FIRSTX=194.37
##LASTX=418.4
##FIRSTY=4.05
##MAXX=418.4
##MINX=194.37
##MAXY=4.212
##MINY=1.075
##NPOINTS=213
##$REF AUTHOR=Timmons, C.J.; Hunt, J.H.
##$REF JOURNAL=UV atlas of organic compounds
##$REF VOLUME=3
##$REF PAGE=G4/2
##$REF DATE=1967
##XYPOINTS=(XY..XY)
194.37,4.050
194.69,4.067
195.02,4.084
195.43,4.101
195.76,4.118
196.17,4.135
196.59,4.150
197.00,4.167
197.51,4.180
198.10,4.193
198.77,4.201
199.46,4.210
200.23,4.212
201.01,4.210
201.71,4.201
202.41,4.191
203.03,4.178
203.56,4.165
204.10,4.150
204.64,4.135
205.09,4.118
205.36,4.101
205.73,4.084
206.00,4.067
206.28,4.050
206.55,4.033
206.92,4.015
207.20,3.996
207.57,3.979
208.03,3.964
208.59,3.949
209.15,3.934
209.82,3.924
210.58,3.915
211.44,3.911
212.31,3.911
213.18,3.911
214.07,3.913
214.86,3.919
215.76,3.924
216.62,3.929
217.48,3.932
218.40,3.934
219.25,3.938
220.15,3.943
220.85,3.945
221.85,3.946
223.01,3.945
223.97,3.945
224.95,3.947
225.83,3.951
226.79,3.957
227.78,3.962
228.72,3.966
229.73,3.973
230.76,3.977
231.80,3.981
232.84,3.986
233.88,3.988
234.96,3.986
235.99,3.981
237.12,3.977
237.98,3.971
239.19,3.964
240.18,3.956
241.18,3.947
242.19,3.939
243.20,3.928
244.22,3.917
245.25,3.907
246.29,3.896
247.34,3.887
248.40,3.879
249.50,3.873
250.81,3.868
252.04,3.864
253.28,3.860
254.52,3.855
255.64,3.847
256.78,3.836
257.92,3.828
259.07,3.817
260.23,3.806
261.25,3.795
262.28,3.785
263.32,3.772
264.22,3.759
265.13,3.746
266.19,3.734
267.26,3.721
268.19,3.706
269.12,3.693
270.21,3.680
271.16,3.667
272.11,3.652
273.23,3.640
274.36,3.629
275.34,3.616
276.49,3.603
277.64,3.590
278.98,3.580
280.32,3.569
281.68,3.561
283.23,3.556
284.79,3.550
286.37,3.548
287.97,3.550
289.40,3.558
291.03,3.563
292.50,3.571
293.79,3.582
295.10,3.593
296.42,3.603
297.75,3.616
298.90,3.629
300.05,3.642
301.42,3.652
302.59,3.665
303.98,3.676
305.38,3.687
306.99,3.695
308.62,3.704
310.48,3.708
312.36,3.708
314.26,3.708
316.18,3.706
318.13,3.702
320.11,3.695
321.88,3.684
323.22,3.672
324.58,3.657
325.94,3.642
327.09,3.625
328.25,3.610
329.41,3.593
330.38,3.578
331.40,3.560
332.24,3.543
333.22,3.526
334.23,3.505
334.87,3.490
335.62,3.477
336.57,3.456
337.30,3.439
338.04,3.420
338.78,3.400
339.52,3.383
340.27,3.366
341.01,3.347
341.74,3.326
342.53,3.302
343.21,3.279
343.91,3.258
345.22,3.221
346.09,3.193
346.87,3.170
347.65,3.140
348.43,3.110
349.22,3.078
350.01,3.042
350.73,3.012
351.47,2.983
352.39,2.948
353.20,2.916
354.01,2.877
354.82,2.845
355.63,2.807
356.45,2.775
357.09,2.747
357.98,2.708
358.93,2.655
359.76,2.608
360.49,2.559
361.29,2.499
362.17,2.408
363.14,2.301
363.99,2.221
364.85,2.119
365.71,2.042
366.57,1.937
367.44,1.846
368.32,1.784
369.19,1.711
370.08,1.649
370.96,1.587
371.70,1.547
372.65,1.498
373.65,1.453
374.55,1.421
375.46,1.391
376.37,1.365
377.29,1.344
378.20,1.329
379.14,1.316
380.07,1.305
381.00,1.297
381.94,1.292
386.39,1.271
388.98,1.260
391.60,1.250
394.26,1.241
396.95,1.231
399.34,1.220
402.10,1.211
404.55,1.199
406.68,1.186
408.47,1.171
410.27,1.156
411.72,1.139
413.56,1.124
415.03,1.107
416.90,1.092
418.40,1.075
##END=
