##TITLE=Dibenzoyl methane
##JCAMP-DX=4.24
##DATA TYPE=UV/VIS SPECTRUM
##ORIGIN=INSTITUTE OF ENERGY PROBLEMS OF CHEMICAL PHYSICS, RAS
##OWNER=INEP CP RAS, NIST OSRD
Collection (C) 2007 copyright by the U.S. Secretary of Commerce
on behalf of the United States of America. All rights reserved.
##CAS REGISTRY NO=120-46-7
##MOLFORM=C15H12O2
##MP=78
##SOURCE REFERENCE=RAS UV No. 19756
##$NIST SQUIB=1961LAN257
##$NIST SOURCE=TYUGLMTE
##SPECTROMETER/DATA SYSTEM=Beckman Model DU
##XUNITS=Wavelength (nm)
##YUNITS=Logarithm epsilon
##XFACTOR=1.0
##YFACTOR=1.0
##FIRSTX=211.72
##LASTX=398
##FIRSTY=4.027
##MAXX=398
##MINX=211.72
##MAXY=4.355
##MINY=1.34
##NPOINTS=151
##$REF AUTHOR=Lang (editor), L.
##$REF JOURNAL=Absorption Spectra in the Ultraviolet and Visible Region
##$REF VOLUME=2
##$REF PAGE=257
##$REF DATE=1961
##XYPOINTS=(XY..XY)
211.72,4.027
212.57,4.000
213.58,3.976
214.60,3.955
215.62,3.935
216.81,3.914
218.00,3.894
219.53,3.887
221.06,3.894
222.42,3.904
223.77,3.914
225.30,3.914
226.83,3.908
228.19,3.897
229.55,3.884
231.08,3.884
232.60,3.877
233.96,3.860
235.32,3.843
236.85,3.843
238.21,3.853
239.40,3.870
240.75,3.887
241.94,3.904
243.13,3.921
244.49,3.935
245.85,3.948
247.38,3.955
248.91,3.959
250.43,3.966
251.96,3.966
253.49,3.969
255.02,3.966
256.38,3.952
257.74,3.935
259.09,3.918
260.28,3.897
261.47,3.880
262.66,3.860
263.85,3.839
264.87,3.819
265.72,3.795
266.74,3.774
268.09,3.761
268.94,3.737
270.13,3.716
271.32,3.699
272.68,3.682
274.04,3.672
275.57,3.662
277.09,3.655
278.62,3.662
279.98,3.672
281.34,3.686
282.70,3.696
284.06,3.713
285.25,3.730
286.60,3.744
287.62,3.764
288.81,3.781
290.00,3.802
291.36,3.815
292.55,3.836
293.91,3.853
295.26,3.870
296.62,3.887
298.15,3.894
299.51,3.911
300.87,3.925
301.89,3.945
302.91,3.966
303.75,3.989
304.94,4.010
306.13,4.030
307.32,4.051
308.51,4.071
309.53,4.092
310.89,4.109
312.08,4.126
313.26,4.143
314.45,4.160
315.64,4.177
316.83,4.194
318.02,4.211
319.38,4.225
320.57,4.242
321.75,4.259
322.94,4.276
324.30,4.290
325.66,4.304
327.02,4.314
328.55,4.324
330.08,4.327
331.43,4.338
332.96,4.341
334.49,4.345
335.85,4.355
337.38,4.355
338.91,4.355
340.43,4.351
341.96,4.345
343.49,4.341
345.02,4.334
346.55,4.324
348.08,4.321
349.43,4.307
350.96,4.300
352.32,4.286
353.51,4.269
354.87,4.252
356.06,4.235
357.25,4.215
358.43,4.198
359.45,4.177
360.64,4.157
361.66,4.136
362.85,4.116
363.87,4.095
364.89,4.075
365.91,4.051
366.92,4.030
367.77,4.007
368.62,3.983
369.47,3.959
370.15,3.931
370.83,3.904
371.68,3.880
372.19,3.853
374.23,3.740
374.40,3.733
374.57,3.730
375.42,3.679
376.60,3.590
377.79,3.484
378.98,3.344
380.17,3.201
381.36,3.030
382.55,2.894
383.74,2.767
384.92,2.624
386.11,2.501
387.30,2.378
388.49,2.262
389.68,2.146
390.87,2.026
392.06,1.927
393.25,1.822
394.43,1.692
395.62,1.583
396.81,1.473
398.00,1.340
##END=
