##TITLE=2,4,5-Trioxoimidazolidine
##JCAMP-DX=4.24
##DATA TYPE=UV/VIS SPECTRUM
##ORIGIN=INSTITUTE OF ENERGY PROBLEMS OF CHEMICAL PHYSICS, RAS
##OWNER=INEP CP RAS, NIST OSRD
Collection (C) 2007 copyright by the U.S. Secretary of Commerce
on behalf of the United States of America. All rights reserved.
##CAS REGISTRY NO=120-89-8
##MOLFORM=C3H2N2O3
##MP=238 dec.
##SOURCE REFERENCE=RAS UV No. 19960
##$NIST SQUIB=1966JOHb11/6
##$NIST SOURCE=TYUGLMTE
##SPECTROMETER/DATA SYSTEM=Unicam SP 500
##XUNITS=Wavelength (nm)
##YUNITS=Logarithm epsilon
##XFACTOR=1.0
##YFACTOR=1.0
##FIRSTX=192.47
##LASTX=328.01
##FIRSTY=3.624
##MAXX=328.01
##MINX=192.47
##MAXY=4.138
##MINY=1.223
##NPOINTS=173
##$REF AUTHOR=Johnson, E.A.
##$REF JOURNAL=UV atlas of organic compounds
##$REF VOLUME=1
##$REF PAGE=B11/6
##$REF DATE=1966
##XYPOINTS=(XY..XY)
192.47,3.624
192.55,3.626
192.62,3.628
192.70,3.630
192.78,3.632
192.86,3.635
192.94,3.637
193.42,3.665
193.91,3.688
194.39,3.716
194.88,3.740
195.37,3.761
195.86,3.785
196.35,3.810
196.85,3.832
197.35,3.851
197.85,3.872
198.36,3.892
198.86,3.913
199.37,3.930
199.88,3.950
200.40,3.967
200.92,3.980
201.44,3.997
201.96,4.010
202.49,4.027
203.02,4.038
203.55,4.050
204.08,4.061
204.62,4.072
205.16,4.080
205.70,4.091
206.24,4.098
206.79,4.104
207.34,4.113
207.90,4.117
208.46,4.123
209.02,4.128
209.58,4.132
210.15,4.134
210.71,4.136
211.29,4.138
211.86,4.138
212.44,4.136
213.02,4.134
213.61,4.132
214.20,4.125
214.79,4.121
215.38,4.113
215.98,4.104
216.58,4.093
217.19,4.085
217.80,4.072
218.41,4.061
219.02,4.048
219.64,4.033
220.26,4.018
220.89,3.999
221.52,3.984
222.15,3.965
222.79,3.941
223.43,3.922
224.07,3.898
224.72,3.875
225.37,3.851
226.02,3.825
226.68,3.800
227.34,3.772
228.01,3.744
228.68,3.716
229.35,3.686
230.03,3.656
230.72,3.624
231.40,3.592
232.09,3.562
232.79,3.529
233.49,3.499
234.19,3.467
234.90,3.437
235.61,3.407
236.32,3.384
237.04,3.362
237.77,3.343
238.50,3.324
239.23,3.307
239.97,3.292
240.71,3.279
241.46,3.264
242.21,3.253
242.97,3.242
243.73,3.232
244.49,3.221
245.27,3.210
246.04,3.199
246.82,3.191
247.61,3.180
248.40,3.174
249.19,3.167
250.00,3.156
250.80,3.146
251.61,3.137
252.43,3.126
253.25,3.114
254.08,3.096
254.91,3.084
255.75,3.064
256.59,3.043
257.44,3.021
258.30,2.994
259.16,2.966
260.02,2.940
260.90,2.912
261.77,2.880
262.66,2.850
263.55,2.818
264.44,2.779
265.35,2.745
266.26,2.704
267.17,2.666
268.09,2.623
269.02,2.582
269.95,2.539
270.89,2.496
271.84,2.449
272.79,2.398
273.75,2.346
274.72,2.293
275.69,2.239
276.63,2.194
277.64,2.145
278.64,2.097
279.66,2.057
280.60,2.017
281.66,1.971
282.71,1.924
283.74,1.883
284.78,1.849
285.82,1.815
286.88,1.791
287.94,1.767
289.01,1.750
290.09,1.735
291.17,1.725
292.27,1.727
293.37,1.733
294.48,1.737
295.60,1.746
296.73,1.748
297.86,1.748
299.01,1.759
300.16,1.767
301.33,1.770
302.50,1.776
303.68,1.778
304.87,1.780
306.07,1.778
307.28,1.776
308.50,1.767
309.72,1.755
310.96,1.737
312.21,1.718
313.47,1.695
314.74,1.667
316.02,1.639
317.31,1.609
318.60,1.572
319.92,1.536
321.20,1.496
322.56,1.448
323.91,1.403
324.92,1.359
326.17,1.305
328.01,1.223
##END=
