##TITLE=1,3-Benzodioxole, 5-(1-propenyl)-
##JCAMP-DX=4.24
##DATA TYPE=UV/VIS SPECTRUM
##ORIGIN=INSTITUTE OF ENERGY PROBLEMS OF CHEMICAL PHYSICS, RAS
##OWNER=INEP CP RAS, NIST OSRD
Collection (C) 2007 copyright by the U.S. Secretary of Commerce
on behalf of the United States of America. All rights reserved.
##CAS REGISTRY NO=120-58-1
##MOLFORM=C10H10O2
##MP=6
##BP=253
##SOURCE REFERENCE=RAS UV No. 19748
##$NIST SQUIB=1961LAN153
##$NIST SOURCE=TYUGLMTE
##SPECTROMETER/DATA SYSTEM=Beckman Model DU
##XUNITS=Wavelength (nm)
##YUNITS=Logarithm epsilon
##XFACTOR=1.0
##YFACTOR=1.0
##FIRSTX=205.63
##LASTX=381.04
##FIRSTY=4.268
##MAXX=381.04
##MINX=205.63
##MAXY=4.315
##MINY=-0.847
##NPOINTS=148
##$REF AUTHOR=Lang (editor), L.
##$REF JOURNAL=Absorption Spectra in the Ultraviolet and Visible Region
##$REF VOLUME=2
##$REF PAGE=153
##$REF DATE=1961
##XYPOINTS=(XY..XY)
205.63,4.268
206.82,4.288
208.01,4.302
209.21,4.312
210.40,4.315
211.59,4.315
212.79,4.312
213.98,4.302
215.17,4.291
216.37,4.275
217.56,4.251
218.75,4.231
219.95,4.200
221.14,4.170
222.33,4.133
223.53,4.099
224.72,4.065
225.91,4.025
227.11,3.991
228.30,3.957
229.49,3.924
230.69,3.890
231.88,3.856
233.07,3.822
234.27,3.782
235.46,3.748
236.65,3.725
237.85,3.698
239.04,3.681
240.23,3.674
241.42,3.677
242.62,3.681
243.81,3.708
245.00,3.731
246.20,3.762
247.39,3.795
248.58,3.822
249.78,3.846
250.97,3.880
252.16,3.910
253.36,3.941
254.55,3.964
255.74,3.995
256.94,4.022
258.13,4.038
259.32,4.045
260.52,4.045
261.71,4.045
262.90,4.042
264.10,4.038
265.29,4.035
266.48,4.025
267.68,4.008
268.87,3.988
270.06,3.954
271.26,3.910
272.45,3.856
273.64,3.799
274.84,3.742
276.03,3.691
277.22,3.650
278.42,3.623
279.61,3.607
280.80,3.603
282.00,3.590
283.19,3.590
284.38,3.590
285.58,3.596
286.77,3.603
287.96,3.607
289.16,3.617
290.35,3.620
291.54,3.634
292.74,3.637
293.93,3.647
295.12,3.654
296.32,3.667
297.51,3.677
298.70,3.684
299.90,3.694
301.09,3.698
302.28,3.701
303.48,3.701
304.67,3.701
305.86,3.698
307.06,3.694
308.25,3.684
309.44,3.671
310.64,3.657
311.83,3.640
313.02,3.617
314.22,3.596
315.41,3.563
316.60,3.529
317.80,3.485
318.99,3.428
320.18,3.364
321.38,3.293
322.57,3.208
323.76,3.104
324.96,3.060
326.15,2.986
327.34,2.861
328.54,2.702
329.73,2.530
330.92,2.338
332.12,2.186
333.31,2.034
334.50,1.913
335.70,1.795
336.89,1.677
338.08,1.575
339.28,1.481
340.47,1.376
341.66,1.282
342.86,1.181
344.05,1.063
345.24,0.961
346.44,0.864
347.63,0.752
348.82,0.654
350.02,0.573
351.21,0.489
352.40,0.395
353.60,0.324
354.79,0.249
355.98,0.182
357.18,0.115
358.37,0.044
359.56,-0.017
360.76,-0.081
361.95,-0.145
363.14,-0.196
364.34,-0.247
365.53,-0.307
366.72,-0.358
367.92,-0.405
369.11,-0.452
370.30,-0.493
371.50,-0.537
372.69,-0.587
373.88,-0.631
375.08,-0.668
376.27,-0.705
377.46,-0.742
378.66,-0.783
379.85,-0.817
381.04,-0.847
##END=
