##TITLE=2,2'-dithiobis-benzothiazole
##JCAMP-DX=4.24
##DATA TYPE=UV/VIS SPECTRUM
##ORIGIN=INSTITUTE OF ENERGY PROBLEMS OF CHEMICAL PHYSICS, RAS
##OWNER=INEP CP RAS, NIST OSRD
Collection (C) 2007 copyright by the U.S. Secretary of Commerce
on behalf of the United States of America. All rights reserved.
##CAS REGISTRY NO=120-78-5
##MOLFORM=C14H8N2S4
##MP=179-180
##SOURCE REFERENCE=RAS UV No. 22224
##$NIST SQUIB=1978NIF/1473
##$NIST SOURCE=TYUGLMTE
##SPECTROMETER/DATA SYSTEM=SF-16
##XUNITS=Wavelength (nm)
##YUNITS=Logarithm epsilon
##XFACTOR=1.0
##YFACTOR=1.0
##FIRSTX=226.662
##LASTX=331.105
##FIRSTY=4.376
##MAXX=331.105
##MINX=226.662
##MAXY=4.377
##MINY=2.911
##NPOINTS=107
##$REF AUTHOR=Nifant'ev, E.E.; et al.
##$REF JOURNAL=Zhur. Obshchei. Khim.
##$REF VOLUME=48
##$REF PAGE=1473
##$REF DATE=1978
##XYPOINTS=(XY..XY)
226.662,4.376
226.963,4.377
227.852,4.376
228.852,4.376
229.852,4.377
230.852,4.376
231.852,4.371
232.852,4.360
233.852,4.341
234.852,4.313
235.852,4.276
236.852,4.229
237.852,4.174
238.852,4.111
239.443,4.068
239.991,4.032
240.991,3.971
241.991,3.916
242.991,3.865
243.991,3.819
244.991,3.775
245.991,3.733
246.991,3.693
247.991,3.654
248.991,3.618
249.991,3.583
250.991,3.550
251.991,3.519
252.991,3.491
253.991,3.465
254.991,3.444
255.991,3.426
256.991,3.411
257.991,3.401
258.991,3.395
259.991,3.393
260.991,3.394
261.991,3.398
262.991,3.405
263.991,3.413
264.991,3.421
266.105,3.429
267.105,3.439
268.105,3.448
269.105,3.457
270.105,3.464
271.105,3.470
272.105,3.475
273.105,3.479
274.105,3.481
275.105,3.482
276.105,3.482
277.105,3.480
278.105,3.477
279.105,3.473
280.105,3.468
281.105,3.461
282.105,3.454
283.105,3.445
284.105,3.436
285.105,3.426
286.105,3.415
287.105,3.404
288.105,3.392
289.105,3.380
290.105,3.367
291.105,3.354
292.105,3.341
293.105,3.328
294.105,3.315
295.105,3.302
296.105,3.289
297.105,3.276
298.105,3.264
299.105,3.252
300.105,3.240
301.105,3.228
302.105,3.217
303.105,3.206
304.105,3.195
305.105,3.185
306.105,3.175
307.105,3.165
308.105,3.156
309.105,3.146
310.105,3.137
311.105,3.128
312.105,3.119
313.105,3.111
314.105,3.102
315.105,3.093
316.105,3.083
317.105,3.074
318.105,3.065
319.105,3.055
320.105,3.045
321.105,3.034
322.105,3.023
323.105,3.012
324.105,3.000
325.105,2.988
326.105,2.976
327.105,2.963
328.105,2.950
329.105,2.937
330.105,2.924
331.105,2.911
##END=
