##TITLE=Indole
##JCAMP-DX=4.24
##DATA TYPE=UV/VIS SPECTRUM
##ORIGIN=INSTITUTE OF ENERGY PROBLEMS OF CHEMICAL PHYSICS, RAS
##OWNER=INEP CP RAS, NIST OSRD
Collection (C) 2007 copyright by the U.S. Secretary of Commerce
on behalf of the United States of America. All rights reserved.
##CAS REGISTRY NO=120-72-9
##MOLFORM=C8H7N
##MP=52.5
##BP=254
##SOURCE REFERENCE=RAS UV No. 263
##$NIST SQUIB=1963PLI/HOB1618-1629
##$NIST SOURCE=TSGMTE
##SPECTROMETER/DATA SYSTEM=n.i.g.
##XUNITS=Wavelength (nm)
##YUNITS=Logarithm epsilon
##XFACTOR=1.000000
##YFACTOR=1.000000
##FIRSTX=225.3574
##LASTX=292.4726
##FIRSTY=4.04529
##MAXX=292.473
##MINX=225.357
##MAXY=4.04529
##MINY=3.02039
##NPOINTS=134
##$REF AUTHOR=Plieninger, H.; Hobel, M.; Liede, V.
##$REF TITLE=Synthese des 4-Dimethylallyl-tryptophans sowie der Tryptophan-essigsaure-(4)
##$REF JOURNAL=Chem. Ber.
##$REF VOLUME=96
##$REF PAGE=1618-1629
##$REF DATE=1963
##XYPOINTS=(XY..XY)
225.3574,4.045288
225.4405,4.022130
225.5236,3.998949
225.6067,3.975748
225.6898,3.952530
225.7729,3.929297
225.8560,3.906051
225.9391,3.882796
226.0221,3.859533
226.1052,3.836265
226.1883,3.812994
226.1883,3.812994
226.2393,3.804549
226.3212,3.790574
226.4316,3.771920
226.5678,3.749442
226.7273,3.723992
226.9075,3.696423
227.1060,3.667589
227.3202,3.638343
227.5475,3.609538
227.7853,3.582027
228.0312,3.556663
228.2826,3.534300
228.5369,3.515790
228.7917,3.501987
229.0442,3.493744
229.0442,3.493744
229.1725,3.472947
229.3572,3.451907
229.5929,3.430670
229.8741,3.409277
230.1955,3.387772
230.5516,3.366200
230.9371,3.344603
231.3464,3.323025
231.7742,3.301511
232.2152,3.280102
232.6637,3.258843
233.1145,3.237778
233.5622,3.216951
234.0012,3.196403
234.4263,3.176180
234.4263,3.176180
235.2187,3.149474
235.7870,3.131197
236.4049,3.112913
237.3463,3.086184
237.3463,3.086184
237.7559,3.065479
238.4139,3.050542
239.2628,3.040658
240.2450,3.035111
241.3031,3.033186
242.3794,3.034170
243.4164,3.037345
244.3566,3.041997
244.3566,3.041997
245.3149,3.052898
246.2676,3.063847
247.2150,3.074860
248.1574,3.085951
249.0952,3.097135
250.0287,3.108426
250.9582,3.119840
251.8841,3.131391
252.8066,3.143093
253.7262,3.154961
254.6431,3.167010
255.5577,3.179256
256.4704,3.191711
257.3813,3.204392
258.2910,3.217312
258.2910,3.217312
259.4793,3.237757
260.5872,3.257173
261.6186,3.275542
262.5774,3.292850
263.4674,3.309080
264.2924,3.324218
265.0564,3.338247
265.7631,3.351153
266.4164,3.362919
267.0201,3.373530
267.5782,3.382971
267.5782,3.382971
268.8610,3.395906
269.9252,3.405570
270.8493,3.411914
271.7117,3.414885
272.5910,3.414433
273.5657,3.410508
274.7143,3.403058
276.1152,3.392032
276.1152,3.392032
277.5019,3.397038
278.5799,3.400754
279.4163,3.402507
280.0781,3.401625
280.6327,3.397436
281.1471,3.389268
281.6884,3.376448
282.3238,3.358304
283.1205,3.334165
283.1205,3.334165
283.4653,3.311919
283.7626,3.289599
284.0428,3.267120
284.3366,3.244398
284.6743,3.221347
285.0866,3.197881
285.0866,3.197881
285.4534,3.198532
285.8202,3.198998
286.1869,3.199371
286.1869,3.199371
286.9114,3.216775
287.5172,3.232316
288.0331,3.244732
288.4877,3.252761
288.9097,3.255139
289.3277,3.250605
289.7703,3.237895
290.2663,3.215747
290.2663,3.215747
290.6219,3.188485
290.9142,3.165845
291.1586,3.146440
291.3703,3.128887
291.5646,3.111799
291.7567,3.093791
291.9619,3.073477
292.1955,3.049473
292.4726,3.020392
##END=
