##TITLE=Cyclopentanone
##JCAMP-DX=4.24
##DATA TYPE=UV/VIS SPECTRUM
##ORIGIN=INSTITUTE OF ENERGY PROBLEMS OF CHEMICAL PHYSICS, RAS
##OWNER=INEP CP RAS, NIST OSRD
Collection (C) 2007 copyright by the U.S. Secretary of Commerce
on behalf of the United States of America. All rights reserved.
##CAS REGISTRY NO=120-92-3
##MOLFORM=C5H8O
##MP=-51.3
##BP=130.5
##SOURCE REFERENCE=RAS UV No. 49
##$NIST SQUIB=1950RAM/GRU317-322
##$NIST SOURCE=TSGMTE
##SPECTROMETER/DATA SYSTEM=n.i.g.
##XUNITS=Wavelength (nm)
##YUNITS=Logarithm epsilon
##XFACTOR=1.000000
##YFACTOR=1.000000
##FIRSTX=330.9506
##LASTX=225.8589
##FIRSTY=0.042418
##MAXX=330.951
##MINX=225.859
##MAXY=1.31756
##MINY=0.042418
##NPOINTS=289
##$REF AUTHOR=Rambart-Lucas, M.; Grumes, M.
##$REF TITLE=Sur la deformation des orbites electroniques du carbone et de l'azote dans les combinaisons heterocycliques
##$REF JOURNAL=Bull. Soc. Chim. Fr.
##$REF VOLUME=17
##$REF PAGE=317-322
##$REF DATE=1950
##XYPOINTS=(XY..XY)
330.9506,0.042418
330.5204,0.072801
330.1113,0.099439
329.7335,0.124960
329.3965,0.151921
329.3965,0.151921
329.2213,0.155306
329.0386,0.158724
328.8406,0.162116
328.8406,0.162116
328.6673,0.182186
328.4942,0.202461
328.3212,0.222846
327.5968,0.323912
327.5968,0.323912
327.5968,0.300443
327.5968,0.276760
327.5968,0.252974
327.4008,0.327706
327.2100,0.337479
326.9388,0.360518
326.5022,0.404098
325.8166,0.475511
325.8166,0.475511
325.3632,0.504294
324.8434,0.553155
324.3928,0.581927
324.3928,0.581927
323.9675,0.631839
323.6058,0.671811
323.2952,0.703867
323.0231,0.729999
322.7774,0.752233
322.5458,0.772571
322.3161,0.793036
322.0764,0.815624
321.8146,0.842360
321.8146,0.842360
321.3122,0.869214
321.0462,0.880299
320.7881,0.885118
320.7881,0.885118
320.1391,0.876033
319.5291,0.862304
318.8851,0.849653
318.8851,0.849653
318.1632,0.851882
317.8184,0.853899
317.5535,0.857423
317.5535,0.857423
316.9014,0.884127
316.3573,0.906680
315.7850,0.934978
315.0506,0.978897
315.0506,0.978897
314.6396,0.992611
314.3494,1.006325
314.0668,1.016795
314.0668,1.016795
313.8595,1.032671
313.6105,1.043681
313.4038,1.054697
313.4038,1.054697
312.7146,1.078631
311.7510,1.116601
310.6558,1.155761
310.6558,1.155761
310.1624,1.155761
309.6775,1.155761
309.2077,1.155761
309.2077,1.155761
308.6262,1.146528
308.0468,1.137297
307.4696,1.128066
307.4696,1.128066
306.7827,1.129019
306.1123,1.129864
305.4514,1.130495
305.4514,1.130495
305.0717,1.136324
304.7062,1.142155
304.3481,1.147985
304.3481,1.147985
303.7442,1.170159
303.3130,1.186713
302.8111,1.198520
302.8111,1.198520
302.4586,1.217955
302.1069,1.237390
301.7560,1.256826
301.7560,1.256826
301.2808,1.263970
300.8136,1.277701
299.9561,1.309788
299.9561,1.309788
299.6475,1.312560
299.3523,1.315116
299.0641,1.317562
299.0641,1.317562
298.4999,1.314160
297.9506,1.310759
297.4095,1.307359
297.4095,1.307359
296.5692,1.285494
295.7461,1.263629
294.9337,1.241763
294.9337,1.241763
294.5993,1.241763
294.2656,1.241763
293.9327,1.241763
293.9327,1.241763
292.8835,1.264582
291.8417,1.287293
290.8073,1.309788
290.8073,1.309788
290.1857,1.308833
289.5728,1.307988
288.9744,1.307359
288.9744,1.307359
288.3044,1.300915
287.4842,1.289830
285.8219,1.264601
285.8219,1.264601
285.6386,1.255369
285.4556,1.246137
285.2727,1.236905
285.2727,1.236905
284.0071,1.206310
282.7641,1.175825
281.5375,1.145557
281.5375,1.145557
281.2328,1.143127
280.9287,1.140700
280.6253,1.138268
280.6253,1.138268
280.4252,1.142246
280.3206,1.147410
280.2217,1.158191
280.2217,1.158191
279.6446,1.163391
279.0753,1.168377
278.5195,1.173253
278.5195,1.173253
277.7842,1.160207
277.3869,1.150505
276.9854,1.135838
276.9854,1.135838
276.2754,1.091748
275.7911,1.062345
275.3464,1.026999
275.3464,1.026999
274.7551,1.000547
274.4022,0.981542
274.0877,0.968693
274.0877,0.968693
273.4938,0.968693
272.9130,0.968693
272.3400,0.968693
272.3400,0.968693
272.0856,0.977294
271.8422,0.985682
271.6045,0.993961
271.6045,0.993961
271.0213,0.994915
270.4509,0.995758
269.8882,0.996389
269.8882,0.996389
269.4752,0.979403
269.0738,0.962521
268.6788,0.945857
268.6788,0.945857
268.4997,0.933244
267.8956,0.905510
266.7707,0.847221
266.7707,0.847221
266.0027,0.819991
265.5153,0.806261
264.8895,0.794258
264.8895,0.794258
264.5365,0.796061
264.1945,0.797641
263.8583,0.799120
263.8583,0.799120
263.7021,0.810273
263.5460,0.821324
263.3902,0.832158
263.3902,0.832158
263.0355,0.832158
262.6866,0.832158
262.3485,0.832158
262.3485,0.832158
261.5172,0.811843
260.9238,0.793036
260.6379,0.779200
260.6379,0.779200
260.0384,0.760754
259.4477,0.739904
258.6704,0.711487
257.5164,0.670357
257.5164,0.670357
257.1404,0.670357
256.7749,0.670357
256.4151,0.670357
256.4151,0.670357
256.2675,0.678964
256.1202,0.687342
255.9730,0.695622
255.9730,0.695622
255.7210,0.695622
255.4696,0.695622
255.2187,0.695622
255.2187,0.695622
253.9327,0.650803
253.0315,0.619479
252.3805,0.597531
251.8498,0.580811
251.3123,0.565163
250.6433,0.546456
250.6433,0.546456
250.5284,0.537857
250.4226,0.529469
250.3213,0.521190
250.3213,0.521190
250.1807,0.521190
250.0403,0.521190
249.9000,0.521190
249.9000,0.521190
249.7873,0.518251
249.6550,0.514388
249.4676,0.508691
249.1898,0.500223
248.7870,0.488071
248.2250,0.471292
247.4712,0.449000
246.4943,0.420236
245.2653,0.384102
243.7578,0.339670
241.9489,0.286030
241.9489,0.286030
241.7807,0.284228
241.6169,0.282645
241.4617,0.281170
241.4617,0.281170
241.3925,0.274989
241.3316,0.269022
241.2748,0.263186
241.2748,0.263186
241.1076,0.262237
240.9447,0.261382
240.7904,0.260763
240.7904,0.260763
240.7539,0.256405
240.7215,0.252149
240.6974,0.248120
240.6974,0.248120
240.4018,0.240849
240.1522,0.237569
239.7350,0.235478
239.7350,0.235478
238.8732,0.216535
238.0200,0.197584
237.1750,0.178632
236.3374,0.159687
235.5067,0.140728
234.6823,0.121790
234.4882,0.121790
234.0650,0.122412
233.6395,0.123263
233.2078,0.124211
233.2078,0.124211
232.6458,0.134432
232.0788,0.144636
231.5107,0.154819
231.5107,0.154819
231.3682,0.160649
231.2182,0.166489
231.0646,0.172311
231.0646,0.172311
230.9448,0.172311
230.8252,0.172311
230.7056,0.172311
230.7056,0.172311
230.4853,0.181243
230.0619,0.194986
229.4626,0.213332
228.7152,0.236134
227.8473,0.263186
226.8863,0.294290
225.8589,0.329255
##END=
