##TITLE=Catechol
##JCAMP-DX=4.24
##DATA TYPE=UV/VIS SPECTRUM
##ORIGIN=INSTITUTE OF ENERGY PROBLEMS OF CHEMICAL PHYSICS, RAS
##OWNER=INEP CP RAS, NIST OSRD
Collection (C) 2007 copyright by the U.S. Secretary of Commerce
on behalf of the United States of America. All rights reserved.
##CAS REGISTRY NO=120-80-9
##MOLFORM=C6H6O2
##MP=105
##BP=245
##SOURCE REFERENCE=RAS UV No. 1289
##$NIST SQUIB=1958DEW/KUB3076-3079
##$NIST SOURCE=TSGMTE
##SPECTROMETER/DATA SYSTEM=n.i.g.
##XUNITS=Wavelength (nm)
##YUNITS=Logarithm epsilon
##XFACTOR=1.000000
##YFACTOR=1.000000
##FIRSTX=223.1322
##LASTX=290.7943
##FIRSTY=3.49991
##MAXX=290.794
##MINX=223.132
##MAXY=3.49991
##MINY=2.09135
##NPOINTS=161
##$REF AUTHOR=Dewar, M.J.S.; Kubba, V.P.; Pettit, R.
##$REF TITLE=New heteroaromatic compounds. Part II. Boron compounds isoconjugate with indole, 2:3-benzofuran, and thionaphthen
##$REF JOURNAL=J. Chem. Soc.
##$REF PAGE=3076-3079
##$REF DATE=1958
##XYPOINTS=(XY..XY)
223.1322,3.499907
223.1322,3.499907
223.2764,3.486210
223.4315,3.472287
223.5922,3.458251
224.5874,3.399892
224.9424,3.378616
225.2972,3.357118
225.6518,3.335509
226.5317,3.262206
226.7125,3.241500
226.8988,3.220569
227.0960,3.199522
227.8449,3.120775
228.0285,3.102714
228.2175,3.084650
228.4178,3.066582
229.1788,2.999822
229.4375,2.981731
229.7018,2.963637
229.9773,2.945539
230.9304,2.870208
231.0452,2.852174
231.1711,2.834136
231.3026,2.816095
232.0636,2.749335
232.1814,2.734279
232.3102,2.719108
232.4443,2.703713
233.3974,2.628382
233.5798,2.609174
233.7675,2.589741
233.9663,2.570193
234.7232,2.499437
234.9067,2.481376
235.0958,2.463312
235.2961,2.445244
236.0530,2.374489
236.1721,2.360802
236.3022,2.346889
236.4378,2.332862
237.6166,2.257442
238.1732,2.236086
238.7351,2.214505
239.3081,2.192809
240.8611,2.165208
241.9001,2.167108
242.6916,2.172326
243.5905,2.184608
245.9105,2.221159
246.4034,2.236305
246.9016,2.251226
247.4109,2.266032
249.4611,2.333671
249.8268,2.349885
250.2304,2.364973
250.6670,2.385157
252.2868,2.448970
252.6840,2.468798
253.0868,2.488625
253.5007,2.508447
254.7066,2.584917
255.0296,2.599279
255.3637,2.613636
255.7034,2.627991
257.4420,2.710245
257.7375,2.729614
258.0330,2.748984
258.3284,2.768354
259.6427,2.827791
260.1895,2.850299
260.4771,2.864694
260.7523,2.883313
261.7410,2.943380
262.0655,2.959221
262.4010,2.974948
262.7418,2.990450
264.1358,3.054353
264.5331,3.074182
264.9358,3.094008
265.3498,3.113830
266.6601,3.169272
267.0316,3.189463
267.4030,3.209431
267.7742,3.229289
269.3814,3.280615
269.8474,3.294920
270.3134,3.309225
270.7795,3.323530
273.0072,3.368113
273.4587,3.367933
273.9101,3.367753
274.3616,3.367573
275.8500,3.400459
276.3599,3.401107
276.8807,3.401528
277.4070,3.401837
277.4070,3.401837
277.9385,3.388837
278.2271,3.378155
278.5271,3.367913
279.3112,3.324129
279.6971,3.304062
280.0673,3.290442
280.7388,3.271594
280.9375,3.269516
281.1390,3.269436
281.3462,3.269353
281.5645,3.269266
281.5645,3.269266
281.6276,3.274737
281.7019,3.280204
281.7817,3.285669
282.6556,3.331291
282.9394,3.338155
283.2287,3.344906
283.5289,3.351430
283.5289,3.351430
284.6924,3.341269
285.4618,3.321716
285.9538,3.292501
286.5306,3.242304
286.8098,3.219560
287.0943,3.196591
287.3899,3.173506
287.6934,3.150900
287.7902,3.147364
287.8604,3.117355
287.8870,3.143828
287.9460,3.101683
287.9838,3.140291
288.0369,3.085787
288.1388,3.069775
288.5757,3.005143
288.6823,2.978970
288.7999,2.952570
288.9229,2.926056
289.0693,2.872033
289.1704,2.840365
289.2824,2.808471
289.3999,2.776463
289.4505,2.627041
289.4785,2.654863
289.5062,2.682464
289.5338,2.709953
289.8187,2.568932
289.8567,2.549429
289.9059,2.529922
289.9607,2.510413
290.1202,2.444392
290.1557,2.422374
290.2022,2.400240
290.2541,2.377882
290.3755,2.298885
290.5054,2.228379
290.5101,2.292225
290.5438,2.273946
290.6644,2.161859
290.6984,2.138361
290.7436,2.114858
290.7943,2.091353
##END=
