##TITLE=N,N'-Bis(2-hydroxyethyl)dithioxamide
##JCAMP-DX=4.24
##DATA TYPE=UV/VIS SPECTRUM
##ORIGIN=INSTITUTE OF ENERGY PROBLEMS OF CHEMICAL PHYSICS, RAS
##OWNER=INEP CP RAS, NIST OSRD
Collection (C) 2007 copyright by the U.S. Secretary of Commerce
on behalf of the United States of America. All rights reserved.
##CAS REGISTRY NO=120-86-5
##MOLFORM=C6H12N2O2S2
##MP=91.5
##SOURCE REFERENCE=RAS UV No. 19693
##$NIST SQUIB=1962LAN59
##$NIST SOURCE=TYUGLMTE
##SPECTROMETER/DATA SYSTEM=Beckman DU
##XUNITS=Wavelength (nm)
##YUNITS=Logarithm epsilon
##XFACTOR=1.0
##YFACTOR=1.0
##FIRSTX=213.54
##LASTX=378.58
##FIRSTY=4.083
##MAXX=378.58
##MINX=213.54
##MAXY=4.093
##MINY=2.428
##NPOINTS=164
##$REF AUTHOR=Lang (editor), L.
##$REF JOURNAL=Absorption Spectra in the Ultraviolet and Visible Region
##$REF VOLUME=3
##$REF PAGE=59
##$REF DATE=1962
##XYPOINTS=(XY..XY)
213.54,4.083
214.38,4.056
215.22,4.030
216.05,4.003
216.89,3.980
217.72,3.957
218.73,3.937
219.56,3.914
220.57,3.890
221.74,3.870
222.91,3.850
224.25,3.834
225.58,3.817
226.92,3.804
228.26,3.794
229.60,3.781
230.93,3.767
232.27,3.751
233.61,3.734
234.78,3.718
235.95,3.698
237.12,3.681
238.29,3.661
239.46,3.641
240.46,3.621
241.47,3.598
242.47,3.578
243.31,3.555
244.31,3.531
245.15,3.505
245.98,3.482
246.82,3.458
247.65,3.432
248.49,3.409
249.33,3.382
250.16,3.359
251.00,3.332
252.00,3.309
252.84,3.286
253.84,3.262
254.84,3.242
256.18,3.226
257.69,3.219
259.02,3.229
260.36,3.246
261.53,3.262
262.54,3.282
263.54,3.302
264.54,3.325
265.55,3.345
266.55,3.369
267.38,3.392
268.39,3.415
269.22,3.442
270.06,3.468
270.90,3.492
271.73,3.518
272.57,3.545
273.40,3.571
274.24,3.595
275.08,3.618
275.91,3.641
276.75,3.664
277.58,3.688
278.59,3.711
279.42,3.734
280.43,3.757
281.26,3.781
282.27,3.804
283.27,3.827
284.27,3.850
285.11,3.874
286.11,3.894
287.12,3.917
288.12,3.937
289.12,3.957
290.12,3.977
291.30,3.997
292.47,4.013
293.64,4.030
294.97,4.046
296.31,4.056
297.65,4.066
298.99,4.076
300.49,4.086
302.00,4.093
303.50,4.093
305.01,4.093
306.51,4.090
308.02,4.083
309.52,4.076
310.86,4.063
312.20,4.050
313.53,4.036
314.87,4.020
316.21,4.007
317.55,3.990
318.72,3.973
319.89,3.957
321.06,3.937
322.23,3.917
323.40,3.897
324.57,3.877
325.57,3.854
326.58,3.834
327.58,3.814
328.42,3.791
329.42,3.771
330.25,3.747
331.09,3.724
331.93,3.701
332.76,3.678
333.60,3.654
334.44,3.628
335.27,3.601
336.11,3.578
336.78,3.551
337.44,3.525
338.28,3.502
339.12,3.475
339.95,3.452
340.62,3.425
341.46,3.402
342.29,3.375
343.13,3.352
343.97,3.329
344.97,3.306
345.81,3.282
346.81,3.259
347.64,3.232
348.65,3.209
349.65,3.186
350.65,3.163
351.66,3.139
352.66,3.116
353.66,3.096
354.67,3.073
355.84,3.053
356.84,3.030
357.84,3.010
358.85,2.990
359.85,2.967
360.85,2.943
361.86,2.920
362.86,2.897
363.86,2.877
364.70,2.854
365.70,2.830
366.54,2.807
367.54,2.784
368.38,2.761
369.21,2.737
370.05,2.714
370.89,2.691
371.72,2.668
372.56,2.641
373.39,2.614
374.23,2.588
375.07,2.561
375.74,2.535
376.57,2.508
377.24,2.482
377.91,2.455
378.58,2.428
##END=
