##TITLE=Anthracene
##JCAMP-DX=4.24
##DATA TYPE=UV/VIS SPECTRUM
##ORIGIN=INSTITUTE OF ENERGY PROBLEMS OF CHEMICAL PHYSICS, RAS
##OWNER=INEP CP RAS, NIST OSRD
Collection (C) 2007 copyright by the U.S. Secretary of Commerce
on behalf of the United States of America. All rights reserved.
##CAS REGISTRY NO=120-12-7
##MOLFORM=C14H10
##MP=215
##BP=339.9
##SOURCE REFERENCE=RAS UV No. 1240
##$NIST SQUIB=1957FER/REE1117-1123
##$NIST SOURCE=TSGMTE
##SPECTROMETER/DATA SYSTEM=Beckman DU
##XUNITS=Wavelength (nm)
##YUNITS=Logarithm epsilon
##XFACTOR=1.000000
##YFACTOR=1.000000
##FIRSTX=370.4614
##LASTX=300.5982
##FIRSTY=2.05903
##MAXX=370.461
##MINX=300.598
##MAXY=3.11011
##MINY=2.05903
##NPOINTS=345
##$REF AUTHOR=Ferguson, J.; Reeves, L.W.; Schneider, W.G.
##$REF TITLE=Vapor absorption spectra and oscillator strengths of naphthalene, anthracene, and pyrene
##$REF JOURNAL=Can. J. Chem.
##$REF VOLUME=35
##$REF PAGE=1117-1123
##$REF DATE=1957
##XYPOINTS=(XY..XY)
370.4614,2.059030
370.2473,2.105732
370.0983,2.129583
370.0983,2.129583
369.7230,2.240725
369.3484,2.329490
368.9745,2.403303
368.9745,2.403303
368.7472,2.424855
368.3799,2.464002
367.8162,2.513873
367.8162,2.513873
367.5350,2.532400
367.2497,2.550275
366.9625,2.567644
366.9625,2.567644
366.7365,2.595324
366.5085,2.621523
366.2763,2.646316
366.2763,2.646316
366.1629,2.663931
366.0654,2.679287
365.9676,2.695530
365.8538,2.715356
365.7080,2.740913
365.5145,2.773654
365.2575,2.814202
364.9216,2.862361
364.9216,2.862361
364.6703,2.914224
364.4488,2.955359
364.2548,2.988421
364.0866,3.015184
363.9419,3.036898
363.8190,3.054480
363.7157,3.068633
363.6300,3.079908
363.5602,3.088757
363.5041,3.095559
363.4599,3.100643
363.4256,3.104300
363.3993,3.106799
363.3791,3.108392
363.3629,3.109318
363.3490,3.109814
363.3353,3.110111
363.3353,3.110111
363.2418,3.110111
363.1439,3.110111
363.0438,3.110111
363.0438,3.110111
363.0033,3.109203
362.9605,3.108293
362.9133,3.107383
362.9133,3.107383
362.8436,3.096042
362.7739,3.084399
362.7042,3.072434
362.6345,3.060130
362.5648,3.047468
362.4951,3.034425
362.4253,3.020979
362.3556,3.007102
362.2858,2.992768
362.2159,2.977945
362.1460,2.962598
362.0760,2.946687
362.0059,2.930173
361.9357,2.913005
361.8655,2.895131
361.7951,2.876489
361.7246,2.857011
361.6540,2.836618
361.5833,2.815221
361.5833,2.815221
361.4621,2.785084
361.3382,2.752673
361.2124,2.717584
361.0859,2.679314
361.0859,2.679314
361.0060,2.669676
360.9240,2.659657
360.8376,2.649320
360.8376,2.649320
360.7197,2.647263
360.6349,2.646873
360.5105,2.647821
360.5105,2.647821
360.4016,2.653896
360.2928,2.660050
360.1840,2.666198
360.1840,2.666198
359.8577,2.709328
359.5297,2.748562
359.1981,2.784541
359.1981,2.784541
358.9819,2.800944
358.7660,2.816750
358.5504,2.832001
358.5504,2.832001
358.4324,2.832001
358.3125,2.832001
358.1882,2.832001
358.1882,2.832001
358.0905,2.823066
357.9928,2.813942
357.8952,2.804622
357.8952,2.804622
357.7040,2.762833
357.5733,2.733530
357.4428,2.705755
357.2521,2.664756
357.2521,2.664756
356.7888,2.597328
356.5374,2.559420
356.2822,2.524475
356.2822,2.524475
356.1246,2.513873
355.9629,2.503005
355.7991,2.491859
355.7991,2.491859
355.5485,2.491300
355.2982,2.490621
355.0483,2.489701
355.0483,2.489701
354.5424,2.508119
354.1802,2.522901
353.6513,2.546357
353.6513,2.546357
353.0719,2.581707
352.4581,2.618106
351.8021,2.653913
351.0966,2.687956
351.0966,2.687956
350.9850,2.697213
350.9047,2.701879
350.7869,2.706059
350.7869,2.706059
350.4216,2.738870
350.0570,2.769389
349.6932,2.797929
349.3302,2.824745
348.9679,2.850047
348.9679,2.850047
348.6023,2.880707
348.3727,2.899737
348.1815,2.916567
347.9316,2.939025
347.9316,2.939025
347.8172,2.941421
347.7479,2.943890
347.6643,2.948521
347.6643,2.948521
347.2221,2.956347
347.0031,2.960679
346.8189,2.965289
346.8189,2.965289
346.7743,2.970615
346.7334,2.975900
346.6890,2.982406
346.6340,2.991310
346.5612,3.003668
346.4635,3.020343
346.3339,3.041943
346.1652,3.068772
345.9504,3.100818
345.9504,3.100818
345.8771,3.101879
345.8018,3.102968
345.7225,3.104112
345.7225,3.104112
345.6223,3.104112
345.5222,3.104112
345.4222,3.104112
345.4222,3.104112
345.2822,3.102490
345.1927,3.100950
345.0771,3.098164
345.0771,3.098164
344.7777,3.082407
344.4781,3.066058
344.1772,3.049069
343.8744,3.031389
343.8744,3.031389
343.6403,3.013160
343.4064,2.994133
343.1729,2.974233
343.1729,2.974233
343.0052,2.970492
342.8774,2.968357
342.6801,2.966011
342.6801,2.966011
342.3133,2.965101
341.9452,2.964149
341.5740,2.963114
341.5740,2.963114
341.4049,2.961104
341.2339,2.959044
341.0591,2.956894
341.0591,2.956894
340.6201,2.934671
340.3156,2.916811
339.8843,2.887506
339.8843,2.887506
339.4590,2.849802
339.2315,2.830040
339.0063,2.813173
339.0063,2.813173
338.5890,2.792048
338.3626,2.781158
338.1327,2.771749
338.1327,2.771749
338.0169,2.769116
337.8973,2.766342
337.7759,2.763486
337.7759,2.763486
337.2871,2.760310
336.7960,2.757111
336.3043,2.753886
336.3043,2.753886
335.7479,2.746815
335.3875,2.742922
334.9139,2.738929
334.9139,2.738929
334.5022,2.741031
334.2901,2.742990
334.0953,2.746473
334.0953,2.746473
333.8573,2.757607
333.5009,2.776975
332.7230,2.818528
332.7230,2.818528
332.3077,2.834948
331.8896,2.850823
331.4708,2.866239
331.4708,2.866239
330.9194,2.891671
330.5292,2.908588
330.1929,2.922149
329.8044,2.936737
329.2585,2.956156
329.2585,2.956156
329.1677,2.958733
329.0769,2.961294
328.9861,2.963840
328.9861,2.963840
328.8045,2.964028
328.6212,2.964256
328.4345,2.964565
328.4345,2.964565
328.3441,2.961834
328.2537,2.959044
328.1634,2.956156
328.1634,2.956156
327.7624,2.931984
327.4804,2.916166
327.0756,2.895433
327.0756,2.895433
326.8963,2.889598
326.7173,2.883588
326.5384,2.877445
326.5384,2.877445
326.2218,2.872259
325.9059,2.866910
325.5905,2.861444
325.5905,2.861444
325.3564,2.855830
325.1227,2.850038
324.8892,2.844115
324.8892,2.844115
324.6939,2.836148
324.4953,2.827978
324.2951,2.819540
324.2951,2.819540
323.9272,2.795100
323.7481,2.782435
323.6313,2.776520
323.6313,2.776520
323.4531,2.758405
323.3230,2.746937
323.1292,2.732489
323.1292,2.732489
322.9299,2.722991
322.7590,2.716142
322.4702,2.706059
322.4702,2.706059
322.0973,2.696878
321.6307,2.683368
320.6735,2.652674
320.6735,2.652674
320.3503,2.646580
320.0242,2.640231
319.6970,2.633702
319.6970,2.633702
319.4535,2.631642
319.2068,2.629400
318.9588,2.627058
318.9588,2.627058
318.5717,2.627058
318.1854,2.627058
317.8002,2.627058
317.8002,2.627058
317.2490,2.632695
316.6556,2.640981
315.5155,2.658574
315.5155,2.658574
314.7758,2.662933
314.2969,2.664527
313.6678,2.664756
313.6678,2.664756
313.4805,2.663296
313.2934,2.661749
313.1065,2.660035
313.1065,2.660035
312.8582,2.650702
312.4598,2.635880
311.7823,2.606907
311.7823,2.606907
310.8848,2.572532
310.3655,2.550501
310.0659,2.538702
310.0659,2.538702
309.9278,2.531037
309.7379,2.521006
309.4590,2.503005
309.4590,2.503005
308.9743,2.475152
308.6766,2.458617
308.3102,2.439950
308.3102,2.439950
308.0926,2.431772
307.8286,2.417379
307.4723,2.397326
307.4723,2.397326
306.6487,2.371654
305.9499,2.351029
305.3332,2.328680
305.3332,2.328680
304.5679,2.326877
303.8064,2.324718
303.0486,2.322372
303.0486,2.322372
301.4539,2.293073
300.8215,2.278970
300.5982,2.269205
##END=
