##TITLE=Triethylamine
##JCAMP-DX=4.24
##DATA TYPE=UV/VIS SPECTRUM
##ORIGIN=INSTITUTE OF ENERGY PROBLEMS OF CHEMICAL PHYSICS, RAS
##OWNER=INEP CP RAS, NIST OSRD
Collection (C) 2007 copyright by the U.S. Secretary of Commerce
on behalf of the United States of America. All rights reserved.
##CAS REGISTRY NO=121-44-8
##MOLFORM=C6H15N
##MP=-114.7
##BP=89
##SOURCE REFERENCE=RAS UV No. 906
##$NIST SQUIB=1953TAN/COF311-318
##$NIST SOURCE=TSGMTE
##SPECTROMETER/DATA SYSTEM=n.i.g.
##PRESSURE=0.01-1.8 mm Hg
##XUNITS=Wavelength (nm)
##YUNITS=Logarithm epsilon
##XFACTOR=1.000000
##YFACTOR=1.000000
##FIRSTX=240.5336
##LASTX=160.4803
##FIRSTY=2.63332
##MAXX=240.534
##MINX=160.48
##MAXY=3.77075
##MINY=2.63332
##NPOINTS=338
##$REF AUTHOR=Tannenbaum, E.; Coffin, E.M.; Harrison, A.J.
##$REF TITLE=The far ultraviolet absorption spectra of simple alkyl amines
##$REF JOURNAL=J. Chem. Phys.
##$REF VOLUME=21
##$REF NUMBER=2
##$REF PAGE=311-318
##$REF DATE=1953
##XYPOINTS=(XY..XY)
240.5336,2.633317
240.5336,2.633317
239.8325,2.673864
239.1354,2.710946
238.4424,2.745109
238.4424,2.745109
237.5430,2.794526
236.6478,2.839006
235.7544,2.879565
235.7544,2.879565
234.1963,2.970281
233.1547,3.022540
232.5074,3.052686
232.1396,3.069636
231.9404,3.079541
231.8010,3.087481
231.8010,3.087481
230.9934,3.124986
230.1867,3.159511
229.3832,3.191493
229.3832,3.191493
229.0220,3.209591
228.5072,3.233824
227.5443,3.278892
227.5443,3.278892
226.8514,3.312106
226.3706,3.333978
226.0362,3.348870
225.7845,3.360186
225.5523,3.370854
225.2771,3.383506
225.2771,3.383506
224.9975,3.400151
224.6557,3.418514
224.2949,3.436702
223.9579,3.453110
223.6871,3.466357
223.5245,3.475192
223.5245,3.475192
223.4719,3.475805
223.4149,3.476446
223.3558,3.477138
223.3558,3.477138
222.8429,3.502723
222.4088,3.523354
222.0446,3.540025
221.7415,3.553513
221.4908,3.564447
221.2841,3.573356
221.1131,3.580702
220.9696,3.586899
220.8454,3.592331
220.7325,3.597355
220.6227,3.602313
220.5080,3.607529
220.3804,3.613314
220.3804,3.613314
220.2190,3.622788
220.0577,3.632062
219.8963,3.641144
219.7346,3.650045
219.5725,3.658772
219.4098,3.667335
219.2463,3.675740
219.2463,3.675740
218.9540,3.685660
218.6623,3.695359
218.3715,3.704846
218.3715,3.704846
217.7294,3.720000
217.4285,3.726416
217.2086,3.729922
217.2086,3.729922
216.9046,3.733744
216.3190,3.741637
215.4679,3.752460
215.4679,3.752460
215.1654,3.755017
214.8618,3.757573
214.5550,3.760142
214.5550,3.760142
213.8552,3.764508
213.3860,3.767124
212.7448,3.770246
212.7448,3.770246
212.5674,3.770485
212.2211,3.770615
211.4129,3.770746
211.4129,3.770746
210.6328,3.768932
210.1322,3.767486
209.6061,3.765986
209.6061,3.765986
209.1468,3.763155
208.9428,3.761991
208.8182,3.761511
208.8182,3.761511
208.0315,3.755619
207.2487,3.749645
206.4680,3.743589
206.4680,3.743589
205.4355,3.733289
204.7763,3.726164
204.4876,3.723227
204.4876,3.723227
203.8542,3.714826
203.5717,3.710973
203.4271,3.709474
203.4271,3.709474
203.3179,3.707385
203.0880,3.704013
202.6670,3.697649
202.6670,3.697649
202.6031,3.696247
202.5230,3.694988
202.4820,3.693813
202.4820,3.693813
202.3233,3.691534
202.1440,3.688324
201.9803,3.686066
201.9803,3.686066
201.5758,3.678175
201.2858,3.672944
200.9767,3.666939
200.9767,3.666939
200.9323,3.666563
200.8843,3.666169
200.8345,3.665742
200.8345,3.665742
200.6466,3.661180
200.4120,3.656615
200.1984,3.652226
200.1984,3.652226
199.8664,3.646565
199.3404,3.636240
198.8986,3.627829
198.8986,3.627829
198.8136,3.625689
198.5730,3.620612
198.0912,3.609184
198.0912,3.609184
197.9992,3.608077
197.9643,3.607130
197.9563,3.605527
197.7548,3.604163
197.7288,3.602929
197.7045,3.601690
197.6838,3.600448
197.6838,3.600448
197.6132,3.599688
197.5463,3.598965
197.4813,3.598262
197.4813,3.598262
197.4651,3.596918
197.4525,3.595569
197.4416,3.594215
197.4416,3.594215
197.3118,3.590161
197.2303,3.588306
197.1273,3.587083
197.1273,3.587083
197.1258,3.586281
197.1243,3.585519
197.1229,3.584776
196.7926,3.580960
196.7766,3.579561
196.7640,3.578157
196.7532,3.576748
196.7532,3.576748
196.6716,3.574185
196.6081,3.572873
196.5082,3.571693
196.5082,3.571693
196.4737,3.569500
196.4021,3.567027
196.2323,3.562126
196.2323,3.562126
196.1421,3.560892
196.1078,3.559836
196.1000,3.558048
196.1000,3.558048
196.0524,3.557500
196.0067,3.556994
195.9645,3.556509
195.9645,3.556509
195.7829,3.550723
195.6017,3.544905
195.4209,3.539030
195.4209,3.539030
195.3737,3.538457
195.3283,3.537929
195.2864,3.537422
195.2864,3.537422
195.1141,3.531372
194.9438,3.525284
194.7773,3.519132
194.7773,3.519132
194.6461,3.516437
194.4854,3.512280
194.2420,3.506190
194.2420,3.506190
194.2263,3.504450
194.2140,3.502752
194.2035,3.501071
194.2035,3.501071
194.1569,3.500445
194.1120,3.499869
194.0707,3.499315
194.0707,3.499315
193.6463,3.483374
193.3740,3.474132
193.2417,3.469036
193.2417,3.469036
193.1960,3.468694
193.1521,3.468378
193.1116,3.468115
193.1116,3.468115
192.9212,3.461597
192.7328,3.454978
192.5482,3.448256
192.5482,3.448256
192.2042,3.439918
191.9401,3.433081
191.5577,3.423746
191.5577,3.423746
191.5054,3.423181
191.4552,3.421597
191.3640,3.417613
191.3640,3.417613
191.2897,3.417411
191.2171,3.417270
191.1480,3.417157
191.1480,3.417157
191.1113,3.415672
191.0779,3.414181
191.0461,3.412683
191.0461,3.412683
190.8835,3.410443
190.6225,3.405288
190.0417,3.392562
190.0417,3.392562
189.9388,3.392031
189.8375,3.391498
189.7397,3.390964
189.7397,3.390964
189.7169,3.389960
189.6957,3.388954
189.6778,3.387944
189.6778,3.387944
189.5822,3.387155
189.4884,3.386429
189.3980,3.385734
189.3980,3.385734
188.7284,3.377332
188.1242,3.370221
187.8454,3.366557
187.8454,3.366557
187.6361,3.365176
187.3001,3.361796
186.6520,3.355521
186.6520,3.355521
186.2889,3.354079
185.9783,3.352290
185.6550,3.350818
185.6550,3.350818
185.3539,3.349112
184.7165,3.346472
183.8652,3.342460
183.8652,3.342460
183.5980,3.342601
183.3315,3.342743
183.0659,3.342885
183.0659,3.342885
182.6533,3.344395
182.2441,3.345900
181.8397,3.347398
181.8397,3.347398
181.5603,3.349414
181.2831,3.351350
181.0097,3.353241
181.0097,3.353241
180.6698,3.356878
180.3341,3.360483
180.0010,3.364057
180.0010,3.364057
179.8725,3.366966
179.5760,3.372583
178.8867,3.384869
177.5901,3.407138
177.5901,3.407138
176.4677,3.422157
176.0255,3.427707
175.8749,3.428889
175.8749,3.428889
175.5878,3.432296
175.1190,3.437325
174.4465,3.444784
174.4465,3.444784
174.2567,3.445983
174.0685,3.447121
173.8835,3.448227
173.8835,3.448227
173.7260,3.448183
173.5680,3.447435
173.2746,3.445333
173.2746,3.445333
172.9262,3.440952
172.6467,3.436755
172.1972,3.429082
172.1972,3.429082
171.6022,3.416111
171.0128,3.402802
170.4301,3.389104
170.4301,3.389104
170.0157,3.380832
169.5789,3.372715
168.7496,3.357554
168.7496,3.357554
168.1052,3.349308
167.6506,3.343875
167.4276,3.340542
167.4276,3.340542
167.0328,3.337156
166.2829,3.329669
165.3323,3.320496
165.3323,3.320496
164.9490,3.318887
164.5674,3.317272
164.1876,3.315651
164.1160,3.315013
163.4667,3.315607
162.8219,3.316216
162.1813,3.316857
161.5442,3.317546
161.5442,3.317546
161.2732,3.319913
160.9970,3.321744
160.4803,3.324604
##END=
