##TITLE=5H-Dibenzo[a,d]cyclohepten-5-one, 10,11-dihydro-
##JCAMP-DX=4.24
##DATA TYPE=UV/VIS SPECTRUM
##ORIGIN=INSTITUTE OF ENERGY PROBLEMS OF CHEMICAL PHYSICS, RAS
##OWNER=INEP CP RAS, NIST OSRD
Collection (C) 2007 copyright by the U.S. Secretary of Commerce
on behalf of the United States of America. All rights reserved.
##CAS REGISTRY NO=1210-35-1
##MOLFORM=C15H12O
##MP=30
##SOURCE REFERENCE=RAS UV No. 19107
##$NIST SQUIB=1968LAN373
##$NIST SOURCE=TYUGLMTE
##SPECTROMETER/DATA SYSTEM=Spektromom 201
##XUNITS=Wavelength (nm)
##YUNITS=Logarithm epsilon
##XFACTOR=1.0
##YFACTOR=1.0
##FIRSTX=210.31
##LASTX=416.9
##FIRSTY=4.345
##MAXX=416.9
##MINX=210.31
##MAXY=4.345
##MINY=0.544
##NPOINTS=225
##$REF AUTHOR=Lang (editor), L.
##$REF JOURNAL=Absorption Spectra in the Ultraviolet and Visible Region
##$REF VOLUME=11
##$REF PAGE=373
##$REF DATE=1968
##XYPOINTS=(XY..XY)
210.31,4.345
211.64,4.328
212.64,4.304
213.64,4.281
214.47,4.254
215.30,4.230
215.80,4.210
216.39,4.180
217.13,4.146
217.63,4.119
218.13,4.093
218.63,4.066
219.17,4.037
219.79,4.009
220.29,3.982
221.12,3.955
221.79,3.928
222.62,3.904
223.45,3.878
224.12,3.851
225.12,3.827
226.28,3.810
227.28,3.790
228.28,3.770
229.27,3.746
230.27,3.726
231.27,3.703
232.10,3.676
232.93,3.652
233.93,3.629
235.26,3.612
236.59,3.595
238.09,3.589
239.59,3.595
240.92,3.612
241.92,3.636
242.91,3.659
243.75,3.686
244.74,3.706
245.57,3.730
246.57,3.753
247.40,3.780
248.40,3.800
249.23,3.827
250.23,3.851
251.23,3.871
252.06,3.894
253.06,3.914
254.06,3.938
255.06,3.958
256.05,3.978
257.05,3.999
258.05,4.019
259.21,4.039
260.38,4.056
261.54,4.072
262.71,4.093
263.87,4.113
265.20,4.126
266.53,4.136
267.86,4.146
269.36,4.150
270.86,4.150
272.35,4.146
273.85,4.143
275.18,4.133
276.51,4.119
277.68,4.103
278.84,4.086
280.01,4.066
281.00,4.042
281.93,4.020
283.00,3.995
283.83,3.968
284.83,3.945
285.83,3.921
286.82,3.898
287.66,3.874
288.49,3.851
289.32,3.827
290.15,3.804
291.32,3.783
292.31,3.760
293.31,3.736
294.31,3.716
295.31,3.696
296.14,3.677
297.30,3.649
298.14,3.625
299.13,3.605
300.13,3.585
301.30,3.565
302.13,3.541
303.29,3.521
304.29,3.498
305.12,3.474
306.12,3.451
307.28,3.431
308.12,3.407
309.11,3.383
309.95,3.360
310.78,3.333
311.61,3.306
312.44,3.283
313.18,3.264
314.10,3.236
314.77,3.209
315.60,3.185
316.27,3.158
317.10,3.135
317.76,3.108
318.59,3.084
319.43,3.061
320.26,3.034
321.09,3.010
321.92,2.984
322.59,2.957
323.42,2.933
324.42,2.910
325.25,2.886
326.25,2.866
327.24,2.842
328.08,2.819
329.24,2.799
330.24,2.779
331.40,2.758
332.73,2.745
334.06,2.732
335.56,2.728
337.06,2.728
338.55,2.725
339.88,2.711
341.38,2.708
342.88,2.708
344.38,2.701
345.87,2.695
347.37,2.688
348.70,2.671
350.20,2.664
351.53,2.654
352.86,2.637
354.19,2.621
355.52,2.607
356.68,2.590
358.01,2.577
359.18,2.560
360.18,2.540
361.34,2.523
362.51,2.503
363.67,2.483
364.67,2.463
365.67,2.439
366.50,2.416
367.50,2.395
368.49,2.375
369.49,2.352
370.32,2.328
371.32,2.305
372.15,2.278
373.15,2.254
373.98,2.227
374.81,2.201
375.81,2.177
376.48,2.154
377.31,2.127
377.90,2.102
378.64,2.076
379.47,2.049
380.30,2.022
380.97,1.996
381.52,1.974
382.30,1.945
383.13,1.918
383.80,1.891
384.63,1.864
385.29,1.838
386.12,1.811
386.79,1.784
387.29,1.757
387.95,1.730
388.62,1.703
389.29,1.676
389.95,1.649
390.62,1.622
391.11,1.592
391.61,1.565
392.29,1.540
392.94,1.512
393.61,1.485
394.27,1.458
394.77,1.431
395.27,1.404
395.77,1.377
396.44,1.350
396.94,1.323
397.60,1.296
398.10,1.270
398.43,1.239
399.10,1.212
399.60,1.191
400.26,1.155
400.76,1.128
401.19,1.105
401.93,1.071
402.43,1.041
402.92,1.014
403.42,0.987
403.92,0.960
404.42,0.934
404.75,0.903
405.25,0.876
405.75,0.850
406.25,0.823
406.75,0.796
407.42,0.769
408.08,0.742
408.75,0.715
409.58,0.692
410.41,0.668
411.41,0.645
412.41,0.621
413.40,0.597
414.57,0.581
415.57,0.557
416.90,0.544
##END=
