##TITLE=Cobalt, [(1,2,5,6-<eta>4)-1,5-cyclooctadiene](<eta>5-2,4-cyclopentadien-1-yl)-
##JCAMP-DX=4.24
##DATA TYPE=UV/VIS SPECTRUM
##ORIGIN=INSTITUTE OF ENERGY PROBLEMS OF CHEMICAL PHYSICS, RAS
##OWNER=INEP CP RAS, NIST OSRD
Collection (C) 2007 copyright by the U.S. Secretary of Commerce
on behalf of the United States of America. All rights reserved.
##CAS REGISTRY NO=12184-35-9
##MOLFORM=C13H17Co
##SOURCE REFERENCE=RAS UV No. 16681
##$NIST SQUIB=1972ROS/1239
##$NIST SOURCE=TYUGLMTE
##SPECTROMETER/DATA SYSTEM=Cary 14
##XUNITS=Wavelength (nm)
##YUNITS=Logarithm epsilon
##XFACTOR=1.0
##YFACTOR=1.0
##FIRSTX=220.4
##LASTX=461.11
##FIRSTY=3.079
##MAXX=461.11
##MINX=220.4
##MAXY=4.594
##MINY=1.497
##NPOINTS=149
##$REF AUTHOR=Rosenblum, M.; et al.
##$REF JOURNAL=J. Am. Chem. Soc.
##$REF VOLUME=94
##$REF PAGE=1239
##$REF DATE=1972
##XYPOINTS=(XY..XY)
220.40,3.079
221.28,3.030
222.46,2.980
223.64,2.931
225.11,2.888
226.50,2.885
227.75,2.900
228.93,2.950
230.11,2.999
231.29,3.048
232.46,3.097
233.35,3.153
234.82,3.202
235.70,3.258
236.58,3.313
237.76,3.362
238.35,3.418
239.23,3.473
240.11,3.528
241.00,3.584
241.88,3.639
242.76,3.695
243.65,3.750
244.23,3.806
245.41,3.855
246.29,3.910
246.88,3.966
247.77,4.021
248.65,4.070
249.53,4.126
250.41,4.181
251.30,4.230
252.18,4.286
253.06,4.341
254.24,4.390
255.12,4.446
256.59,4.495
258.06,4.544
260.12,4.581
262.77,4.594
265.42,4.581
266.89,4.538
267.78,4.489
268.95,4.440
269.84,4.384
270.42,4.329
271.01,4.273
271.90,4.224
272.63,4.169
273.07,4.113
273.96,4.064
274.54,4.009
275.13,3.953
275.72,3.898
276.60,3.849
277.19,3.793
277.49,3.738
278.07,3.682
278.96,3.633
279.55,3.578
280.13,3.522
281.02,3.467
281.61,3.411
282.49,3.362
283.37,3.307
284.25,3.251
285.43,3.202
286.61,3.153
288.37,3.110
290.73,3.079
293.38,3.073
296.03,3.079
298.67,3.079
301.32,3.079
303.97,3.079
306.62,3.073
309.27,3.060
311.92,3.042
314.27,3.017
316.62,2.987
318.98,2.962
321.04,2.931
323.10,2.900
325.16,2.863
326.92,2.827
328.69,2.790
330.45,2.753
332.22,2.716
333.99,2.673
335.75,2.636
337.52,2.593
339.28,2.556
341.05,2.519
342.52,2.476
344.29,2.432
345.76,2.389
347.52,2.346
348.99,2.303
350.76,2.260
352.82,2.223
354.88,2.186
356.94,2.155
359.59,2.137
362.24,2.125
364.88,2.131
367.53,2.143
369.89,2.162
372.24,2.186
374.59,2.217
376.95,2.235
379.30,2.254
381.66,2.279
384.01,2.303
386.66,2.322
389.31,2.340
391.96,2.359
394.60,2.365
397.25,2.377
399.90,2.389
402.55,2.389
405.20,2.389
407.85,2.383
410.50,2.377
413.14,2.371
415.79,2.359
418.44,2.340
420.79,2.322
423.15,2.297
425.50,2.272
427.86,2.242
430.21,2.211
432.57,2.180
434.92,2.149
436.69,2.112
438.75,2.075
440.81,2.038
442.86,2.001
444.63,1.964
446.40,1.928
448.16,1.891
449.63,1.848
451.40,1.811
453.16,1.774
454.64,1.731
456.11,1.687
457.58,1.638
459.05,1.595
459.93,1.546
461.11,1.497
##END=
