##TITLE=3-Ethoxy-4-hydroxybenzadehyde
##JCAMP-DX=4.24
##DATA TYPE=UV/VIS SPECTRUM
##ORIGIN=INSTITUTE OF ENERGY PROBLEMS OF CHEMICAL PHYSICS, RAS
##OWNER=INEP CP RAS, NIST OSRD
Collection (C) 2007 copyright by the U.S. Secretary of Commerce
on behalf of the United States of America. All rights reserved.
##CAS REGISTRY NO=121-32-4
##MOLFORM=C9H10O3
##MP=77-78
##SOURCE REFERENCE=RAS UV No. 19153
##$NIST SQUIB=1967LAN91
##$NIST SOURCE=TYUGLMTE
##SPECTROMETER/DATA SYSTEM=Beckman DU
##XUNITS=Wavelength (nm)
##YUNITS=Logarithm epsilon
##XFACTOR=1.0
##YFACTOR=1.0
##FIRSTX=201.52
##LASTX=410.9
##FIRSTY=4.242
##MAXX=410.9
##MINX=201.52
##MAXY=4.269
##MINY=1.248
##NPOINTS=189
##$REF AUTHOR=Lang (editor), L.
##$REF JOURNAL=Absorption Spectra in the Ultraviolet and Visible Region
##$REF VOLUME=9
##$REF PAGE=91
##$REF DATE=1967
##XYPOINTS=(XY..XY)
201.52,4.242
201.69,4.242
201.86,4.246
202.03,4.246
202.20,4.246
202.37,4.249
202.54,4.249
202.71,4.252
202.88,4.252
203.05,4.252
203.22,4.256
203.39,4.256
203.55,4.256
203.72,4.259
204.74,4.266
205.92,4.269
207.11,4.266
208.29,4.252
209.48,4.232
210.66,4.208
211.85,4.181
213.03,4.143
214.22,4.102
215.40,4.068
216.59,4.024
217.77,3.989
218.96,3.986
220.14,3.996
221.33,4.013
222.51,4.048
223.70,4.085
224.88,4.126
226.07,4.160
227.25,4.191
228.44,4.218
229.62,4.246
230.81,4.256
231.99,4.263
233.17,4.263
234.36,4.249
235.54,4.228
236.73,4.208
237.91,4.164
239.10,4.106
240.28,4.020
241.47,3.931
242.65,3.843
243.84,3.761
245.02,3.665
246.21,3.576
247.39,3.498
248.58,3.426
249.76,3.385
250.95,3.378
252.13,3.395
253.32,3.426
254.50,3.460
255.69,3.505
256.87,3.546
258.06,3.597
259.24,3.641
260.43,3.682
261.61,3.723
262.79,3.761
263.98,3.795
265.16,3.839
266.35,3.873
267.53,3.908
268.72,3.938
269.90,3.966
271.09,3.989
272.27,4.010
273.46,4.034
274.64,4.054
275.83,4.071
277.01,4.082
278.20,4.088
279.38,4.099
280.57,4.102
281.75,4.102
282.94,4.099
284.12,4.095
285.31,4.085
286.49,4.078
287.68,4.068
288.86,4.054
290.05,4.051
291.23,4.037
292.42,4.027
293.60,4.017
294.78,4.010
295.97,4.000
297.15,3.996
298.34,3.996
299.52,3.989
300.71,3.986
301.89,3.993
303.08,3.996
304.26,4.000
305.45,4.003
306.63,4.007
307.82,4.010
309.00,4.013
310.19,4.013
311.37,4.013
312.56,4.013
313.74,4.013
314.93,4.013
316.11,4.010
317.30,3.996
318.48,3.993
319.67,3.976
320.85,3.966
322.04,3.955
323.22,3.938
324.40,3.914
325.59,3.890
326.77,3.863
327.96,3.832
329.14,3.809
330.33,3.774
331.51,3.740
332.70,3.696
333.88,3.658
335.07,3.621
336.25,3.576
337.44,3.535
338.62,3.491
339.81,3.450
340.99,3.402
342.18,3.358
343.36,3.310
344.55,3.269
345.73,3.228
346.92,3.191
348.10,3.153
349.29,3.112
350.47,3.078
351.66,3.047
352.84,3.020
354.03,2.999
355.21,2.982
356.39,2.962
357.58,2.945
358.76,2.928
359.95,2.911
361.13,2.883
362.32,2.859
363.50,2.832
364.69,2.808
365.87,2.774
367.06,2.747
368.24,2.716
369.43,2.682
370.61,2.641
371.80,2.600
372.98,2.573
374.17,2.545
375.35,2.501
376.54,2.450
377.72,2.399
378.91,2.347
380.09,2.296
381.28,2.242
382.46,2.197
383.65,2.153
384.83,2.102
386.01,2.061
387.20,2.013
388.38,1.962
389.57,1.917
390.75,1.873
391.94,1.835
393.12,1.794
394.31,1.753
395.49,1.716
396.68,1.668
397.86,1.630
399.05,1.596
400.23,1.559
401.42,1.521
402.60,1.484
403.79,1.443
404.97,1.405
406.16,1.371
407.34,1.340
408.53,1.306
409.71,1.286
410.90,1.248
##END=
