##TITLE=9-Anthracenecarbonitrile
##JCAMP-DX=4.24
##DATA TYPE=UV/VIS SPECTRUM
##ORIGIN=INSTITUTE OF ENERGY PROBLEMS OF CHEMICAL PHYSICS, RAS
##OWNER=INEP CP RAS, NIST OSRD
Collection (C) 2007 copyright by the U.S. Secretary of Commerce
on behalf of the United States of America. All rights reserved.
##CAS REGISTRY NO=1210-12-4
##MOLFORM=C15H9N
##MP=170-172
##SOURCE REFERENCE=RAS UV No. 20187
##$NIST SQUIB=1969BOL/178
##$NIST SOURCE=TYUGLMTE
##SPECTROMETER/DATA SYSTEM=unknown
##XUNITS=Wavelength (nm)
##YUNITS=Logarithm epsilon
##XFACTOR=1.0
##YFACTOR=1.0
##FIRSTX=231.84
##LASTX=416.55
##FIRSTY=4.218
##MAXX=416.55
##MINX=231.84
##MAXY=5.228
##MINY=2.64
##NPOINTS=285
##$REF AUTHOR=Bol'shakov, G.F.; et al.
##$REF JOURNAL=Ultraviolet spectra of heteroorganic compounds
##$REF PAGE=178
##$REF DATE=1969
##XYPOINTS=(XY..XY)
231.84,4.218
232.01,4.222
232.17,4.222
232.34,4.227
232.50,4.227
232.66,4.231
232.83,4.235
232.99,4.235
233.16,4.239
233.32,4.239
233.49,4.243
233.65,4.247
233.82,4.247
233.98,4.252
234.14,4.256
234.31,4.256
234.80,4.264
235.30,4.277
235.79,4.285
236.28,4.298
236.78,4.314
237.27,4.327
237.76,4.344
238.26,4.360
238.75,4.377
239.25,4.391
239.74,4.406
240.23,4.423
240.72,4.440
241.22,4.460
241.71,4.473
242.20,4.494
242.70,4.517
243.19,4.540
243.68,4.561
244.18,4.586
244.67,4.615
245.16,4.644
245.60,4.671
246.15,4.698
246.65,4.736
247.14,4.765
247.63,4.807
248.13,4.845
248.62,4.886
249.14,4.920
249.61,4.953
250.10,4.995
250.59,5.024
251.09,5.053
251.50,5.071
251.82,5.086
252.24,5.104
252.80,5.122
253.58,5.147
254.23,5.166
254.83,5.185
255.53,5.204
256.04,5.218
256.55,5.228
256.87,5.226
257.01,5.212
257.29,5.118
257.50,5.003
257.73,4.908
257.99,4.794
258.25,4.692
258.49,4.594
258.90,4.467
259.52,4.353
259.90,4.285
260.42,4.211
260.95,4.135
261.45,4.068
261.94,4.005
262.43,3.959
262.93,3.893
263.42,3.847
263.91,3.809
264.41,3.767
264.90,3.726
265.40,3.680
265.89,3.646
266.38,3.617
266.88,3.588
267.37,3.554
267.86,3.529
268.36,3.509
268.89,3.484
269.67,3.450
270.49,3.417
271.14,3.387
271.97,3.354
272.80,3.325
273.54,3.297
274.44,3.262
275.26,3.233
276.09,3.204
277.12,3.174
277.90,3.149
278.88,3.120
279.72,3.091
280.69,3.062
281.68,3.037
282.50,3.008
283.49,2.978
284.53,2.951
285.46,2.924
286.61,2.899
287.76,2.878
288.92,2.853
289.90,2.828
291.05,2.803
292.20,2.782
293.52,2.761
294.67,2.740
295.99,2.724
297.30,2.707
298.62,2.690
299.94,2.669
301.42,2.661
302.90,2.648
304.38,2.640
305.86,2.648
307.17,2.665
308.49,2.678
309.64,2.699
310.79,2.719
311.94,2.744
312.93,2.774
313.75,2.807
314.57,2.841
315.56,2.866
316.55,2.891
317.53,2.920
318.69,2.941
319.84,2.962
321.15,2.993
322.30,3.027
323.33,3.063
324.09,3.093
324.95,3.120
325.59,3.141
326.18,3.161
326.61,3.173
326.91,3.183
327.07,3.187
327.24,3.191
327.40,3.195
327.57,3.200
327.73,3.204
327.90,3.208
328.06,3.212
328.39,3.220
329.05,3.237
329.71,3.254
330.36,3.266
331.02,3.283
331.71,3.299
332.59,3.318
333.11,3.328
333.65,3.337
334.32,3.352
334.97,3.362
335.62,3.374
336.28,3.383
336.94,3.396
337.60,3.410
338.26,3.425
338.90,3.437
339.57,3.450
340.23,3.467
340.99,3.491
341.55,3.509
342.21,3.529
342.92,3.557
343.52,3.579
344.18,3.605
344.77,3.630
345.49,3.663
346.15,3.688
346.81,3.713
347.11,3.723
347.56,3.727
348.03,3.723
348.64,3.712
349.01,3.708
349.58,3.705
350.10,3.705
350.76,3.705
351.42,3.705
352.19,3.708
352.86,3.713
353.56,3.719
354.05,3.726
354.71,3.738
355.74,3.755
357.30,3.785
357.99,3.801
359.31,3.834
359.97,3.851
360.63,3.863
361.28,3.880
361.94,3.897
362.73,3.911
363.26,3.922
363.92,3.934
364.52,3.947
365.23,3.951
365.89,3.947
366.55,3.939
367.21,3.918
367.86,3.901
368.47,3.889
369.18,3.872
369.84,3.859
370.50,3.847
371.15,3.843
371.81,3.843
372.50,3.847
373.07,3.852
373.78,3.859
374.51,3.868
375.10,3.876
376.42,3.893
377.13,3.904
377.73,3.913
378.48,3.925
379.05,3.934
379.71,3.943
380.36,3.951
381.05,3.962
381.68,3.968
382.40,3.976
383.00,3.980
383.32,3.982
383.65,3.980
384.32,3.967
384.97,3.951
385.63,3.939
386.23,3.925
386.94,3.909
387.60,3.893
388.64,3.870
389.57,3.851
390.25,3.839
390.73,3.829
391.49,3.818
392.22,3.805
392.86,3.792
393.63,3.782
394.18,3.776
394.83,3.767
395.50,3.763
396.15,3.767
396.81,3.776
398.13,3.792
398.78,3.801
399.42,3.809
400.10,3.817
400.76,3.826
401.43,3.836
402.07,3.843
402.73,3.847
403.39,3.851
404.05,3.851
404.71,3.840
405.36,3.817
406.02,3.792
406.68,3.755
407.34,3.717
408.00,3.684
408.65,3.642
409.31,3.605
409.97,3.563
410.56,3.524
411.15,3.479
411.94,3.421
412.60,3.371
413.21,3.320
413.92,3.258
414.60,3.185
415.23,3.116
415.89,3.053
416.55,2.982
##END=
