##TITLE=Vanillin
##JCAMP-DX=4.24
##DATA TYPE=UV/VIS SPECTRUM
##ORIGIN=INSTITUTE OF ENERGY PROBLEMS OF CHEMICAL PHYSICS, RAS
##OWNER=INEP CP RAS, NIST OSRD
Collection (C) 2007 copyright by the U.S. Secretary of Commerce
on behalf of the United States of America. All rights reserved.
##CAS REGISTRY NO=121-33-5
##MOLFORM=C8H8O3
##MP=81.5
##BP=285
##SOURCE REFERENCE=RAS UV No. 3633
##$NIST SQUIB=1955ROB/KIA1398
##$NIST SOURCE=TYUGLMTE
##SPECTROMETER/DATA SYSTEM=n.i.g.
##XUNITS=Wavelength (nm)
##YUNITS=Logarithm epsilon
##XFACTOR=1.0
##YFACTOR=1.0
##FIRSTX=220.81
##LASTX=350.91
##FIRSTY=3.946
##MAXX=350.91
##MINX=220.81
##MAXY=4.131
##MINY=2.71
##NPOINTS=129
##$REF AUTHOR=Robinson, R.A.; Kiang, A.K.
##$REF JOURNAL=Trans. Faraday Soc.
##$REF VOLUME=51
##$REF PAGE=1398
##$REF DATE=1955
##XYPOINTS=(XY..XY)
220.81,3.946
221.08,3.957
221.34,3.965
221.61,3.973
221.88,3.980
222.47,3.999
223.49,4.025
224.84,4.063
226.18,4.093
227.53,4.115
228.79,4.126
230.22,4.131
231.56,4.125
232.90,4.115
234.25,4.093
235.70,4.056
236.94,4.012
238.28,3.950
239.62,3.863
240.27,3.814
240.97,3.754
241.71,3.698
242.26,3.664
242.85,3.626
243.12,3.600
243.39,3.582
243.63,3.562
244.00,3.538
244.49,3.507
245.02,3.473
245.54,3.430
246.08,3.374
246.61,3.311
247.15,3.236
247.69,3.171
248.08,3.142
248.43,3.120
248.79,3.100
249.30,3.093
249.84,3.093
250.38,3.093
250.93,3.101
251.45,3.120
252.22,3.163
252.86,3.202
253.08,3.219
253.58,3.253
254.01,3.281
254.43,3.312
254.93,3.341
255.51,3.373
256.22,3.403
256.80,3.431
257.48,3.458
258.20,3.487
258.56,3.503
258.81,3.515
259.20,3.530
259.52,3.544
259.79,3.554
260.05,3.563
260.86,3.600
262.20,3.650
263.55,3.702
264.89,3.748
266.24,3.795
267.58,3.833
268.93,3.858
270.27,3.882
271.61,3.913
272.96,3.938
274.30,3.957
275.65,3.973
276.99,3.987
278.33,3.994
279.68,3.998
281.02,4.005
282.37,4.002
283.71,3.998
285.05,3.994
286.40,3.987
287.74,3.980
289.09,3.969
290.43,3.961
291.77,3.957
293.12,3.950
294.46,3.946
295.81,3.942
297.15,3.934
298.50,3.930
299.84,3.925
301.18,3.925
302.53,3.925
303.87,3.925
305.22,3.930
306.56,3.938
307.90,3.942
309.25,3.946
310.59,3.954
311.94,3.957
313.28,3.957
314.62,3.957
315.97,3.950
317.31,3.946
318.66,3.934
320.00,3.921
321.34,3.900
322.69,3.868
324.03,3.843
325.38,3.806
326.72,3.772
328.07,3.742
329.41,3.709
330.75,3.665
332.10,3.634
333.44,3.591
334.96,3.549
336.13,3.513
337.47,3.479
338.82,3.430
340.28,3.365
341.51,3.311
342.73,3.261
344.19,3.194
345.54,3.120
346.88,3.064
348.23,2.962
349.57,2.878
350.91,2.710
##END=
