##TITLE=1,3-Benzenedicarboxylic acid
##JCAMP-DX=4.24
##DATA TYPE=UV/VIS SPECTRUM
##ORIGIN=INSTITUTE OF ENERGY PROBLEMS OF CHEMICAL PHYSICS, RAS
##OWNER=INEP CP RAS, NIST OSRD
Collection (C) 2007 copyright by the U.S. Secretary of Commerce
on behalf of the United States of America. All rights reserved.
##CAS REGISTRY NO=121-91-5
##MOLFORM=C8H6O4
##MP=348.5
##SOURCE REFERENCE=RAS UV No. 19101
##$NIST SQUIB=1968LAN105
##$NIST SOURCE=TYUGLMTE
##SPECTROMETER/DATA SYSTEM=Unicam SP 700
##XUNITS=Wavelength (nm)
##YUNITS=Logarithm epsilon
##XFACTOR=1.0
##YFACTOR=1.0
##FIRSTX=209.52
##LASTX=296.66
##FIRSTY=4.637
##MAXX=296.66
##MINX=209.52
##MAXY=4.64
##MINY=1.569
##NPOINTS=118
##$REF AUTHOR=Lang (editor), L.
##$REF JOURNAL=Absorption Spectra in the Ultraviolet and Visible Region
##$REF VOLUME=11
##$REF PAGE=105
##$REF DATE=1968
##XYPOINTS=(XY..XY)
209.52,4.637
209.68,4.637
209.85,4.637
210.02,4.640
210.35,4.627
211.52,4.620
212.69,4.597
213.86,4.587
215.03,4.550
216.19,4.483
217.36,4.399
218.53,4.321
219.70,4.271
220.87,4.237
222.04,4.214
223.21,4.204
224.37,4.197
225.54,4.190
226.71,4.187
227.88,4.173
229.05,4.170
230.22,4.157
231.39,4.143
232.55,4.126
233.72,4.110
234.89,4.089
236.06,4.059
237.23,4.026
238.40,3.992
239.57,3.945
240.73,3.898
241.90,3.844
243.07,3.784
244.24,3.720
245.41,3.642
246.58,3.572
247.75,3.488
248.91,3.407
250.08,3.323
251.25,3.236
252.42,3.159
253.59,3.088
254.76,3.014
255.93,2.944
257.10,2.886
258.26,2.849
259.43,2.819
260.60,2.799
261.77,2.786
262.94,2.772
264.11,2.772
265.28,2.772
266.44,2.776
267.50,2.781
268.78,2.789
269.95,2.799
271.12,2.806
272.29,2.819
273.65,2.835
275.38,2.852
276.52,2.864
277.09,2.872
277.47,2.877
277.92,2.882
278.37,2.889
278.70,2.895
279.02,2.898
279.29,2.900
279.57,2.904
279.97,2.907
280.30,2.910
280.63,2.910
280.96,2.909
281.30,2.906
281.61,2.902
281.97,2.893
282.30,2.883
282.64,2.870
282.97,2.856
283.31,2.846
283.64,2.833
283.97,2.823
284.32,2.814
284.64,2.806
284.91,2.798
285.28,2.791
285.64,2.786
285.98,2.786
286.42,2.790
286.87,2.799
287.32,2.815
287.65,2.826
287.98,2.839
288.31,2.853
288.65,2.863
288.98,2.870
289.32,2.870
289.65,2.863
289.98,2.849
290.30,2.830
290.60,2.792
290.90,2.753
291.26,2.715
291.62,2.657
292.15,2.587
292.65,2.507
292.99,2.443
293.32,2.366
293.59,2.288
293.99,2.198
294.30,2.111
294.72,2.030
294.99,1.949
295.33,1.885
295.66,1.784
295.99,1.710
296.33,1.640
296.66,1.569
##END=
