##TITLE=Benzoic acid, 3-nitro-
##JCAMP-DX=4.24
##DATA TYPE=UV/VIS SPECTRUM
##ORIGIN=INSTITUTE OF ENERGY PROBLEMS OF CHEMICAL PHYSICS, RAS
##OWNER=INEP CP RAS, NIST OSRD
Collection (C) 2007 copyright by the U.S. Secretary of Commerce
on behalf of the United States of America. All rights reserved.
##CAS REGISTRY NO=121-92-6
##MOLFORM=C7H5NO4
##MP=141
##SOURCE REFERENCE=RAS UV No. 206
##$NIST SQUIB=1951GRA220-226
##$NIST SOURCE=TSGMTE
##SPECTROMETER/DATA SYSTEM=n.i.g.
##XUNITS=Wavelength (nm)
##YUNITS=Logarithm epsilon
##XFACTOR=1.000000
##YFACTOR=1.000000
##FIRSTX=403.1260
##LASTX=227.0226
##FIRSTY=0.802315
##MAXX=403.126
##MINX=227.023
##MAXY=3.94046
##MINY=0.802315
##NPOINTS=863
##$REF AUTHOR=Grammaticakis, P.
##$REF TITLE=Contribution a l'etude de l'absorption dans l'ultraviolet moyen et le visible des arylamines isomeres et de leurs derives N substitues (Premier memoire)
##$REF JOURNAL=Bull. Soc. Chim. Fr.
##$REF VOLUME=18
##$REF PAGE=220-226
##$REF DATE=1951
##XYPOINTS=(XY..XY)
403.1260,0.802315
403.1260,0.810051
402.6679,0.814308
402.6679,0.834039
402.2523,0.838295
402.2523,0.846034
401.7962,0.850285
401.7962,0.870404
401.3824,0.874273
401.3824,0.898253
400.9695,0.902509
400.9695,0.910251
400.5163,0.914502
400.5163,0.922243
400.1051,0.922243
400.1051,0.938490
399.6948,0.942355
399.6948,0.966344
399.2445,0.966344
399.2445,0.974466
398.8359,0.978336
398.8359,0.982588
398.3875,0.986458
398.3875,1.018567
397.9807,1.022437
397.9807,1.026693
397.5748,1.030559
397.5748,1.046807
397.1292,1.050674
397.1292,1.062668
396.7249,1.066535
396.7249,1.078529
396.2813,1.082785
396.2813,1.094775
395.8788,1.098644
395.8788,1.110637
395.4771,1.114891
395.4771,1.130755
395.0362,1.134623
395.0362,1.147002
394.6362,1.147002
394.6362,1.158992
394.2370,1.162863
394.2370,1.174853
393.7989,1.178724
393.7989,1.194972
393.4014,1.194972
393.4014,1.210832
392.9651,1.210832
392.9651,1.222823
392.5693,1.227079
392.5693,1.251064
392.1743,1.254932
392.1743,1.271182
391.7408,1.271182
391.7408,1.275049
391.3474,1.278918
391.3474,1.283172
390.9157,1.283172
390.9157,1.295165
390.5240,1.299034
390.5240,1.307158
390.1331,1.311027
390.1331,1.323019
389.7040,1.327273
389.7040,1.335010
389.3148,1.339267
389.3148,1.343135
388.8875,1.347391
388.8875,1.359382
388.4999,1.363251
388.4999,1.379111
388.1130,1.379111
388.1130,1.387237
387.6884,1.391491
387.6884,1.399229
387.3031,1.403484
387.3031,1.411221
386.9187,1.411221
386.9187,1.423213
386.4966,1.423213
386.4966,1.435206
386.1137,1.435206
386.1137,1.443329
385.6935,1.447584
385.6935,1.455322
385.3122,1.459578
385.3122,1.467314
384.9316,1.471569
384.9316,1.479306
384.5139,1.479306
384.5139,1.491685
384.1350,1.495554
384.1350,1.503678
383.3416,1.511415
383.3416,1.519539
382.9649,1.523408
382.9649,1.531531
382.5514,1.535400
382.5514,1.543524
382.1763,1.547780
382.1763,1.555516
381.7646,1.559771
381.7646,1.567509
381.3910,1.567509
381.3910,1.575632
381.0182,1.575632
381.0182,1.587625
380.6089,1.587625
380.6089,1.595749
380.2376,1.599618
380.2376,1.607741
379.8670,1.607741
379.8670,1.619734
379.4602,1.619734
379.4602,1.623602
379.0912,1.627857
379.0912,1.635981
378.6860,1.635981
378.6860,1.643718
378.3184,1.643718
378.3184,1.655711
377.9516,1.655711
377.9516,1.663835
377.5489,1.667703
377.5489,1.671958
377.1835,1.675827
377.1835,1.683951
376.7824,1.687820
376.7824,1.704067
376.4186,1.704067
376.4186,1.707936
376.0554,1.707936
376.0554,1.711805
375.6567,1.711805
375.6567,1.719928
375.2950,1.723797
375.2950,1.728052
374.9340,1.731921
374.9340,1.736176
374.5377,1.736176
374.5377,1.743913
374.1781,1.743913
374.1781,1.748169
373.7834,1.752037
373.7834,1.760161
373.4253,1.764030
373.4253,1.767898
373.0678,1.772153
373.0678,1.776022
372.6755,1.779890
372.6755,1.784146
372.3195,1.788014
372.3195,1.792269
371.9287,1.796138
371.9287,1.804261
371.5741,1.804261
371.5741,1.808131
371.2202,1.811999
371.2202,1.820123
370.8317,1.820123
370.8317,1.823991
370.4792,1.823991
370.4792,1.832115
370.0922,1.836370
370.0922,1.840239
369.7412,1.840239
369.7412,1.848363
369.3908,1.848363
369.3908,1.856100
369.0061,1.856100
369.0061,1.860355
368.6570,1.860355
368.6570,1.868092
368.3087,1.868092
368.3087,1.872347
367.9262,1.876216
367.9262,1.880084
367.5793,1.880084
367.5793,1.884340
367.1983,1.888209
367.1983,1.896332
366.8527,1.896332
366.8527,1.900201
366.5078,1.900201
366.5078,1.904456
366.1291,1.908325
366.1291,1.912193
365.7854,1.912193
365.7854,1.916449
365.4082,1.916449
365.4082,1.920317
365.0660,1.920317
365.0660,1.924186
364.7244,1.924186
364.7244,1.928441
364.3493,1.932309
364.3493,1.936565
364.0091,1.936565
364.0091,1.940433
363.6355,1.940433
363.6355,1.944302
363.2965,1.944302
363.2965,1.948557
362.9582,1.948557
362.9582,1.952426
362.5868,1.952426
362.5868,1.956294
362.2498,1.956294
362.2498,1.960550
361.9135,1.960550
361.9135,1.964418
361.5442,1.964418
361.5442,1.968287
361.2091,1.968287
361.2091,1.972542
360.8413,1.972542
359.4768,1.988403
358.7819,1.988403
358.7819,1.992658
358.4520,1.992658
358.4520,1.996527
358.0897,1.996527
358.0897,2.000395
357.7610,2.000395
357.4329,2.004651
356.7459,2.004651
356.7459,2.008519
356.3871,2.008519
356.3871,2.012388
356.0615,2.012388
356.0615,2.016643
354.3781,2.016643
354.0562,2.020512
353.3821,2.020512
353.0300,2.024380
351.7239,2.024380
351.7239,2.028635
351.4068,2.028635
351.0586,2.032504
348.7654,2.032504
348.4536,2.036759
346.8412,2.036759
346.8412,2.040628
344.6027,2.040628
344.2983,2.044497
342.7240,2.044497
342.7240,2.048752
342.4229,2.048752
342.0923,2.052620
341.4929,2.052620
341.1641,2.056489
339.6183,2.056489
339.3226,2.060744
338.0864,2.060744
337.7934,2.064613
337.1797,2.064613
337.1797,2.068481
336.5683,2.068481
336.2779,2.072737
335.6698,2.072737
335.3809,2.076605
334.7760,2.076605
334.4887,2.080861
334.1732,2.080861
333.8870,2.084729
332.4063,2.084729
332.4063,2.088597
332.0947,2.088597
332.0947,2.092853
331.8120,2.096721
331.2199,2.096721
331.2199,2.100590
330.9386,2.100590
330.6579,2.104845
330.3496,2.104845
330.3496,2.108714
329.7627,2.108714
329.4839,2.112582
329.2056,2.112582
328.9000,2.116838
328.6227,2.116838
328.3182,2.120706
328.0419,2.120706
328.0419,2.124575
327.7660,2.124575
327.4631,2.128830
327.1882,2.128830
326.6125,2.136954
326.0387,2.136954
326.0387,2.140822
325.7662,2.140822
325.7662,2.144691
325.4942,2.144691
325.4942,2.148946
325.1955,2.148946
325.1955,2.152815
324.9244,2.152815
324.9244,2.156683
324.6267,2.156683
324.6267,2.160939
324.3565,2.160939
324.3565,2.164807
324.0868,2.164807
324.0868,2.168676
323.7907,2.168676
323.2268,2.176800
323.2268,2.181055
322.9590,2.181055
322.9590,2.184924
322.6916,2.184924
322.1315,2.193047
322.1315,2.196916
321.8655,2.196916
321.8655,2.200784
321.5734,2.200784
321.5734,2.205040
321.0172,2.212777
321.0172,2.217032
320.7530,2.217032
320.7530,2.220901
320.4893,2.220901
320.4893,2.229025
320.1997,2.232893
320.1997,2.237148
319.9368,2.237148
319.9368,2.241017
319.6482,2.244885
319.3863,2.244885
319.3863,2.253009
319.1248,2.256878
319.1248,2.265002
318.8376,2.265002
318.8376,2.268870
318.5770,2.268870
318.5770,2.273126
318.2909,2.276994
318.2909,2.285118
318.0312,2.285118
318.0312,2.288987
317.7719,2.288987
317.7719,2.297110
317.4871,2.300979
317.4871,2.305234
317.2287,2.309103
317.2287,2.312971
316.9708,2.317227
316.9708,2.325351
316.6875,2.325351
316.6875,2.329219
316.4304,2.329219
316.4304,2.341211
316.1480,2.341211
316.1480,2.349335
315.8918,2.353204
315.8918,2.369065
315.6360,2.373320
315.6360,2.377189
315.3551,2.377189
315.1001,2.381444
315.1001,2.389181
314.8202,2.393436
314.8202,2.405429
314.5661,2.405429
314.5661,2.413166
314.3124,2.417421
314.3124,2.421290
314.0338,2.425545
314.0338,2.433282
313.7810,2.433282
313.7810,2.441406
313.5034,2.441406
313.5034,2.449530
313.2515,2.453398
313.2515,2.457267
312.9999,2.461522
312.9999,2.469259
312.4729,2.477383
312.4729,2.485507
312.2226,2.485507
312.2226,2.493631
311.9478,2.497499
311.9478,2.501368
311.6983,2.505623
311.6983,2.513360
311.4243,2.517616
311.4243,2.521484
311.1757,2.521484
311.1757,2.529608
310.9275,2.529608
310.9275,2.537732
310.6549,2.537732
310.6549,2.545469
310.4075,2.545469
310.4075,2.553593
310.1358,2.553593
310.1358,2.561717
309.8892,2.565585
309.8892,2.573709
309.6430,2.577578
309.6430,2.581833
309.3727,2.581833
309.3727,2.589570
309.1273,2.589570
309.1273,2.597694
308.8823,2.597694
308.8823,2.605818
308.6133,2.609686
308.6133,2.617810
308.3691,2.617810
308.3691,2.625934
307.8576,2.633671
307.8576,2.641795
307.6147,2.641795
307.6147,2.649919
307.3478,2.649919
307.3478,2.657656
307.1057,2.661911
307.1057,2.665780
306.8397,2.670035
306.8397,2.673904
306.5984,2.677772
306.5984,2.682028
306.3574,2.685896
306.3574,2.689765
306.0927,2.694020
306.0927,2.697888
305.8525,2.697888
305.8525,2.706012
305.5888,2.709881
305.5888,2.713749
305.3494,2.718005
305.3494,2.721873
305.1103,2.721873
305.1103,2.729997
304.8478,2.729997
304.8478,2.750113
304.6096,2.750113
304.6096,2.753982
304.3717,2.753982
304.3717,2.757850
304.1105,2.757850
304.1105,2.762106
303.8734,2.762106
303.8734,2.770230
303.6130,2.770230
303.6130,2.777967
302.6464,2.826323
302.3882,2.830192
301.9197,2.830192
301.9197,2.834060
301.6626,2.834060
301.6626,2.838315
301.4293,2.838315
301.4293,2.842184
301.1731,2.846053
301.1731,2.850308
300.9406,2.854176
300.9406,2.858045
300.7084,2.858045
300.7084,2.862300
300.2220,2.870424
300.2220,2.878161
299.9909,2.878161
299.9909,2.886285
299.7372,2.890154
299.7372,2.894409
299.5068,2.898277
299.5068,2.902146
299.2539,2.906401
299.2539,2.910270
298.7951,2.918394
298.7951,2.926518
298.5433,2.926518
298.5433,2.934255
298.3148,2.934255
298.3148,2.938510
298.0639,2.942379
298.0639,2.946247
297.8361,2.950502
297.8361,2.954371
297.6087,2.954371
297.6087,2.958239
297.3590,2.962495
297.3590,2.966363
297.1323,2.966363
297.1323,2.970619
296.9059,2.974487
296.9059,2.978356
296.6573,2.978356
296.6573,2.982611
296.4317,2.982611
296.4317,2.986480
296.1839,2.990348
296.1839,2.998472
295.9590,3.002340
295.9590,3.014720
295.4879,3.022457
295.4879,3.026712
295.2640,3.026712
295.2640,3.030581
295.0182,3.030581
295.0182,3.034449
294.7950,3.034449
294.7950,3.042573
294.1055,3.054565
294.1055,3.058434
293.8616,3.058434
293.8616,3.062689
293.6402,3.066558
293.6402,3.070813
293.4191,3.070813
293.4191,3.074682
293.1763,3.078550
293.1763,3.082806
292.9560,3.082806
292.9560,3.086674
292.7360,3.090543
292.7360,3.094798
292.4943,3.098666
292.4943,3.102535
292.2750,3.102535
292.2750,3.106790
292.0341,3.110659
292.0341,3.114914
291.8154,3.118783
291.8154,3.122651
291.5971,3.122651
291.5971,3.126907
291.1397,3.134644
291.1397,3.138899
290.9007,3.138899
290.9007,3.142767
290.6837,3.142767
290.6837,3.150891
290.4671,3.150891
290.4671,3.159015
290.2292,3.159015
290.2292,3.162884
290.0133,3.162884
290.0133,3.166752
289.7761,3.171008
289.7761,3.174876
289.5608,3.174876
289.5608,3.183000
289.3458,3.183000
289.3458,3.186869
289.1098,3.186869
289.1098,3.190737
288.8955,3.190737
288.8955,3.194992
288.6815,3.198861
288.6815,3.202729
288.4465,3.202729
288.4465,3.210853
288.2332,3.210853
288.2332,3.215109
287.9989,3.215109
287.9989,3.222846
287.7863,3.222846
287.7863,3.227101
287.3407,3.234838
287.3407,3.239093
287.1291,3.242962
287.1291,3.246831
286.6855,3.254954
286.6855,3.259210
286.4748,3.259210
286.4748,3.263078
286.2434,3.263078
286.2434,3.271202
286.0333,3.271202
285.8026,3.275071
285.8026,3.278939
285.5932,3.278939
285.5932,3.283195
285.1544,3.290932
285.1544,3.295187
284.9460,3.295187
284.9460,3.299055
284.5092,3.307179
284.5092,3.311048
284.3017,3.311048
284.3017,3.315303
283.2274,3.335033
283.2274,3.339288
283.0012,3.343157
283.0012,3.347025
282.7958,3.347025
282.7958,3.351280
282.5908,3.351280
282.5908,3.359404
282.3656,3.359404
282.3656,3.363273
282.1612,3.367141
282.1612,3.371397
281.9571,3.375265
281.9571,3.379134
281.7329,3.379134
281.7329,3.383389
281.5294,3.383389
281.5294,3.387258
281.3059,3.387258
281.3059,3.395381
281.1030,3.395381
281.1030,3.399250
280.6779,3.407374
280.6779,3.411242
280.4759,3.411242
280.4759,3.415498
280.0527,3.423235
280.0527,3.427490
279.8517,3.427490
279.8517,3.431359
279.6308,3.431359
279.6308,3.439483
279.4303,3.439483
279.4303,3.443351
279.2101,3.443351
279.2101,3.451475
279.0103,3.451475
279.0103,3.455343
278.8107,3.455343
278.8107,3.459599
278.5915,3.463467
278.5915,3.467336
278.3925,3.467336
278.3925,3.471591
278.1938,3.471591
278.1938,3.475460
277.9755,3.479328
277.9755,3.483584
277.7774,3.483584
277.7774,3.487452
277.5598,3.487452
277.5598,3.491321
277.3623,3.491321
277.3623,3.495576
277.1651,3.495576
277.1651,3.499444
276.9485,3.503700
276.9485,3.507568
276.7518,3.507568
276.7518,3.511437
276.5358,3.511437
276.5358,3.515692
276.1440,3.523429
276.1440,3.527685
275.9289,3.527685
275.9289,3.531553
275.7337,3.531553
275.7337,3.535422
275.5193,3.539677
275.5193,3.543546
275.3247,3.543546
275.3247,3.547414
275.1304,3.547414
275.1304,3.551669
274.9169,3.551669
274.9169,3.555538
274.5296,3.563662
274.5296,3.571786
274.3171,3.571786
274.3171,3.575654
274.1242,3.575654
273.9123,3.579523
273.7199,3.579523
273.3168,3.587647
273.3168,3.591515
273.1253,3.591515
273.1253,3.595770
272.9149,3.595770
272.9149,3.599639
272.7240,3.603894
272.7240,3.607763
272.5333,3.607763
272.5333,3.611631
272.3238,3.611631
271.9438,3.619755
271.9438,3.623624
271.7353,3.623624
271.7353,3.627879
271.5459,3.627879
271.5459,3.631748
271.3380,3.631748
271.3380,3.635616
271.1492,3.635616
271.1492,3.639872
270.7537,3.647609
270.5657,3.647609
270.5657,3.651864
270.3593,3.651864
270.3593,3.655732
270.1719,3.655732
270.1719,3.659988
269.7792,3.667725
269.5926,3.667725
269.3876,3.671980
269.3876,3.675849
269.2016,3.675849
269.2016,3.679717
269.0158,3.679717
269.0158,3.683973
268.8117,3.683973
268.6264,3.687841
268.4414,3.687841
268.4414,3.691710
268.0537,3.699833
267.8511,3.699833
267.4834,3.707957
267.2817,3.707957
267.2817,3.711826
267.0985,3.711826
267.0985,3.716081
266.8973,3.716081
266.7147,3.719950
266.5323,3.719950
266.3320,3.723818
265.9503,3.723818
265.9503,3.731942
265.7690,3.735811
265.5879,3.735811
265.5879,3.740066
265.2084,3.740066
265.0281,3.743935
264.8300,3.743935
264.4526,3.752058
264.4526,3.755927
264.2733,3.755927
264.0943,3.760182
263.8976,3.760182
263.8976,3.764051
263.7190,3.764051
263.5229,3.767919
263.3448,3.767919
263.1670,3.772175
262.9717,3.772175
262.7944,3.776043
261.5073,3.776043
261.3320,3.779912
261.1394,3.779912
260.9645,3.784167
260.4240,3.784167
260.2327,3.788036
259.3496,3.788036
259.1599,3.791904
258.0959,3.791904
257.9081,3.796159
257.5672,3.796159
257.3801,3.791904
256.4993,3.791904
256.3307,3.788036
255.6246,3.788036
255.4571,3.784167
254.9391,3.784167
254.7558,3.779912
254.0749,3.779912
253.9094,3.776043
253.3812,3.776043
253.2166,3.772175
252.7076,3.772175
252.5275,3.767919
252.0214,3.767919
251.8585,3.764051
251.3550,3.764051
251.1768,3.760182
251.0151,3.760182
250.8535,3.755927
250.5149,3.755927
250.5149,3.752058
250.1772,3.752058
250.0168,3.748190
249.6804,3.748190
249.5046,3.743935
249.1856,3.743935
249.0105,3.740066
248.3599,3.740066
248.1860,3.735811
247.5397,3.735811
247.3669,3.731942
247.0533,3.731942
247.0533,3.728074
245.9154,3.728074
245.7449,3.723818
241.9465,3.723818
241.7964,3.728074
241.0189,3.728074
241.0189,3.731942
239.7882,3.731942
239.6260,3.735811
239.4788,3.735811
239.4788,3.740066
239.3318,3.740066
239.3318,3.743935
238.1036,3.743935
237.9583,3.748190
237.6536,3.748190
237.6536,3.752058
237.5088,3.755927
236.3136,3.755927
236.1561,3.760182
236.0131,3.760182
236.0131,3.764051
235.5709,3.764051
235.5709,3.767919
235.2722,3.767919
235.1303,3.772175
234.9744,3.772175
234.9744,3.776043
234.6914,3.776043
234.6914,3.779912
234.5361,3.779912
234.3950,3.784167
234.2401,3.784167
233.8045,3.796159
233.3705,3.796159
233.3705,3.800028
233.0775,3.800028
233.0775,3.804283
232.9382,3.804283
232.9382,3.808152
232.6462,3.808152
232.6462,3.812020
232.3549,3.812020
232.2165,3.816276
232.0782,3.816276
232.0782,3.820144
231.9263,3.820144
231.6369,3.828268
231.3619,3.828268
231.3619,3.832137
231.2109,3.832137
231.0738,3.836005
230.9232,3.836005
230.9232,3.840261
230.7865,3.840261
230.4999,3.848384
230.3637,3.848384
230.3637,3.852253
230.2276,3.852253
230.2276,3.856121
230.0781,3.856121
229.5226,3.872369
229.3740,3.872369
229.3740,3.876238
229.2391,3.876238
229.2391,3.880106
229.0909,3.884362
228.9563,3.884362
228.6742,3.892099
228.5402,3.892099
228.5402,3.896354
228.1255,3.908346
227.9787,3.908346
227.9787,3.912215
227.8455,3.912215
227.8455,3.916470
227.7123,3.916470
227.7123,3.920339
227.4333,3.928463
227.2874,3.928463
227.2874,3.932331
227.0226,3.940455
##END=
