##TITLE=Phenol, 4-(phenylamino)-
##JCAMP-DX=4.24
##DATA TYPE=UV/VIS SPECTRUM
##ORIGIN=INSTITUTE OF ENERGY PROBLEMS OF CHEMICAL PHYSICS, RAS
##OWNER=INEP CP RAS, NIST OSRD
Collection (C) 2007 copyright by the U.S. Secretary of Commerce
on behalf of the United States of America. All rights reserved.
##CAS REGISTRY NO=122-37-2
##MOLFORM=C12H11NO
##MP=73
##BP=330
##SOURCE REFERENCE=RAS UV No. 12744
##$NIST SQUIB=1957BUG3234
##$NIST SOURCE=TYUGLMTE
##SPECTROMETER/DATA SYSTEM=n.i.g.
##XUNITS=Wavelength (nm)
##YUNITS=Logarithm epsilon
##XFACTOR=1.0
##YFACTOR=1.0
##FIRSTX=236.32
##LASTX=300.21
##FIRSTY=3.983
##MAXX=300.21
##MINX=236.32
##MAXY=4.252
##MINY=2.838
##NPOINTS=138
##$REF AUTHOR=Bugal, P.M.
##$REF JOURNAL=Zhur. Obshcei Khim. (in Rus.)
##$REF VOLUME=27
##$REF PAGE=3234
##$REF DATE=1957
##XYPOINTS=(XY..XY)
236.32,3.983
236.79,3.954
237.15,3.934
237.64,3.903
238.19,3.868
238.60,3.839
239.11,3.804
239.59,3.782
239.96,3.767
240.52,3.749
240.98,3.734
241.40,3.724
241.92,3.715
242.38,3.710
242.85,3.705
243.32,3.701
243.78,3.701
244.25,3.701
244.72,3.705
245.18,3.710
245.68,3.719
246.11,3.727
246.62,3.736
247.19,3.744
247.67,3.751
248.07,3.757
248.50,3.763
248.90,3.768
249.38,3.772
249.83,3.777
250.29,3.784
250.78,3.789
251.29,3.798
251.71,3.806
252.25,3.816
252.64,3.825
253.11,3.835
253.58,3.840
254.04,3.849
254.51,3.859
254.97,3.863
255.44,3.868
255.91,3.878
256.37,3.883
256.84,3.887
257.31,3.892
257.77,3.898
258.24,3.902
258.70,3.907
259.17,3.911
259.61,3.917
260.10,3.926
260.53,3.935
261.13,3.944
261.50,3.950
261.89,3.956
262.43,3.963
262.90,3.969
263.37,3.974
263.89,3.980
264.30,3.988
264.70,3.994
265.23,4.002
265.73,4.010
266.17,4.022
266.60,4.028
267.03,4.037
267.56,4.050
268.01,4.060
268.44,4.069
268.96,4.084
269.47,4.094
269.90,4.103
270.36,4.113
270.77,4.120
271.37,4.129
271.76,4.137
272.13,4.142
272.62,4.148
273.16,4.156
273.65,4.163
274.08,4.168
274.57,4.176
275.03,4.184
275.49,4.194
276.03,4.202
276.46,4.209
276.84,4.215
277.33,4.223
277.87,4.232
278.29,4.237
278.74,4.241
279.23,4.246
279.71,4.250
280.20,4.252
280.64,4.252
281.12,4.251
281.55,4.247
282.02,4.242
282.53,4.239
282.97,4.232
283.40,4.226
283.89,4.218
284.35,4.208
284.75,4.200
285.24,4.188
285.75,4.175
286.27,4.158
286.68,4.146
287.15,4.127
287.62,4.103
287.97,4.091
288.43,4.062
289.02,4.026
289.47,3.997
289.87,3.971
290.41,3.935
290.86,3.907
291.35,3.873
291.91,3.839
292.34,3.813
292.61,3.797
293.09,3.774
293.53,3.750
294.15,3.704
294.61,3.657
295.08,3.610
295.51,3.571
296.01,3.523
296.48,3.486
296.99,3.439
297.41,3.399
297.85,3.353
298.34,3.303
298.81,3.237
299.27,3.107
299.83,2.945
300.21,2.838
##END=
