##TITLE=Diphenylamine
##JCAMP-DX=4.24
##DATA TYPE=UV/VIS SPECTRUM
##ORIGIN=INSTITUTE OF ENERGY PROBLEMS OF CHEMICAL PHYSICS, RAS
##OWNER=INEP CP RAS, NIST OSRD
Collection (C) 2007 copyright by the U.S. Secretary of Commerce
on behalf of the United States of America. All rights reserved.
##CAS REGISTRY NO=122-39-4
##MOLFORM=C12H11N
##MP=52.9
##BP=302
##SOURCE REFERENCE=RAS UV No. 626
##$NIST SQUIB=1949RAM/HOC447-454
##$NIST SOURCE=TSGMTE
##SPECTROMETER/DATA SYSTEM=n.i.g.
##XUNITS=Wavelength (nm)
##YUNITS=Logarithm epsilon
##XFACTOR=1.000000
##YFACTOR=1.000000
##FIRSTX=334.5402
##LASTX=255.9808
##FIRSTY=1.26831
##MAXX=334.54
##MINX=255.981
##MAXY=4.25376
##MINY=1.26831
##NPOINTS=572
##$REF AUTHOR=Ramart-Lucas, M.; Hoch, J.; Grumez, M.
##$REF TITLE=Deformation des orbites electroniques de l'azote par cyclisation (serie du benzotriazole et du phenyltriazole)
##$REF JOURNAL=Bull. Soc. Chim. Fr.
##$REF VOLUME=16
##$REF PAGE=447-454
##$REF DATE=1949
##XYPOINTS=(XY..XY)
334.5402,1.268311
334.4532,1.278603
334.3953,1.289085
334.3170,1.308739
333.9417,1.465535
333.9163,1.474449
333.8838,1.483560
333.8540,1.370720
333.8370,1.492772
333.8370,1.492772
333.8321,1.383456
333.8030,1.396192
333.7595,1.408932
333.7595,1.408932
333.7400,1.493243
333.7179,1.409394
333.6619,1.409955
333.6432,1.493812
333.5989,1.410715
333.5466,1.494578
333.5466,1.494578
333.3227,1.497688
333.0991,1.500799
332.8758,1.503910
332.8758,1.503910
332.8436,1.505233
332.8041,1.506556
332.7504,1.507883
332.7504,1.507883
332.7018,1.535679
332.6392,1.563674
332.5694,1.591767
332.5694,1.591767
332.5076,1.604964
332.4315,1.618262
332.3484,1.631756
332.3484,1.631756
332.2576,1.637918
332.1667,1.644080
332.0759,1.650241
332.0759,1.650241
332.0038,1.652010
331.9174,1.653781
331.8239,1.655553
331.8239,1.655553
331.7939,1.659087
331.7568,1.662719
331.7057,1.666549
331.4971,1.753951
331.4838,1.739465
331.4706,1.724979
331.4574,1.710494
330.7803,1.808951
330.7576,1.820386
330.7279,1.831920
330.6842,1.843651
330.6842,1.843651
330.6455,1.846422
330.5927,1.849390
330.5330,1.852457
330.0773,1.910926
330.0527,1.920150
330.0211,1.929375
329.9753,1.938602
329.9753,1.938602
329.9379,1.942690
329.8865,1.946976
329.8283,1.951359
329.6010,1.980374
329.5742,1.986981
329.5403,1.993686
329.4927,2.000589
329.4927,2.000589
329.4221,2.002926
329.3378,2.005461
329.2465,2.008094
329.2465,2.008094
329.1293,2.019530
329.0052,2.030966
328.8672,2.042405
328.1335,2.100923
328.0712,2.111909
327.9951,2.122898
327.9121,2.133888
327.4256,2.184900
327.3098,2.195148
327.1943,2.205591
327.0789,2.216132
327.0789,2.216132
327.0513,2.221422
327.0168,2.226810
326.9687,2.232395
326.7096,2.256148
326.6785,2.257471
326.6406,2.258795
326.5888,2.260121
326.5888,2.260121
326.4735,2.270255
326.3583,2.280487
326.2434,2.290914
325.6403,2.344142
325.5778,2.353812
325.5017,2.363484
325.4187,2.373157
325.4187,2.373157
325.3871,2.373618
325.3488,2.374178
325.2969,2.374935
324.8090,2.415412
324.7802,2.418930
324.7446,2.422448
324.6953,2.425969
324.6953,2.425969
324.6260,2.427299
324.5430,2.428631
324.4532,2.429964
324.4532,2.429964
324.3655,2.434809
324.2777,2.439654
324.1901,2.444499
324.1901,2.444499
324.1625,2.449333
324.1282,2.454168
324.0803,2.459006
323.4850,2.512235
323.1612,2.540749
323.0066,2.553525
322.8886,2.561513
322.5605,2.603280
322.4227,2.620427
322.2782,2.637575
322.1204,2.654726
322.1204,2.654726
322.0817,2.655188
322.0295,2.655750
321.9709,2.656509
321.5196,2.693030
321.4925,2.697864
321.4587,2.702700
321.4116,2.707537
321.4116,2.707537
321.3259,2.712951
321.2405,2.718560
321.1552,2.724267
321.1552,2.724267
321.0923,2.731319
321.0161,2.738471
320.9334,2.745820
320.9334,2.745820
320.9027,2.746281
320.8654,2.746840
320.8149,2.747598
320.1013,2.788119
320.0749,2.793408
320.0419,2.798796
319.9958,2.804382
319.9958,2.804382
319.9597,2.807462
319.9104,2.810544
319.8545,2.813627
319.3010,2.862900
319.1377,2.879061
319.0158,2.889555
318.8309,2.903377
318.8309,2.903377
318.8006,2.903838
318.7638,2.904398
318.7140,2.905155
318.0245,2.963235
317.9701,2.979050
317.9026,2.994867
317.8286,3.010686
316.6459,3.069297
316.6216,3.076456
316.5909,3.083812
316.5474,3.091267
316.5474,3.091267
316.4818,3.093052
316.4034,3.094936
316.3187,3.097017
316.3187,3.097017
316.2558,3.101858
316.1800,3.106702
316.0977,3.111547
316.0977,3.111547
316.0604,3.112009
316.0101,3.112571
315.9537,3.113330
315.4198,3.170065
315.4198,3.170065
315.4166,3.166244
315.4136,3.162619
315.4107,3.159091
315.3377,3.175918
315.2558,3.181966
315.1740,3.188111
315.1740,3.188111
315.1185,3.201423
315.0503,3.214932
314.9759,3.228539
314.9759,3.228539
314.8697,3.241291
314.7572,3.254044
314.6319,3.266800
314.6319,3.266800
314.4885,3.269038
314.3389,3.271376
314.1830,3.281373
314.1808,3.278756
314.1788,3.276236
314.1769,3.273911
314.1769,3.273911
313.2693,3.321499
313.1662,3.336576
313.0569,3.351849
312.9352,3.367222
312.9352,3.367222
312.9059,3.367683
312.8705,3.368242
312.8225,3.369000
312.1468,3.413032
312.1207,3.417119
312.0884,3.421401
312.0436,3.425784
312.0436,3.425784
311.9824,3.430641
311.9087,3.435599
311.8289,3.440752
311.8289,3.440752
311.7453,3.442525
311.6618,3.444297
311.5784,3.446069
311.5784,3.446069
311.5138,3.446537
311.4368,3.447105
311.3537,3.447869
311.3537,3.447869
311.3269,3.450947
311.2938,3.454027
311.2481,3.457109
310.7895,3.482662
310.7656,3.489268
310.7355,3.495973
310.6931,3.502876
310.6931,3.502876
310.6332,3.508725
310.5610,3.514771
310.4827,3.520917
310.4827,3.520917
310.4210,3.524457
310.3470,3.528098
310.2669,3.531934
310.2669,3.531934
310.2310,3.532397
310.1826,3.532959
310.1282,3.533718
309.2497,3.588768
309.2233,3.591847
309.1907,3.594926
309.1456,3.598008
309.1456,3.598008
309.0845,3.601549
309.0111,3.605189
308.9317,3.609026
308.9317,3.609026
308.9033,3.609487
308.8687,3.610046
308.8219,3.610804
307.9257,3.668932
307.7942,3.678633
307.6568,3.688433
307.5074,3.698430
306.8473,3.733245
306.7632,3.736205
306.6741,3.740434
306.5037,3.749558
306.5037,3.749558
306.3748,3.761014
306.2401,3.772570
306.0934,3.784323
306.0934,3.784323
305.9836,3.784800
305.8679,3.785376
305.7403,3.786150
305.0864,3.819209
305.0601,3.821539
305.0279,3.824066
304.9837,3.826693
304.9837,3.826693
304.6790,3.838592
304.5092,3.845684
304.3286,3.854046
304.3286,3.854046
304.2681,3.855814
304.1955,3.857585
304.1170,3.859357
304.1170,3.859357
304.0917,3.862891
304.0606,3.866523
304.0177,3.870353
302.7079,3.911011
302.6833,3.915097
302.6530,3.919380
302.6108,3.923763
302.6108,3.923763
302.5839,3.924776
302.5512,3.925986
302.5068,3.927296
302.5068,3.927296
302.3680,3.930398
302.2175,3.933502
302.0665,3.943631
302.0665,3.943631
302.0646,3.941127
302.0629,3.938819
302.0612,3.936608
302.0612,3.936608
301.9281,3.946733
301.7781,3.949837
301.6222,3.952942
301.6222,3.952942
301.5958,3.954265
301.5634,3.955589
301.5192,3.956915
301.5192,3.956915
301.4939,3.959684
301.4628,3.962650
301.4199,3.965716
300.3632,3.998863
300.3386,4.002396
300.3082,4.006028
300.2663,4.009858
300.2663,4.009858
300.1889,4.011647
300.1115,4.013533
300.0344,4.015614
300.0344,4.015614
299.9036,4.017398
299.7672,4.019182
299.6192,4.020969
299.6192,4.020969
299.5434,4.024514
299.4677,4.028156
299.3922,4.031993
299.3922,4.031993
299.3655,4.032454
299.3330,4.033013
299.2891,4.033771
299.2891,4.033771
299.1513,4.034255
299.0021,4.034839
298.8474,4.035620
297.3751,4.075883
297.3501,4.078213
297.3195,4.080740
297.2776,4.083367
297.2776,4.083367
297.1496,4.085719
297.0163,4.088268
296.8716,4.090917
296.8716,4.090917
296.7387,4.095027
296.5946,4.099334
296.4451,4.103740
296.4451,4.103740
296.3425,4.104770
296.2344,4.105997
296.1151,4.107323
296.1151,4.107323
296.0582,4.109660
295.9900,4.112195
295.9176,4.116585
295.9171,4.115837
295.9167,4.115284
295.9163,4.114829
295.9163,4.114829
293.7444,4.158763
293.6439,4.160102
293.5379,4.161442
293.4208,4.162785
293.4208,4.162785
293.1230,4.168135
292.8202,4.173583
292.5072,4.179229
292.5072,4.179229
292.4813,4.179235
292.4500,4.179242
292.4075,4.179251
290.2817,4.216162
290.1833,4.217192
290.0797,4.218419
289.9653,4.219745
288.8763,4.233161
288.6512,4.234220
288.4157,4.235476
288.1754,4.236831
288.1754,4.236831
287.9830,4.239639
287.7856,4.242644
287.5778,4.245748
287.5778,4.245748
287.3843,4.245792
287.1857,4.245837
286.9767,4.245885
285.1934,4.253759
284.8213,4.253097
284.4607,4.252628
284.1063,4.252255
284.1063,4.252255
283.9009,4.251002
283.7063,4.249845
283.5173,4.248881
280.7263,4.236810
280.5652,4.236100
280.4044,4.235586
280.2438,4.235169
280.2438,4.235169
279.9910,4.233165
279.7388,4.231355
279.4871,4.229644
279.4871,4.229644
279.3251,4.226740
279.0516,4.222595
278.4337,4.213655
278.4337,4.213655
278.0269,4.212437
277.6212,4.211219
277.2168,4.210000
277.2168,4.210000
277.1745,4.203425
277.1421,4.196848
277.1147,4.190269
277.1147,4.190269
276.9813,4.190302
276.8531,4.190334
276.7349,4.190363
276.7349,4.190363
276.4003,4.184851
276.1612,4.180585
275.8126,4.173907
273.5856,4.128805
273.5479,4.128066
273.5201,4.127520
273.4973,4.127071
273.4973,4.127071
273.3032,4.119786
273.1191,4.112695
272.9402,4.105699
272.9402,4.105699
272.8157,4.104414
272.7009,4.103126
272.5910,4.101836
272.5910,4.101836
272.5442,4.094954
272.5024,4.088265
272.4703,4.081672
271.4103,4.074917
271.4098,4.074169
271.4095,4.073617
271.4092,4.073162
271.4092,4.073162
271.1918,4.067071
270.9795,4.060979
270.7771,4.054885
270.7771,4.054885
270.5863,4.046803
270.4061,4.039988
270.2308,4.033074
266.5711,3.915494
266.5344,3.913000
266.5070,3.910698
266.4842,3.908493
266.4842,3.908493
266.3640,3.904704
266.2532,3.901107
266.1471,3.897607
266.1471,3.897607
266.0834,3.894551
266.0198,3.891494
265.9561,3.888438
265.9561,3.888438
265.8364,3.884649
265.7260,3.881052
265.6204,3.877552
265.6204,3.877552
265.5836,3.874489
265.5559,3.871423
265.5328,3.868356
264.4908,3.836148
264.3957,3.837474
264.3097,3.838701
264.2281,3.839731
264.2281,3.839731
264.1669,3.837991
264.1101,3.836250
264.0625,3.834507
264.0625,3.834507
263.9990,3.828833
263.9401,3.823255
263.8904,3.817871
263.8904,3.817871
263.7680,3.815286
263.6502,3.812797
263.5417,3.810502
263.5417,3.810502
263.5057,3.808007
263.4789,3.805706
263.4567,3.803500
261.9237,3.760016
261.8887,3.758270
261.8625,3.756521
261.8408,3.754771
261.8408,3.754771
261.7805,3.752722
261.7247,3.750868
261.6779,3.749108
261.6779,3.749108
261.5582,3.747840
261.4432,3.746669
261.3372,3.745690
261.3372,3.745690
261.2170,3.736422
261.1519,3.730749
261.0862,3.723808
261.0862,3.723808
260.9661,3.720784
260.8506,3.717857
260.7441,3.715122
259.7419,3.687742
259.7080,3.687004
259.6830,3.686458
259.6624,3.686008
259.6624,3.686008
259.6025,3.682952
259.5469,3.679894
259.5002,3.676834
259.5002,3.676834
259.3822,3.675111
259.2688,3.673387
259.1641,3.671660
259.1641,3.671660
259.1044,3.668604
259.0491,3.665546
259.0025,3.662486
259.0025,3.662486
258.8641,3.659452
258.7258,3.656417
258.5877,3.653383
258.5877,3.653383
258.5286,3.650896
258.4739,3.648602
258.4280,3.646404
256.7981,3.601208
256.7977,3.600460
256.7974,3.599907
256.7971,3.599452
256.7971,3.599452
256.7381,3.596851
256.6791,3.594347
256.6202,3.592039
256.6202,3.592039
256.5101,3.590770
256.4087,3.589595
256.3117,3.588615
256.3117,3.588615
256.2536,3.587331
256.1956,3.586144
256.1377,3.585153
256.1377,3.585153
256.0796,3.582552
256.0259,3.580047
255.9808,3.577735
##END=
