##TITLE=3-Buten-2-one, 4-phenyl-
##JCAMP-DX=4.24
##DATA TYPE=UV/VIS SPECTRUM
##ORIGIN=INSTITUTE OF ENERGY PROBLEMS OF CHEMICAL PHYSICS, RAS
##OWNER=INEP CP RAS, NIST OSRD
Collection (C) 2007 copyright by the U.S. Secretary of Commerce
on behalf of the United States of America. All rights reserved.
##CAS REGISTRY NO=122-57-6
##MOLFORM=C10H10O
##MP=38-39
##SOURCE REFERENCE=RAS UV No. 1183
##$NIST SQUIB=1956GRA/CHA1189
##$NIST SOURCE=TYUGLMTE
##SPECTROMETER/DATA SYSTEM=n.i.g.
##XUNITS=Wavelength (nm)
##YUNITS=Logarithm epsilon
##XFACTOR=1.0
##YFACTOR=1.0
##FIRSTX=259.34
##LASTX=391.24
##FIRSTY=2.611
##MAXX=391.24
##MINX=259.34
##MAXY=2.984
##MINY=0.06
##NPOINTS=130
##$REF AUTHOR=Grammaticakis, P.; Chauvelier, J.
##$REF JOURNAL=Compt. Rend.
##$REF VOLUME=242
##$REF PAGE=1189
##$REF DATE=1956
##XYPOINTS=(XY..XY)
259.34,2.611
260.02,2.619
260.71,2.636
261.40,2.656
262.10,2.673
262.80,2.685
263.50,2.701
264.21,2.718
264.92,2.730
265.63,2.742
266.35,2.759
267.07,2.771
267.80,2.783
268.53,2.799
269.27,2.816
270.00,2.832
270.75,2.849
271.49,2.865
272.24,2.873
273.00,2.885
274.52,2.902
275.29,2.910
276.06,2.922
276.84,2.930
277.62,2.935
278.40,2.943
279.19,2.947
279.99,2.951
280.78,2.959
281.59,2.967
282.39,2.971
283.21,2.971
284.02,2.975
284.85,2.984
285.67,2.984
286.50,2.984
287.34,2.984
288.18,2.984
289.03,2.984
289.88,2.984
290.73,2.980
291.59,2.980
292.46,2.971
293.33,2.967
294.21,2.963
295.09,2.959
295.98,2.951
296.87,2.943
297.77,2.935
298.67,2.922
299.58,2.918
300.49,2.902
301.41,2.885
302.34,2.869
303.27,2.857
304.21,2.844
305.15,2.828
306.10,2.808
307.05,2.791
308.01,2.771
308.98,2.738
309.95,2.718
310.93,2.689
311.92,2.652
312.91,2.603
313.91,2.566
314.91,2.525
315.92,2.427
316.94,2.390
317.96,2.333
318.99,2.292
320.03,2.251
321.07,2.206
322.12,2.173
323.18,2.132
324.24,2.091
325.31,2.050
326.39,2.014
327.48,1.965
328.57,1.924
329.67,1.879
330.78,1.838
331.89,1.797
333.02,1.760
334.15,1.707
335.28,1.662
336.43,1.613
337.58,1.580
338.74,1.527
339.91,1.490
341.09,1.453
342.28,1.424
343.47,1.387
344.67,1.359
345.88,1.330
347.10,1.306
348.33,1.273
349.57,1.248
350.81,1.220
352.07,1.191
353.33,1.166
354.60,1.138
355.89,1.117
357.18,1.097
358.48,1.068
359.79,1.040
361.11,1.007
362.44,0.970
363.77,0.954
365.12,0.913
366.48,0.876
367.85,0.839
369.23,0.802
370.62,0.757
372.02,0.720
373.43,0.679
374.85,0.634
376.29,0.577
377.73,0.544
379.18,0.483
380.65,0.434
382.13,0.385
383.62,0.323
384.12,0.311
384.62,0.299
385.12,0.286
386.63,0.220
387.64,0.150
389.18,0.120
391.24,0.060
##END=
