##TITLE=Benzaldehyde, 4-hydroxy-
##JCAMP-DX=4.24
##DATA TYPE=UV/VIS SPECTRUM
##ORIGIN=INSTITUTE OF ENERGY PROBLEMS OF CHEMICAL PHYSICS, RAS
##OWNER=INEP CP RAS, NIST OSRD
Collection (C) 2007 copyright by the U.S. Secretary of Commerce
on behalf of the United States of America. All rights reserved.
##CAS REGISTRY NO=123-08-0
##MOLFORM=C7H6O2
##MP=117
##SOURCE REFERENCE=RAS UV No. 3310
##$NIST SQUIB=1953GRA821-826
##$NIST SOURCE=TSGMTE
##SPECTROMETER/DATA SYSTEM=n.i.g.
##XUNITS=Wavelength (nm)
##YUNITS=Logarithm epsilon
##XFACTOR=1.000000
##YFACTOR=1.000000
##FIRSTX=118.8602
##LASTX=81.6229
##FIRSTY=0.814154
##MAXX=118.86
##MINX=81.6229
##MAXY=4.25667
##MINY=0.814154
##NPOINTS=557
##$REF AUTHOR=Grammaticakis, P.
##$REF TITLE=Contribution a l'etude de l'absorption dans l'U.-V. moyen et le visible de quelques aldehydes et cetones aromatiques ainsi que de certains de leurs derives fonctionnels, (Premier memoire)
##$REF JOURNAL=Bull. Soc. Chim. Fr.
##$REF VOLUME=20
##$REF PAGE=821-826
##$REF DATE=1953
##XYPOINTS=(XY..XY)
118.8602,0.814154
118.6972,0.819267
118.6972,0.840376
118.5526,0.845495
118.5526,0.867244
118.4085,0.872360
118.4085,0.893468
118.2647,0.899224
118.2647,0.914576
118.1033,0.920332
118.1033,0.936323
117.9602,0.941442
117.9602,0.946555
117.8175,0.952313
117.8175,0.967665
117.6574,0.973423
117.6574,0.994528
117.5154,0.994528
117.5154,1.026513
117.3737,1.031631
117.3737,1.042505
117.2148,1.047621
117.2148,1.052736
117.0739,1.058494
117.0739,1.074484
116.9333,1.074484
116.9333,1.095591
116.7930,1.095591
116.7930,1.105827
116.6356,1.111585
116.6356,1.127574
116.4961,1.127574
116.4961,1.137810
116.3569,1.143564
116.3569,1.153800
116.2007,1.158917
116.2007,1.174908
116.0622,1.174908
116.0622,1.180665
115.9240,1.185783
115.9240,1.201771
115.7690,1.206891
115.7690,1.222880
115.6315,1.222880
115.6315,1.238871
115.4944,1.243987
115.4944,1.249746
115.3405,1.254862
115.3405,1.286845
115.2040,1.291961
115.2040,1.297077
115.0679,1.302835
115.0679,1.318827
114.9320,1.323943
114.9320,1.339934
114.7796,1.345050
114.7796,1.361042
114.6445,1.366159
114.6445,1.377033
114.5097,1.382150
114.5097,1.398141
114.3584,1.403897
114.3584,1.419248
114.2243,1.425006
114.2243,1.440996
114.0904,1.440996
114.0904,1.451231
113.9402,1.456987
113.9402,1.472979
113.8071,1.472979
113.8071,1.494086
113.6742,1.494086
113.6742,1.515194
113.3929,1.526068
113.3929,1.542059
113.2610,1.542059
113.2610,1.552293
113.1295,1.557410
113.1295,1.579158
112.9818,1.579158
112.9818,1.595149
112.8508,1.595149
112.8508,1.605383
112.7202,1.610499
112.7202,1.626491
112.5736,1.626491
112.5736,1.637365
112.4436,1.642481
112.4436,1.653355
112.3139,1.658472
112.3139,1.679581
112.1684,1.679581
112.1684,1.690455
112.0393,1.695572
112.0393,1.706446
111.9106,1.711563
111.9106,1.727553
111.7821,1.733310
111.7821,1.748662
111.6379,1.754418
111.6379,1.770409
111.5101,1.775526
111.5101,1.786400
111.3825,1.786400
111.3825,1.802391
111.2394,1.802391
111.1124,1.807508
111.1124,1.833733
110.9858,1.839489
110.9858,1.844606
110.8437,1.849724
110.8437,1.865714
110.7176,1.870832
110.7176,1.881706
110.5919,1.886823
110.5919,1.897696
110.4508,1.902814
110.4508,1.913687
110.3256,1.918804
110.3256,1.929678
110.2008,1.934795
110.2008,1.945669
110.0762,1.950786
110.0762,1.971894
109.9364,1.977651
109.9364,1.982768
109.8124,1.982768
109.8124,2.008993
109.6887,2.014750
109.6887,2.019867
109.5499,2.024984
109.5499,2.040975
109.4268,2.046732
109.4268,2.056966
109.3040,2.056966
109.3040,2.078074
109.1661,2.078074
109.1661,2.094065
109.0439,2.099821
109.0439,2.110056
108.9219,2.110056
108.9219,2.126047
108.7850,2.131164
108.7850,2.147155
108.6636,2.152911
108.6636,2.158028
108.5425,2.163146
108.5425,2.190010
108.4216,2.195127
108.4216,2.200244
108.2860,2.206001
108.2860,2.221992
108.1657,2.221992
108.1657,2.227109
108.0457,2.232226
108.0457,2.253974
107.9110,2.259091
107.9110,2.280199
107.7915,2.280199
107.7915,2.291073
107.6723,2.296190
107.6723,2.312181
107.5386,2.317298
107.5386,2.333289
107.4199,2.338406
107.4199,2.354397
107.3016,2.354397
107.3016,2.381261
107.1687,2.381261
107.1687,2.402369
107.0509,2.407486
107.0509,2.418360
106.9333,2.423477
106.9333,2.445225
106.8160,2.450342
106.8160,2.466333
106.6844,2.471450
106.6844,2.482324
106.5676,2.482324
106.5676,2.508549
106.4511,2.513666
106.4511,2.519423
106.3204,2.524540
106.3204,2.545648
106.2044,2.551404
106.2044,2.567395
106.0887,2.572513
106.0887,2.588503
105.9588,2.593620
105.9588,2.609611
105.8437,2.614728
105.8437,2.641593
105.7287,2.646710
105.7287,2.667818
105.6141,2.667818
105.6141,2.689566
105.4854,2.694683
105.4854,2.699800
105.3712,2.705557
105.3712,2.726665
105.2573,2.731782
105.2573,2.758647
105.1295,2.763764
105.1295,2.773998
105.0161,2.773998
105.0161,2.816853
104.9030,2.821971
104.9030,2.832844
104.7760,2.837961
104.7760,2.859069
104.6634,2.864826
104.6634,2.896808
104.5510,2.896808
104.5510,2.923033
104.4248,2.928150
104.4248,2.939024
104.3130,2.944141
104.3130,2.976123
104.2014,2.981240
104.2014,3.008105
104.0900,3.013222
104.0900,3.034330
103.9649,3.040086
103.9649,3.077185
103.8541,3.082302
103.8541,3.109167
103.7434,3.114284
103.7434,3.151383
103.6192,3.157140
103.6192,3.183365
103.5091,3.188482
103.5091,3.215347
103.3992,3.220464
103.3992,3.268436
103.2758,3.273554
103.2758,3.305535
103.1664,3.310652
103.1664,3.332400
103.0572,3.337517
103.0572,3.358625
102.9346,3.363742
102.9346,3.395724
102.8259,3.401481
102.8259,3.432823
102.7175,3.438580
102.7175,3.464805
102.6092,3.470561
102.6092,3.501904
102.4877,3.507660
102.4877,3.528768
102.3800,3.533885
102.3800,3.544759
102.2725,3.549876
102.2725,3.581858
102.1518,3.581858
102.1518,3.608723
102.0447,3.608723
102.0447,3.629831
101.9379,3.634948
101.9379,3.650939
101.8180,3.650939
101.8180,3.672047
101.7116,3.677164
101.7116,3.693155
101.6055,3.698911
101.6055,3.714902
101.4996,3.720019
101.4996,3.725137
101.3807,3.725137
101.3807,3.741127
101.2753,3.746245
101.2753,3.762235
101.1700,3.767992
101.1700,3.783983
101.0519,3.789100
101.0519,3.805091
100.9472,3.810208
100.9472,3.815325
100.8426,3.821082
100.8426,3.831316
100.7253,3.837073
100.7253,3.858181
100.6212,3.863298
100.6212,3.869055
100.5173,3.874172
100.5173,3.884406
100.4007,3.884406
100.4007,3.890163
100.2973,3.895280
100.2973,3.900397
100.1941,3.906154
100.1941,3.916388
100.0911,3.922144
100.0911,3.943252
99.9755,3.948370
99.9755,3.953487
99.8730,3.953487
99.8730,3.964360
99.7707,3.964360
99.7707,3.969478
99.6558,3.969478
99.6558,3.985468
99.5539,3.991225
99.5539,3.996342
99.4522,4.001459
99.4522,4.012333
99.3381,4.017450
99.3381,4.022567
99.2369,4.028324
99.2369,4.038558
99.1358,4.038558
99.1358,4.049432
99.0224,4.054549
99.0224,4.060306
98.9218,4.060306
98.9218,4.065423
98.8214,4.070540
98.8214,4.075657
98.7212,4.081414
98.7212,4.086531
98.6088,4.086531
98.6088,4.091648
98.5090,4.091648
98.5090,4.097405
98.2977,4.107639
98.2977,4.113396
98.1986,4.113396
98.1986,4.118513
98.0996,4.118513
98.0996,4.123630
97.5835,4.150495
97.4858,4.150495
97.4858,4.155612
97.3883,4.155612
97.2789,4.160729
97.2789,4.166485
97.1818,4.166485
97.0849,4.171602
96.9761,4.171602
96.9761,4.176720
96.7834,4.176720
96.7834,4.182476
96.6753,4.182476
96.4837,4.192710
96.3882,4.192710
96.3882,4.197828
96.0909,4.197828
96.0909,4.203584
95.9844,4.203584
95.9844,4.208701
95.7955,4.208701
95.7955,4.213818
95.6896,4.213818
95.5957,4.219575
95.3967,4.219575
95.3967,4.224692
95.3033,4.224692
95.2101,4.229809
95.1171,4.229809
95.0127,4.235566
94.8277,4.235566
94.8277,4.240683
94.7239,4.240683
94.6318,4.245800
94.3453,4.245800
94.2540,4.251557
94.0605,4.251557
93.9698,4.256674
93.4961,4.256674
93.4064,4.251557
93.1272,4.251557
93.0382,4.245800
92.5739,4.245800
92.4860,4.240683
92.3982,4.240683
92.2997,4.235566
92.2123,4.235566
92.1250,4.229809
92.0271,4.229809
92.0271,4.224692
91.9402,4.219575
91.5835,4.219575
91.4008,4.208701
91.2296,4.208701
91.2296,4.203584
91.1335,4.197828
90.9632,4.197828
90.8678,4.192710
90.7830,4.192710
90.3513,4.166485
90.2571,4.166485
89.6546,4.128747
89.5722,4.128747
89.5722,4.123630
89.3154,4.107639
89.3154,4.102522
89.2336,4.102522
89.2336,4.097405
89.1417,4.091648
89.0602,4.091648
89.0602,4.086531
88.9788,4.081414
88.8874,4.081414
88.8874,4.075657
88.5540,4.054549
88.5540,4.049432
88.3932,4.038558
88.3932,4.033441
88.3030,4.033441
88.3030,4.028324
88.2230,4.028324
88.2230,4.022567
88.1432,4.017450
88.1432,4.012333
88.0535,4.012333
88.0535,4.006576
87.8945,3.996342
87.8945,3.991225
87.8054,3.985468
87.8054,3.980351
87.7263,3.975234
87.7263,3.969478
87.6473,3.969478
87.6473,3.964360
87.5685,3.964360
87.5685,3.953487
87.4800,3.948370
87.4015,3.948370
87.4015,3.937496
87.3231,3.937496
87.3231,3.932379
87.2351,3.927262
87.2351,3.922144
87.1570,3.916388
87.1570,3.906154
87.0791,3.906154
86.9915,3.900397
86.9915,3.890163
86.8364,3.879289
86.8364,3.874172
86.7494,3.869055
86.7494,3.863298
86.6721,3.863298
86.6721,3.858181
86.5951,3.853064
86.5951,3.847307
86.5181,3.842190
86.5181,3.831316
86.3551,3.821082
86.3551,3.805091
86.2786,3.805091
86.2786,3.794217
86.1927,3.789100
86.1927,3.783983
86.0403,3.773109
86.0403,3.762235
85.8791,3.752001
85.8791,3.741127
85.8034,3.736010
85.8034,3.730893
85.6431,3.720019
85.6431,3.714902
85.5678,3.709146
85.5678,3.698911
85.4927,3.693155
85.4927,3.682921
85.4083,3.682921
85.4083,3.666930
85.3335,3.666930
85.3335,3.656056
85.2587,3.650939
85.2587,3.645822
85.1749,3.640065
85.1749,3.629831
85.1004,3.629831
85.1004,3.618957
85.0261,3.613840
85.0261,3.602966
84.9427,3.602966
84.9427,3.592732
84.8686,3.586975
84.8686,3.581858
84.7947,3.576741
84.7947,3.565867
84.7210,3.560750
84.7210,3.554993
84.6381,3.549876
84.6381,3.544759
84.5646,3.539642
84.5646,3.533885
84.4912,3.528768
84.4912,3.517894
84.4088,3.517894
84.4088,3.507660
84.3357,3.507660
84.3357,3.496787
84.2628,3.491669
84.2628,3.480796
84.1808,3.480796
84.1081,3.475679
84.1081,3.459688
84.0355,3.459688
84.0355,3.448814
83.9540,3.448814
83.9540,3.443697
83.8817,3.438580
83.8817,3.427706
83.8095,3.422589
83.8095,3.417472
83.7374,3.411715
83.7374,3.406598
83.6565,3.406598
83.6565,3.395724
83.5847,3.390607
83.5847,3.385490
83.5130,3.379733
83.5130,3.369499
83.4325,3.369499
83.4325,3.363742
83.3611,3.363742
83.3611,3.353508
83.2898,3.348391
83.2898,3.337517
83.2097,3.337517
83.2097,3.332400
83.1387,3.332400
83.1387,3.326643
83.0677,3.321526
83.0677,3.316409
82.9174,3.305535
82.9174,3.294662
82.8469,3.294662
82.8469,3.289544
82.7764,3.284427
82.7764,3.279310
82.6974,3.273554
82.6974,3.268436
82.5571,3.257563
82.5571,3.247328
82.4785,3.247328
82.4785,3.231338
82.3390,3.231338
82.3390,3.225581
82.2607,3.220464
82.1913,3.220464
82.1913,3.210230
82.1220,3.204473
82.1220,3.199356
82.0528,3.194239
82.0528,3.188482
81.9061,3.178248
81.9061,3.172491
81.8373,3.172491
81.8373,3.162257
81.7600,3.162257
81.7600,3.157140
81.6229,3.146266
##END=
