##TITLE=2,4-Pentanedione
##JCAMP-DX=4.24
##DATA TYPE=UV/VIS SPECTRUM
##ORIGIN=INSTITUTE OF ENERGY PROBLEMS OF CHEMICAL PHYSICS, RAS
##OWNER=INEP CP RAS, NIST OSRD
Collection (C) 2007 copyright by the U.S. Secretary of Commerce
on behalf of the United States of America. All rights reserved.
##CAS REGISTRY NO=123-54-6
##MOLFORM=C5H8O2
##MP=-23
##BP=138
##SOURCE REFERENCE=RAS UV No. 3482
##$NIST SQUIB=1986BER/KAM7744-7751
##$NIST SOURCE=TSGMTE
##SPECTROMETER/DATA SYSTEM=Cary 219
##XUNITS=Wavelength (nm)
##YUNITS=Logarithm epsilon
##XFACTOR=1.000000
##YFACTOR=1.000000
##FIRSTX=287.2101
##LASTX=314.8789
##FIRSTY=4.30615
##MAXX=314.879
##MINX=287.21
##MAXY=4.33674
##MINY=3.53002
##NPOINTS=187
##$REF AUTHOR=Bernasconi, C.F.; Kamararioti, A.
##$REF TITLE=Nucleophilic addition to olefins. 19. Abnormally high intrinsic barrier in the reaction of piperidine and morpholine with benzylideneacetylacetone
##$REF JOURNAL=J. Am. Chem. Soc.
##$REF VOLUME=108
##$REF NUMBER=24
##$REF PAGE=7744-7751
##$REF DATE=1986
##XYPOINTS=(XY..XY)
287.2101,4.306148
287.4587,4.306725
287.4836,4.309392
287.7321,4.309965
287.7467,4.311516
288.0256,4.312084
288.0505,4.314718
288.2991,4.315284
288.3136,4.316816
288.5622,4.317379
288.5774,4.318968
288.8253,4.319465
288.8405,4.321046
289.1139,4.321034
289.1291,4.322609
289.3770,4.323102
289.3922,4.324670
289.6401,4.325160
289.6553,4.326720
289.9288,4.326709
289.9391,4.327767
290.1870,4.328254
290.1974,4.329308
290.4404,4.329298
290.4501,4.330288
290.7291,4.330833
290.7388,4.331819
290.9818,4.331809
290.9873,4.332363
291.2352,4.332845
291.2401,4.333336
291.5190,4.333877
291.5239,4.334367
291.7669,4.334357
291.7718,4.334846
292.2682,4.335865
292.2731,4.336353
292.5465,4.336342
294.5469,4.335773
294.8252,4.336250
294.8301,4.336737
295.0731,4.336728
296.5321,4.330597
296.7551,4.328544
296.7697,4.330031
296.9775,4.326420
296.9927,4.327976
297.2260,4.323845
297.2461,4.325910
297.4435,4.321193
297.4636,4.323270
297.6665,4.319096
297.6817,4.320678
297.8944,4.317498
297.9096,4.319086
298.1375,4.314293
298.1630,4.316977
298.3501,4.311065
298.3757,4.313769
298.5683,4.308399
298.5883,4.310538
298.8162,4.305649
298.8369,4.307867
299.0343,4.302949
299.0544,4.305115
299.2519,4.300166
299.2725,4.302412
299.4803,4.295225
299.5205,4.299624
299.6979,4.292392
299.7234,4.295214
299.9361,4.291841
300.5589,4.276345
300.7618,4.271692
300.7971,4.275774
300.9848,4.265770
301.0304,4.271113
301.1823,4.260348
301.2230,4.265184
301.3853,4.255519
301.4205,4.259755
301.6083,4.249371
301.6532,4.254845
301.8106,4.244342
301.8459,4.248688
302.0032,4.238034
302.0488,4.243727
302.2262,4.231631
302.2718,4.237408
302.4188,4.225133
302.4644,4.230997
302.6267,4.220531
302.6570,4.224491
302.8545,4.214509
302.8952,4.219880
303.0471,4.207748
303.0927,4.213850
303.2549,4.202957
303.2853,4.207079
303.4476,4.196013
303.4931,4.202280
303.6754,4.189638
303.7161,4.195323
303.8729,4.183170
303.9136,4.188940
304.0759,4.177395
304.1111,4.182462
304.2940,4.169309
304.3444,4.176676
304.4963,4.163255
304.5316,4.168488
304.7193,4.160235
304.7345,4.162514
305.1094,4.140762
305.1198,4.142384
305.3124,4.134391
305.3476,4.139981
305.5402,4.127036
305.5810,4.133597
305.7377,4.119556
305.7784,4.126230
305.9455,4.113679
305.9759,4.118736
306.1582,4.108545
306.1837,4.112848
306.3867,4.100840
306.4268,4.107702
306.5841,4.092891
306.6243,4.099879
306.7968,4.087504
306.8223,4.092019
307.0350,4.081170
307.0654,4.086619
307.2374,4.073743
307.2732,4.080275
307.4354,4.065391
307.4755,4.072832
307.6682,4.057684
307.7034,4.064346
307.8711,4.049958
307.9064,4.056738
308.0637,4.040047
308.1087,4.048877
308.2612,4.030891
308.3013,4.038941
308.4842,4.020528
308.5298,4.029883
308.6817,4.010946
308.7224,4.019498
308.8846,4.002333
308.9199,4.009893
309.1076,3.991257
309.1526,4.001125
309.2851,3.976418
309.3452,3.990019
309.4473,3.957424
309.5226,3.975137
309.6095,3.929859
309.7153,3.956083
309.8331,3.856894
309.9844,3.900401
310.3247,3.849229
310.3399,3.853880
310.4766,3.820191
310.5623,3.847512
310.6589,3.799684
310.7148,3.818556
310.8873,3.783846
310.9274,3.797966
311.0799,3.765376
311.1249,3.781850
311.2774,3.747979
311.3175,3.763293
311.5053,3.729851
311.5460,3.746043
312.3718,3.670678
312.5796,3.653949
312.6100,3.668370
312.8275,3.641400
312.8476,3.651249
313.0402,3.625989
313.0657,3.638930
313.2632,3.615492
313.2784,3.623429
313.4813,3.602100
313.5014,3.612869
314.8789,3.530016
##END=
