##TITLE=Hydroquinone
##JCAMP-DX=4.24
##DATA TYPE=UV/VIS SPECTRUM
##ORIGIN=INSTITUTE OF ENERGY PROBLEMS OF CHEMICAL PHYSICS, RAS
##OWNER=INEP CP RAS, NIST OSRD
Collection (C) 2007 copyright by the U.S. Secretary of Commerce
on behalf of the United States of America. All rights reserved.
##CAS REGISTRY NO=123-31-9
##MOLFORM=C6H6O2
##MP=172.3
##BP=287
##SOURCE REFERENCE=RAS UV No. 5032
##$NIST SQUIB=1949KIS/MOL275-280
##$NIST SOURCE=TSGMTE
##SPECTROMETER/DATA SYSTEM=n.i.g.
##XUNITS=Wavelength (nm)
##YUNITS=Logarithm epsilon
##XFACTOR=1.000000
##YFACTOR=1.000000
##FIRSTX=210.0000
##LASTX=319.0000
##FIRSTY=4.07
##MAXX=319
##MINX=210
##MAXY=4.07
##MINY=1.81
##NPOINTS=110
##$REF AUTHOR=Kiss, A.; Molnar, J.; Sandorfy, C.
##$REF TITLE=Les spectres d'absorption des derives phenoliques
##$REF JOURNAL=Bull. Soc. Chim. Fr.
##$REF VOLUME=16
##$REF PAGE=275-280
##$REF DATE=1949
##XYPOINTS=(XY..XY)
210.0000,4.070000
211.0000,4.060000
212.0000,4.040000
213.0000,4.020000
214.0000,4.020000
215.0000,3.990000
216.0000,3.960000
217.0000,3.930000
218.0000,3.930000
219.0000,3.920000
220.0000,3.880000
221.0000,3.850000
222.0000,3.840000
223.0000,3.830000
224.0000,3.780000
225.0000,3.750000
226.0000,3.710000
227.0000,3.710000
228.0000,3.680000
229.0000,3.630000
230.0000,3.590000
231.0000,3.600000
232.0000,3.560000
233.0000,3.460000
234.0000,3.460000
235.0000,3.400000
236.0000,3.330000
237.0000,3.340000
238.0000,3.210000
239.0000,3.140000
240.0000,3.090000
241.0000,2.960000
242.0000,2.960000
243.0000,2.810000
244.0000,2.710000
245.0000,2.570000
246.0000,2.550000
247.0000,2.340000
248.0000,2.380000
249.0000,2.320000
250.0000,2.010000
251.0000,1.820000
252.0000,1.810000
253.0000,1.810000
254.0000,1.810000
255.0000,1.810000
256.0000,1.810000
257.0000,1.820000
258.0000,1.840000
259.0000,1.910000
260.0000,1.900000
261.0000,1.940000
262.0000,2.030000
263.0000,2.030000
264.0000,2.090000
265.0000,2.130000
266.0000,2.150000
267.0000,2.210000
268.0000,2.270000
269.0000,2.270000
270.0000,2.340000
271.0000,2.400000
272.0000,2.400000
273.0000,2.470000
274.0000,2.520000
275.0000,2.530000
276.0000,2.580000
277.0000,2.640000
278.0000,2.640000
279.0000,2.710000
280.0000,2.770000
281.0000,2.770000
282.0000,2.860000
283.0000,2.890000
284.0000,2.890000
285.0000,2.970000
286.0000,3.000000
287.0000,3.000000
288.0000,3.080000
289.0000,3.090000
290.0000,3.190000
291.0000,3.190000
292.0000,3.230000
293.0000,3.270000
294.0000,3.280000
295.0000,3.290000
296.0000,3.320000
297.0000,3.330000
298.0000,3.340000
299.0000,3.340000
300.0000,3.340000
301.0000,3.340000
302.0000,3.330000
303.0000,3.320000
304.0000,3.300000
305.0000,3.280000
306.0000,3.250000
307.0000,3.160000
308.0000,3.070000
309.0000,2.990000
310.0000,2.880000
311.0000,2.860000
312.0000,2.730000
313.0000,2.740000
314.0000,2.590000
315.0000,2.510000
316.0000,2.380000
317.0000,2.320000
318.0000,2.200000
319.0000,2.190000
##END=
