##TITLE=Formamide, N-methyl-
##JCAMP-DX=4.24
##DATA TYPE=UV/VIS SPECTRUM
##ORIGIN=INSTITUTE OF ENERGY PROBLEMS OF CHEMICAL PHYSICS, RAS
##OWNER=INEP CP RAS, NIST OSRD
Collection (C) 2007 copyright by the U.S. Secretary of Commerce
on behalf of the United States of America. All rights reserved.
##CAS REGISTRY NO=123-39-7
##MOLFORM=C2H5NO
##MP=-3.8
##BP=199.5
##SOURCE REFERENCE=RAS UV No. 3944
##$NIST SQUIB=1967NIE/SCH2297-2304
##$NIST SOURCE=TSGMTE
##SPECTROMETER/DATA SYSTEM=n.i.g.
##XUNITS=Wavelength (nm)
##YUNITS=Logarithm epsilon
##XFACTOR=1.000000
##YFACTOR=1.000000
##FIRSTX=180.5697
##LASTX=211.7903
##FIRSTY=3.59764
##MAXX=211.79
##MINX=180.57
##MAXY=3.59764
##MINY=2.4111
##NPOINTS=191
##$REF AUTHOR=Nielsen, E.B.; Schellman, J.A.
##$REF TITLE=The absorption spectra of simple amides and peptides
##$REF JOURNAL=J. Phys. Chem.
##$REF VOLUME=71
##$REF NUMBER=7
##$REF PAGE=2297-2304
##$REF DATE=1967
##XYPOINTS=(XY..XY)
180.5697,3.597643
180.6422,3.581497
180.6529,3.595480
181.1620,3.566827
181.1650,3.570863
181.3378,3.560368
181.3393,3.562421
181.4227,3.560332
181.5985,3.553776
181.6000,3.555860
182.4715,3.542277
182.5550,3.540089
182.8203,3.539971
182.9141,3.537495
183.0839,3.537419
183.1779,3.535201
183.2629,3.535163
183.6131,3.535005
184.6758,3.536706
185.0260,3.536549
185.1232,3.538946
185.4735,3.538789
186.3604,3.547235
186.4453,3.547198
186.5423,3.549272
186.7121,3.549198
186.8093,3.551526
186.8942,3.551489
187.0776,3.555592
187.1625,3.555555
187.1642,3.557890
187.3446,3.557813
188.0543,3.570271
188.2377,3.574201
188.3226,3.574166
188.3243,3.576403
188.4198,3.576364
188.5062,3.578308
188.6866,3.578234
189.5736,3.585953
189.7434,3.585885
189.8406,3.588024
190.4561,3.587779
191.5157,3.585176
191.6006,3.585142
191.6947,3.583155
191.8645,3.583087
191.9585,3.581091
192.1266,3.578809
192.1283,3.581022
192.3070,3.578736
192.3905,3.576724
193.0028,3.572238
193.1000,3.574446
193.1849,3.574411
193.3622,3.570082
193.4471,3.570047
193.5288,3.565713
193.5305,3.567994
193.6243,3.565673
193.7912,3.561517
193.8850,3.559161
193.8867,3.561476
193.9699,3.559125
194.0533,3.557020
194.6702,3.543586
194.7551,3.543549
195.0158,3.536694
195.0992,3.534477
195.1007,3.536656
195.1947,3.534434
195.4446,3.527159
196.3192,3.500694
196.3206,3.503048
196.4843,3.493169
196.4858,3.495564
197.4375,3.453384
197.4404,3.458618
197.5207,3.450366
197.5224,3.453338
197.6147,3.447655
198.2163,3.421538
198.2981,3.415426
198.2997,3.418646
198.4738,3.406245
198.4753,3.409169
198.5573,3.403249
198.5587,3.406193
198.6390,3.396872
198.6422,3.403197
198.7330,3.393803
198.7345,3.396813
198.8163,3.390340
199.5104,3.353772
199.5134,3.360345
199.6756,3.343181
199.6771,3.346561
199.7711,3.343114
199.8528,3.335782
199.8543,3.339220
199.9346,3.328324
199.9362,3.332256
200.1938,3.313395
200.1953,3.317014
200.3742,3.313260
200.4576,3.309545
201.1484,3.255872
201.1516,3.264599
201.3151,3.246817
201.4925,3.238101
201.4955,3.246659
201.5742,3.228741
201.5757,3.233135
201.6683,3.224215
201.6698,3.228654
201.7515,3.219087
201.8349,3.214468
201.8364,3.219008
201.9289,3.209790
202.3531,3.173914
202.5289,3.157775
202.5306,3.163585
202.6123,3.152451
202.7078,3.152348
202.8730,3.135383
202.8745,3.140823
202.9670,3.129764
202.9685,3.135275
203.0502,3.123380
203.0519,3.129667
203.2292,3.117503
203.2306,3.123171
203.3141,3.117403
203.3958,3.105002
203.3975,3.111558
203.4898,3.098973
203.4913,3.104886
203.5732,3.092872
203.6565,3.085919
203.6582,3.092767
203.7505,3.079617
203.8339,3.073236
203.8354,3.079508
203.9188,3.073126
204.0006,3.059372
204.0021,3.065846
204.1795,3.052554
204.1810,3.059129
204.2644,3.052438
204.6189,3.022791
204.7038,3.022666
204.7872,3.015384
204.8811,3.007043
204.8828,3.015242
205.0479,2.991806
205.9284,2.930014
206.0118,2.920981
206.0967,2.920824
206.1891,2.901141
206.1908,2.911577
206.2740,2.900976
206.3574,2.891313
206.4529,2.891123
206.7136,2.859445
206.7970,2.848799
206.7985,2.859264
206.9668,2.848428
207.3184,2.775608
207.3213,2.799982
207.4016,2.761044
207.4033,2.775388
207.6669,2.760334
207.7503,2.746917
207.8458,2.746654
208.0125,2.716700
208.4582,2.715378
208.5385,2.667588
208.5416,2.700473
208.6340,2.667272
208.7174,2.650586
208.8978,2.649964
208.9812,2.632586
209.1600,2.611848
209.1617,2.631938
209.3298,2.611207
209.4238,2.592129
210.9109,2.444099
211.1762,2.442626
211.2597,2.414261
211.3552,2.413693
211.7903,2.411098
##END=
