##TITLE=Succinic acid imide
##JCAMP-DX=4.24
##DATA TYPE=UV/VIS SPECTRUM
##ORIGIN=INSTITUTE OF ENERGY PROBLEMS OF CHEMICAL PHYSICS, RAS
##OWNER=INEP CP RAS, NIST OSRD
Collection (C) 2007 copyright by the U.S. Secretary of Commerce
on behalf of the United States of America. All rights reserved.
##CAS REGISTRY NO=123-56-8
##MOLFORM=C4H5NO2
##MP=126.5
##BP=287 dec
##SOURCE REFERENCE=RAS UV No. 786
##$NIST SQUIB=1953SAI955-956
##$NIST SOURCE=TSGMTE
##SPECTROMETER/DATA SYSTEM=n.i.g.
##XUNITS=Wavelength (nm)
##YUNITS=Logarithm epsilon
##XFACTOR=1.000000
##YFACTOR=1.000000
##FIRSTX=201.0762
##LASTX=259.4891
##FIRSTY=3.91273
##MAXX=259.489
##MINX=201.076
##MAXY=3.91273
##MINY=0.812613
##NPOINTS=108
##$REF AUTHOR=Saidel, L.J.
##$REF TITLE=Contribution of the ultra-violet absorption spectrum of asparagine to the problem of its structure
##$REF JOURNAL=Nature (London)
##$REF VOLUME=172
##$REF PAGE=955-956
##$REF DATE=1953
##XYPOINTS=(XY..XY)
201.0762,3.912730
201.4574,3.875959
201.9839,3.841430
201.9839,3.841430
202.0224,3.828565
202.0608,3.815551
202.0992,3.802236
202.0992,3.802236
202.1658,3.802219
202.2354,3.802201
202.3071,3.763019
202.3071,3.763019
202.3084,3.776324
202.3097,3.789328
202.3109,3.802182
202.3109,3.802182
202.3646,3.759886
202.4230,3.755684
202.4943,3.748772
202.5905,3.737510
202.7237,3.720257
202.9059,3.695374
203.1489,3.661218
203.4650,3.616150
203.8660,3.558528
204.3639,3.486712
204.9709,3.399061
204.9709,3.399061
205.5537,3.285138
205.7152,3.242666
205.9084,3.196483
206.1240,3.150095
206.3528,3.107005
206.5855,3.070716
206.8129,3.044732
207.0258,3.032556
207.0258,3.032556
207.5740,2.902803
207.7462,2.867349
207.9490,2.831737
208.1754,2.796014
208.4180,2.760225
208.6696,2.724419
208.9231,2.688640
209.1712,2.652936
209.4067,2.617352
209.4067,2.617352
209.7567,2.598406
209.9510,2.580250
211.5062,2.476514
212.0499,2.455772
212.6822,2.435721
213.3512,2.416102
214.0048,2.396662
217.1440,2.323575
217.9759,2.306183
218.7597,2.287279
220.5313,2.232578
221.2330,2.217117
222.0400,2.196194
222.8781,2.171828
223.6733,2.146031
224.3513,2.120818
226.2132,2.070746
226.9375,2.049476
227.6837,2.027356
228.4500,2.007519
229.2345,1.993098
229.2345,1.993098
229.4188,1.983598
231.3766,1.965668
232.0894,1.969988
232.7989,1.973435
233.4772,1.972804
234.0965,1.964887
237.1736,1.965084
238.1971,1.965482
239.1254,1.959227
239.7499,1.945174
239.7499,1.945174
242.1475,1.950465
242.7899,1.941103
243.4369,1.928956
244.0820,1.914771
245.9427,1.867426
246.5168,1.852532
247.0572,1.839323
247.0572,1.839323
248.0036,1.798805
248.6254,1.771626
251.8647,1.576019
252.3090,1.539986
252.8019,1.499889
253.3362,1.456076
256.0999,1.200287
256.6018,1.146385
257.0446,1.098024
257.4318,1.055099
257.7665,1.017513
258.0522,0.985161
258.2922,0.957947
258.4897,0.935764
258.6482,0.918513
258.7710,0.906093
258.8613,0.898402
258.8613,0.898402
259.1164,0.855222
259.4891,0.812613
##END=
