##TITLE=1,4-Dioxane
##JCAMP-DX=4.24
##DATA TYPE=UV/VIS SPECTRUM
##ORIGIN=INSTITUTE OF ENERGY PROBLEMS OF CHEMICAL PHYSICS, RAS
##OWNER=INEP CP RAS, NIST OSRD
Collection (C) 2007 copyright by the U.S. Secretary of Commerce
on behalf of the United States of America. All rights reserved.
##CAS REGISTRY NO=123-91-1
##MOLFORM=C4H8O2
##MP=11.8
##BP=101.5
##SOURCE REFERENCE=RAS UV No. 3275
##$NIST SQUIB=1951PIC/HOE4865-4869
##$NIST SOURCE=TSGMTE
##SPECTROMETER/DATA SYSTEM=Hilger fluorite prism spectrograph
##XUNITS=Wavelength (nm)
##YUNITS=Logarithm epsilon
##XFACTOR=1.000000
##YFACTOR=1.000000
##FIRSTX=187.9977
##LASTX=167.6905
##FIRSTY=2.82747
##MAXX=187.998
##MINX=167.69
##MAXY=3.67548
##MINY=1.8032
##NPOINTS=375
##$REF AUTHOR=Pickett, L.W.; Hoeflich, N.J.; Liu, T.-C.
##$REF TITLE=The vacuum ultraviolet absorption spectra of cyclic compounds. II. Tetrahydrofuran, tetrahydropyran, 1,4-dioxane and furan
##$REF JOURNAL=J. Am. Chem. Soc.
##$REF VOLUME=73
##$REF PAGE=4865-4869
##$REF DATE=1951
##XYPOINTS=(XY..XY)
187.9977,2.827472
187.9592,2.770241
187.9266,2.722486
187.8978,2.681261
187.8706,2.643617
187.8429,2.606608
187.8124,2.567289
187.7770,2.522710
187.7345,2.469927
187.6829,2.405992
187.6829,2.405992
187.6621,2.401700
187.6421,2.397505
187.6237,2.393504
187.6237,2.393504
187.5582,2.390371
187.5201,2.387508
187.4769,2.382458
187.4577,2.387498
187.3787,2.494838
187.3138,2.583078
187.2610,2.654511
187.2187,2.711429
187.1851,2.756124
187.1584,2.790888
187.1368,2.818013
187.1186,2.839791
187.1019,2.858515
187.0851,2.876476
187.0664,2.895968
187.0664,2.895968
187.0466,2.898883
187.0253,2.901792
187.0031,2.904700
187.0031,2.904700
186.9568,2.901167
186.9252,2.885549
186.8902,2.852086
186.8218,2.772092
186.8218,2.772092
186.8012,2.770285
186.7896,2.767939
186.7768,2.763041
186.7466,2.769747
186.7320,2.770537
186.7174,2.771234
186.7029,2.771741
186.7029,2.771741
186.6779,2.777110
186.6606,2.783445
186.6365,2.796177
186.6365,2.796177
186.6124,2.840438
186.5836,2.905211
186.4014,3.125035
186.4014,3.125035
186.4006,3.128854
186.4001,3.130992
186.3997,3.133224
186.3992,3.135645
186.3835,3.170863
186.3814,3.122553
186.3630,3.120265
186.3585,3.192007
186.3454,3.118074
186.3454,3.118074
186.3143,3.064479
186.2842,3.010927
186.2547,2.957456
186.2256,2.904105
186.2256,2.904105
186.1718,2.870947
186.1188,2.837979
186.0674,2.805111
186.0674,2.805111
186.0425,2.804203
186.0176,2.803390
185.9927,2.802766
185.9927,2.802766
185.9851,2.788729
185.9782,2.774694
185.9730,2.760664
185.9641,2.802681
185.9410,2.876992
185.9226,2.928548
185.9023,2.970640
185.8739,3.016560
185.8309,3.079601
185.8309,3.079601
185.7506,3.158583
185.6857,3.225748
185.6349,3.279418
185.5966,3.317919
185.5695,3.339576
185.5695,3.339576
185.5513,3.341220
185.5322,3.342862
185.5116,3.344499
185.5116,3.344499
185.5052,3.352674
185.4973,3.361034
185.4885,3.369486
185.4661,3.340965
185.4520,3.340200
185.4379,3.339623
185.4238,3.339140
185.4238,3.339140
185.3833,3.312390
185.3436,3.285832
185.3055,3.259372
185.3055,3.259372
185.2858,3.256890
185.2676,3.254602
185.2502,3.252411
185.2502,3.252411
185.2479,3.234143
185.2474,3.197619
185.2473,3.215880
185.2213,3.237886
185.1995,3.253927
185.1701,3.276551
185.1331,3.320859
185.1331,3.320859
185.0817,3.355890
185.0507,3.372202
185.0137,3.383778
185.0137,3.383778
184.8625,3.388860
184.7672,3.393638
184.6461,3.402208
184.6461,3.402208
184.6118,3.398408
184.5783,3.394800
184.5464,3.322492
184.5464,3.322492
184.5463,3.391290
184.5463,3.391290
184.5453,3.345422
184.5450,3.368353
184.5170,3.294799
184.4875,3.267106
184.4581,3.239413
184.4581,3.239413
184.4341,3.236808
184.4109,3.234300
184.3893,3.231986
184.3893,3.231986
184.3841,3.223602
184.3797,3.215410
184.3768,3.207317
184.3570,3.235286
184.3161,3.263014
184.2430,3.324545
184.1593,3.397173
184.0864,3.458195
184.0541,3.512959
184.0500,3.503603
184.0476,3.494253
184.0459,3.484905
184.0459,3.484905
184.0011,3.481372
183.9544,3.474010
183.8952,3.459533
183.8200,3.443874
183.8200,3.443874
183.8156,3.436217
183.8128,3.428564
183.8107,3.420914
183.7910,3.448882
183.7277,3.464655
183.6539,3.485868
183.5588,3.509754
183.5588,3.509754
183.4797,3.521844
183.4007,3.534029
183.3217,3.546402
183.3217,3.546402
183.2694,3.564204
183.2172,3.582196
183.1649,3.600281
183.1649,3.600281
183.1474,3.600668
183.1290,3.601146
183.1091,3.601809
183.1091,3.601809
183.1082,3.606493
183.1072,3.611272
183.1062,3.616239
183.0814,3.601724
183.0654,3.600417
183.0509,3.599208
183.0371,3.598191
183.0371,3.598191
182.9293,3.557217
182.8614,3.535806
182.8243,3.521945
182.7907,3.534157
182.7503,3.553694
182.6900,3.592044
182.6152,3.633842
182.6152,3.633842
182.5969,3.634225
182.5770,3.634699
182.5563,3.635359
182.5563,3.635359
182.5554,3.640043
182.5544,3.644822
182.5534,3.649789
182.4731,3.621088
182.4663,3.625738
182.4610,3.630393
182.4565,3.635051
182.4565,3.635051
182.4183,3.636931
182.3801,3.638622
182.3420,3.640218
182.3420,3.640218
182.3080,3.638855
182.2748,3.637588
182.2431,3.636515
182.2431,3.636515
182.2105,3.628770
182.1786,3.621027
182.1483,3.613289
182.1483,3.613289
182.1144,3.611910
182.0813,3.610533
182.0497,3.609161
182.0497,3.609161
181.9532,3.623270
181.9034,3.632805
181.8575,3.645937
181.8575,3.645937
181.8165,3.650481
181.7772,3.655030
181.7386,3.659582
181.7386,3.659582
181.5710,3.638786
181.4855,3.629381
181.4084,3.623305
181.4084,3.623305
181.3313,3.623064
181.2557,3.622827
181.1809,3.622594
181.1809,3.622594
181.0923,3.631109
180.9604,3.645810
180.8212,3.660112
180.8212,3.660112
180.7224,3.664472
180.6236,3.668833
180.5250,3.673194
180.5250,3.673194
180.3609,3.673950
180.1987,3.674711
180.0374,3.675475
180.0374,3.675475
179.9914,3.670658
179.9455,3.665841
179.8996,3.661024
179.8996,3.661024
179.5152,3.659659
179.3473,3.658132
179.2507,3.655134
179.2507,3.655134
179.1772,3.657432
179.1038,3.659635
179.0305,3.661649
179.0305,3.661649
178.9296,3.658667
178.8693,3.655721
178.7978,3.650285
178.7978,3.650285
178.6020,3.643270
178.3759,3.632946
178.2166,3.623780
178.2166,3.623780
177.7356,3.619405
177.5424,3.616904
177.4697,3.614135
177.4697,3.614135
177.3911,3.599864
177.3125,3.585593
177.2340,3.571322
177.2340,3.571322
177.0972,3.553871
176.9658,3.535777
176.8294,3.518609
176.8294,3.518609
176.8004,3.523185
176.7728,3.527766
176.7460,3.532350
176.7460,3.532350
176.7011,3.528836
176.6399,3.520927
176.5099,3.501845
176.5099,3.501845
176.4166,3.501537
176.3234,3.501229
176.2303,3.500921
176.2303,3.500921
176.1752,3.496885
176.1005,3.487499
175.9422,3.464719
175.9171,3.462512
175.8294,3.464470
175.7404,3.466612
175.6507,3.468846
175.5717,3.465185
175.4396,3.439814
175.3076,3.414632
175.1757,3.389544
175.1757,3.389544
175.0984,3.377393
174.9236,3.345098
174.5149,3.272659
174.5149,3.272659
174.4233,3.261152
174.1977,3.227861
173.6908,3.153504
173.6908,3.153504
173.6526,3.145730
173.6158,3.137961
173.5798,3.130193
173.5798,3.130193
173.3437,3.090836
173.1728,3.059910
172.9302,3.017129
172.9302,3.017129
172.7917,2.985069
172.6800,2.961784
172.4993,2.927312
172.4993,2.927312
172.3879,2.900691
172.2185,2.863677
171.9837,2.810863
171.9837,2.810863
171.8976,2.786640
171.7330,2.743457
171.5971,2.703772
171.5971,2.703772
171.5481,2.693959
171.5003,2.684339
171.4533,2.674816
171.4533,2.674816
171.2675,2.629858
170.9257,2.550093
170.7163,2.497686
170.7163,2.497686
170.6103,2.478957
170.4789,2.450228
170.4152,2.431647
170.4152,2.431647
170.2573,2.397051
170.0406,2.347711
169.7931,2.295240
169.7931,2.295240
169.7572,2.284008
169.6977,2.268066
169.6547,2.252278
169.6547,2.252278
169.4433,2.208363
169.3019,2.177248
169.1092,2.132264
169.1092,2.132264
168.9090,2.086340
168.5822,2.007680
168.3906,1.964047
168.3906,1.964047
168.1236,1.900288
167.9056,1.850106
167.8097,1.826037
167.8097,1.826037
167.7708,1.819872
167.6905,1.803200
##END=
