##TITLE=2,5-Dimethylpyrazine
##JCAMP-DX=4.24
##DATA TYPE=UV/VIS SPECTRUM
##ORIGIN=INSTITUTE OF ENERGY PROBLEMS OF CHEMICAL PHYSICS, RAS
##OWNER=INEP CP RAS, NIST OSRD
Collection (C) 2007 copyright by the U.S. Secretary of Commerce
on behalf of the United States of America. All rights reserved.
##CAS REGISTRY NO=123-32-0
##MOLFORM=C6H8N2
##MP=15
##BP=155
##SOURCE REFERENCE=RAS UV No. 5950
##$NIST SQUIB=1959MAS1247-1253
##$NIST SOURCE=TSGMTE
##SPECTROMETER/DATA SYSTEM=Hilger Uvispek Spectrophotometer
##XUNITS=Wavelength (nm)
##YUNITS=Logarithm epsilon
##XFACTOR=1.000000
##YFACTOR=1.000000
##FIRSTX=221.9460
##LASTX=334.0517
##FIRSTY=2.10005
##MAXX=334.052
##MINX=221.946
##MAXY=3.74207
##MINY=1.06833
##NPOINTS=239
##$REF AUTHOR=Mason, S.F.
##$REF TITLE=The electronic spectra of N-heteroaromatic systems. Part II. Substituted monocyclic azones
##$REF JOURNAL=J. Chem. Soc.
##$REF PAGE=1247-1253
##$REF DATE=1959
##XYPOINTS=(XY..XY)
221.9460,2.100047
222.3722,2.079160
222.8514,2.050512
225.0613,1.973183
225.4352,1.972416
225.8198,1.971427
226.2098,1.970326
226.6036,1.972642
227.4033,1.974379
227.7356,1.976934
227.8856,1.982498
229.6859,2.025051
230.2901,2.042850
230.8995,2.060430
231.5197,2.077897
232.8480,2.140735
233.1064,2.155221
233.3701,2.169487
233.6446,2.183640
235.2447,2.249327
235.5037,2.264449
235.7681,2.279569
236.0434,2.294685
237.3653,2.350164
237.7512,2.375601
238.0217,2.387339
238.4088,2.395436
239.7440,2.466124
240.0033,2.481591
240.2678,2.496838
240.5431,2.511972
241.6245,2.572443
241.9662,2.590971
242.3189,2.609495
242.6770,2.628017
243.8876,2.696295
244.0206,2.707390
244.1589,2.718264
244.3080,2.729026
245.7634,2.797218
245.9806,2.813317
246.2086,2.829304
246.4419,2.845071
247.7727,2.910853
248.0347,2.929409
248.3021,2.947963
248.5804,2.966513
249.9113,3.032294
250.1154,3.057286
250.2579,3.067796
250.4609,3.072832
251.5178,3.133312
251.7024,3.148460
251.8871,3.163608
252.0717,3.178756
253.2780,3.242127
253.8613,3.281763
254.1752,3.299464
254.4886,3.310405
255.7769,3.355591
256.0423,3.370710
256.3185,3.385826
256.6002,3.400940
258.4296,3.476852
258.6070,3.483642
258.7842,3.490323
258.9613,3.496785
260.5348,3.560028
261.0393,3.583079
261.6717,3.603141
262.3772,3.622686
262.4557,3.620205
262.5451,3.617720
262.6400,3.615233
262.6400,3.615233
265.1924,3.649670
265.7192,3.664062
266.2458,3.678236
266.7724,3.692300
268.5663,3.727495
269.9621,3.742072
271.7071,3.738970
273.1394,3.720493
275.6721,3.704392
276.5014,3.702683
277.1217,3.698431
277.9579,3.685924
279.6850,3.616616
279.9967,3.600658
280.3190,3.584478
280.6467,3.568187
281.1274,3.529742
281.3637,3.518845
281.6053,3.507837
281.8576,3.496607
282.3203,3.437557
282.5453,3.417903
282.7270,3.404808
282.7945,3.391753
283.2400,3.341051
283.3146,3.330975
283.5264,3.315833
283.8298,3.287355
284.5479,3.209259
284.6296,3.234221
284.6311,3.167336
284.7112,3.259074
285.3368,3.106238
285.4919,3.087536
285.6470,3.068834
285.8021,3.050132
286.7479,2.983552
286.8604,2.971099
286.9781,2.958426
287.1066,2.945640
288.2015,2.881461
288.6830,2.863608
289.1752,2.845642
289.6726,2.827455
291.1617,2.794054
291.4864,2.780473
292.0028,2.768459
293.1538,2.747718
295.6865,2.731617
296.1850,2.733260
296.6941,2.734680
297.2086,2.735990
299.5188,2.745485
299.8675,2.752215
300.2161,2.758836
300.5645,2.765239
303.5154,2.807388
304.1618,2.818430
304.8080,2.829363
305.4541,2.840077
307.6281,2.861889
308.1763,2.864495
308.7353,2.866880
309.2996,2.869154
312.0079,2.913842
312.6837,2.922293
313.3702,2.930522
314.0620,2.938639
314.0620,2.938639
314.2637,2.936951
314.4761,2.935041
314.6938,2.933020
318.5043,2.921869
319.3143,2.914733
319.9736,2.903178
320.2313,2.880533
320.2313,2.880533
320.4021,2.879837
320.5727,2.878922
320.7433,2.877899
320.7433,2.877899
320.8489,2.857597
320.9597,2.837075
321.0814,2.816440
322.2011,2.808686
322.5486,2.789116
323.2083,2.771837
324.2129,2.756944
324.2129,2.756944
324.2983,2.740466
324.4166,2.730628
324.6695,2.718998
324.9230,2.700752
324.9275,2.706003
324.9319,2.711036
324.9362,2.715960
324.9362,2.715960
325.3992,2.713344
325.8622,2.710728
326.3252,2.708112
326.3252,2.708112
326.3743,2.624180
326.4842,2.698078
326.4970,2.676318
327.0356,2.512062
327.2295,2.506705
327.3525,2.494830
327.5098,2.466258
327.9836,2.419963
328.0477,2.408163
328.1172,2.396361
328.1976,2.384556
328.6671,2.333355
328.8290,2.322484
328.9909,2.311504
329.1525,2.300306
329.3463,2.241841
329.5401,2.236285
329.6618,2.223010
329.8159,2.190641
330.0165,2.140025
330.0855,2.126606
330.1652,2.112965
330.2503,2.099213
330.9556,2.037624
330.9749,2.023368
331.0050,2.008999
331.0403,1.994410
331.3720,1.925592
331.5129,1.910330
331.6646,1.895064
331.8218,1.879796
332.0332,1.813474
332.0960,1.800184
332.1641,1.786783
332.2429,1.773160
332.6902,1.696450
332.6991,1.706734
332.7080,1.716909
332.7167,1.726866
332.8908,1.645834
332.9973,1.626513
333.1090,1.606972
333.2315,1.587318
333.2850,1.508291
333.3460,1.493058
333.4125,1.477821
333.4899,1.462582
333.7057,1.401166
333.7249,1.386909
333.7550,1.372540
333.7904,1.357952
333.8172,1.248510
333.8308,1.264062
333.8442,1.279398
333.8575,1.294623
333.9755,1.121356
333.9918,1.103684
334.0190,1.086007
334.0201,1.172375
334.0307,1.184496
334.0411,1.196395
334.0514,1.208189
334.0517,1.068331
##END=
