##TITLE=Myrcene
##JCAMP-DX=4.24
##DATA TYPE=UV/VIS SPECTRUM
##ORIGIN=INSTITUTE OF ENERGY PROBLEMS OF CHEMICAL PHYSICS, RAS
##OWNER=INEP CP RAS, NIST OSRD
Collection (C) 2007 copyright by the U.S. Secretary of Commerce
on behalf of the United States of America. All rights reserved.
##CAS REGISTRY NO=123-35-3
##MOLFORM=C10H16
##BP=167
##SOURCE REFERENCE=RAS UV No. 3767
##$NIST SQUIB=1954OCO/GOL1726-1737
##$NIST SOURCE=TSGMTE
##SPECTROMETER/DATA SYSTEM=Beckman DU
##XUNITS=Wavelength (nm)
##YUNITS=Logarithm epsilon
##XFACTOR=1.000000
##YFACTOR=1.000000
##FIRSTX=221.3556
##LASTX=249.5879
##FIRSTY=5.08253
##MAXX=249.588
##MINX=221.356
##MAXY=5.09927
##MINY=3.44597
##NPOINTS=113
##$REF AUTHOR=O'Connor, R.T.; Goldblatt, L.A.
##$REF TITLE=Correlation of ultraviolet and infrared spectra of terpene hydrocarbons
##$REF JOURNAL=Anal. Chem.
##$REF VOLUME=26
##$REF NUMBER=11
##$REF PAGE=1726-1737
##$REF DATE=1954
##XYPOINTS=(XY..XY)
221.3556,5.082531
225.5435,5.094222
225.8368,5.099272
226.3298,5.094211
226.6291,5.094904
226.6312,5.095413
226.6333,5.095902
226.6354,5.096381
226.6369,5.096728
226.6369,5.096728
227.0583,5.082679
227.1215,5.094201
227.1215,5.094201
227.3382,5.079436
227.3666,5.093587
227.6117,5.076163
227.6117,5.092973
227.8784,5.072861
228.1380,5.069528
228.3902,5.066165
228.6347,5.062771
228.8710,5.059346
229.0988,5.055888
229.3179,5.052398
229.5279,5.048875
229.7284,5.045318
229.9192,5.041728
230.0998,5.038102
232.1945,4.978194
232.3196,4.974211
232.4451,4.970191
232.5706,4.966132
232.6961,4.962034
232.8213,4.957897
232.9461,4.953719
233.0703,4.949499
233.1936,4.945238
233.3160,4.940933
233.4372,4.936584
233.5570,4.932191
233.6753,4.927752
233.7920,4.923265
233.9067,4.918731
234.0193,4.914148
234.1297,4.909515
234.2376,4.904831
234.3429,4.900094
234.4454,4.895304
234.5449,4.890459
234.6413,4.885559
234.7343,4.880601
234.8238,4.875584
234.9096,4.870507
234.9915,4.865369
235.0693,4.860167
235.1428,4.854901
235.2120,4.849568
235.2765,4.844168
235.3362,4.838697
235.3909,4.833155
235.4405,4.827540
236.1840,4.770191
236.2834,4.763754
236.3829,4.757220
236.4823,4.750585
236.5817,4.743848
236.6811,4.737004
236.7805,4.730051
236.8800,4.722983
236.9794,4.715799
237.0788,4.708494
237.1782,4.701063
237.2776,4.693503
237.3770,4.685809
237.4764,4.677976
237.5759,4.669998
237.6753,4.661871
237.7747,4.653589
237.8741,4.645146
237.9735,4.636535
238.0729,4.627750
238.1723,4.618783
238.2717,4.609627
238.3711,4.600273
238.4706,4.590713
238.5700,4.580938
238.6694,4.570938
238.7688,4.560702
238.8682,4.550219
238.9676,4.539476
239.0670,4.528460
239.1664,4.517158
239.2658,4.505554
239.3652,4.493631
239.4647,4.481371
239.5641,4.468755
239.6635,4.455761
239.7629,4.442367
241.4635,4.254170
241.6976,4.230977
241.9432,4.206458
242.1957,4.180460
242.4506,4.152801
242.7032,4.123263
242.9489,4.091578
243.1832,4.057419
243.4014,4.020373
244.9062,3.787154
245.3006,3.715518
246.4660,3.623431
247.9720,3.520249
249.5879,3.445970
249.5879,3.445970
##END=
