##TITLE=Pyrrolidine
##JCAMP-DX=4.24
##DATA TYPE=UV/VIS SPECTRUM
##ORIGIN=INSTITUTE OF ENERGY PROBLEMS OF CHEMICAL PHYSICS, RAS
##OWNER=INEP CP RAS, NIST OSRD
Collection (C) 2007 copyright by the U.S. Secretary of Commerce
on behalf of the United States of America. All rights reserved.
##CAS REGISTRY NO=123-75-1
##MOLFORM=C4H9N
##MP=-57.8
##BP=86.5
##SOURCE REFERENCE=RAS UV No. 794
##$NIST SQUIB=1953PIC/COR1618-1622
##$NIST SOURCE=TSGMTE
##SPECTROMETER/DATA SYSTEM=Fluorite prism vacuum spectrograph or Beckman spectrophotometer, Model DU
##XUNITS=Wavelength (nm)
##YUNITS=Logarithm epsilon
##XFACTOR=1.000000
##YFACTOR=1.000000
##FIRSTX=241.3030
##LASTX=157.0976
##FIRSTY=1.99027
##MAXX=241.303
##MINX=157.098
##MAXY=3.44939
##MINY=1.99027
##NPOINTS=137
##$REF AUTHOR=Pickett, L.W.; Corning, M.E.; Wieder, G.M.; Semenow, D.A.; Buckley, J.M.
##$REF TITLE=The vacuum ultraviolet spectra of cyclic compounds. III. Amines
##$REF JOURNAL=J. Am. Chem. Soc.
##$REF VOLUME=75
##$REF PAGE=1618-1622
##$REF DATE=1953
##XYPOINTS=(XY..XY)
241.3030,1.990266
240.2017,2.066618
239.1550,2.122091
238.0364,2.205853
238.0364,2.205853
235.9114,2.280307
233.9534,2.339349
232.1509,2.387539
230.4931,2.427690
228.9701,2.461674
227.5729,2.490799
226.2932,2.516019
225.1230,2.538061
224.0553,2.557491
223.0833,2.574764
222.2005,2.590253
221.4010,2.604275
220.6791,2.617099
220.6791,2.617099
219.5638,2.634400
218.4087,2.659864
217.2584,2.689554
216.1560,2.720185
215.1425,2.749218
214.2579,2.774724
214.2579,2.774724
213.5389,2.804637
212.8656,2.833162
212.2342,2.860398
211.6406,2.886435
211.0810,2.911350
210.5518,2.935215
210.0494,2.958093
209.5702,2.980043
209.1108,3.001115
208.6680,3.021358
208.2382,3.040812
207.8184,3.059520
207.4053,3.077514
206.9957,3.094829
206.5867,3.111494
206.1751,3.127536
205.7580,3.142982
205.7580,3.142982
205.3349,3.154074
204.9030,3.165336
204.4601,3.176624
204.0041,3.187808
203.5331,3.198772
203.0450,3.209409
202.5379,3.219625
202.0100,3.229333
201.4595,3.238453
200.8845,3.246914
200.2834,3.254645
199.6545,3.261580
198.9963,3.267655
198.3074,3.272805
197.5863,3.276962
196.8316,3.280057
196.0423,3.282016
195.2171,3.282756
194.3551,3.282187
193.4552,3.280205
193.4552,3.280205
191.9860,3.269701
190.8665,3.261361
190.0060,3.254661
189.3189,3.249013
188.7238,3.243786
188.1413,3.238315
187.4943,3.231898
186.7078,3.223790
186.7078,3.223790
185.6928,3.223092
184.9887,3.226074
184.1097,3.235806
184.1097,3.235806
183.6442,3.244558
183.1968,3.253430
182.7651,3.262366
182.3465,3.271317
181.9385,3.280234
181.5387,3.289075
181.1448,3.297800
180.7545,3.306371
180.3654,3.314756
179.9753,3.322923
179.5820,3.330843
179.1834,3.338491
178.7772,3.345841
178.3615,3.352870
177.9342,3.359555
177.4932,3.365877
177.0367,3.371814
176.5628,3.377348
176.0695,3.382458
175.5551,3.387126
175.0179,3.391333
174.4561,3.395057
173.8684,3.398280
173.2530,3.400979
172.6086,3.403133
171.9339,3.404717
171.2275,3.405705
170.4883,3.406071
170.4883,3.406071
169.7854,3.403529
169.0852,3.400934
168.3843,3.398246
168.3843,3.398246
167.8871,3.394163
167.3791,3.389762
166.8620,3.385184
166.3379,3.380579
165.8085,3.376101
165.2758,3.371911
164.7414,3.368176
164.2072,3.365068
163.6749,3.362760
163.1461,3.361427
162.6224,3.361237
162.1053,3.362352
161.5965,3.364922
161.0974,3.369078
160.6094,3.374931
160.6094,3.374931
160.3584,3.379773
160.1414,3.383997
159.9370,3.388094
159.7236,3.392535
159.4801,3.397772
159.1857,3.404232
158.8198,3.412307
158.3624,3.422345
157.7944,3.434634
157.0976,3.449393
##END=
