##TITLE=1,3-Propanediol, 2-(hydroxymethyl)-2-nitro-
##JCAMP-DX=4.24
##DATA TYPE=UV/VIS SPECTRUM
##ORIGIN=INSTITUTE OF ENERGY PROBLEMS OF CHEMICAL PHYSICS, RAS
##OWNER=INEP CP RAS, NIST OSRD
Collection (C) 2007 copyright by the U.S. Secretary of Commerce
on behalf of the United States of America. All rights reserved.
##CAS REGISTRY NO=126-11-4
##MOLFORM=C4H9NO5
##MP=165
##BP=dec
##SOURCE REFERENCE=RAS UV No. 13219
##$NIST SQUIB=1963UNG/KIS121
##$NIST SOURCE=TYUGLMTE
##SPECTROMETER/DATA SYSTEM=Perkin-Elmer Model 21
##XUNITS=Wavelength (nm)
##YUNITS=Logarithm epsilon
##XFACTOR=1.0
##YFACTOR=1.0
##FIRSTX=203.64
##LASTX=319.08
##FIRSTY=3.29
##MAXX=319.08
##MINX=203.64
##MAXY=3.29
##MINY=0.726
##NPOINTS=116
##$REF AUTHOR=Ungnabe, H.E.; Kisinger, L.W.
##$REF JOURNAL=Tetrahedron
##$REF VOLUME=19 (supplement)
##$REF PAGE=121
##$REF DATE=1963
##XYPOINTS=(XY..XY)
203.64,3.290
205.86,3.197
206.07,3.194
206.27,3.190
206.87,3.159
207.88,3.125
208.90,3.084
209.91,3.046
210.92,3.019
211.93,2.960
212.94,2.909
213.95,2.864
214.96,2.813
215.97,2.765
216.98,2.706
217.99,2.658
219.00,2.607
220.02,2.555
221.03,2.504
222.04,2.442
223.05,2.391
224.06,2.339
225.07,2.291
226.08,2.223
227.09,2.175
228.10,2.123
229.11,2.075
230.12,2.010
231.14,1.962
232.15,1.914
233.16,1.866
234.17,1.818
235.18,1.756
236.19,1.704
237.20,1.663
238.21,1.619
239.22,1.564
240.23,1.519
241.24,1.481
242.26,1.450
243.27,1.426
244.28,1.406
245.29,1.389
246.30,1.378
247.31,1.372
248.32,1.361
249.33,1.358
250.34,1.358
251.35,1.361
252.36,1.368
253.37,1.375
254.39,1.378
255.40,1.385
256.41,1.392
257.42,1.396
258.43,1.406
259.44,1.409
260.45,1.409
261.46,1.420
262.47,1.423
263.48,1.426
264.49,1.437
265.51,1.437
266.52,1.440
267.53,1.440
268.54,1.444
269.55,1.444
270.56,1.444
271.57,1.444
272.58,1.440
273.59,1.437
274.60,1.433
275.61,1.423
276.63,1.420
277.64,1.420
278.65,1.409
279.66,1.402
280.67,1.399
281.68,1.385
282.69,1.382
283.70,1.368
284.71,1.361
285.72,1.351
286.73,1.330
287.74,1.313
288.76,1.296
289.77,1.279
290.78,1.262
291.79,1.245
292.80,1.227
293.81,1.210
294.82,1.190
295.83,1.173
296.84,1.155
297.85,1.138
298.86,1.121
299.88,1.100
300.89,1.076
301.90,1.059
302.91,1.042
303.92,1.015
304.93,0.998
305.94,0.977
306.95,0.956
307.96,0.939
308.97,0.922
309.98,0.901
311.00,0.877
312.01,0.857
313.02,0.840
314.03,0.816
315.04,0.799
316.05,0.778
317.06,0.761
318.07,0.744
319.08,0.726
##END=
