##TITLE=5,5-Dimethylcyclohexane-1,3-dione
##JCAMP-DX=4.24
##DATA TYPE=UV/VIS SPECTRUM
##ORIGIN=INSTITUTE OF ENERGY PROBLEMS OF CHEMICAL PHYSICS, RAS
##OWNER=INEP CP RAS, NIST OSRD
Collection (C) 2007 copyright by the U.S. Secretary of Commerce
on behalf of the United States of America. All rights reserved.
##CAS REGISTRY NO=126-81-8
##MOLFORM=C8H12O2
##MP=147-149
##SOURCE REFERENCE=RAS UV No. 19945
##$NIST SQUIB=1966TIMb5/3
##$NIST SOURCE=TYUGLMTE
##SPECTROMETER/DATA SYSTEM=Unicam SP 700
##XUNITS=Wavelength (nm)
##YUNITS=Logarithm epsilon
##XFACTOR=1.0
##YFACTOR=1.0
##FIRSTX=199.21
##LASTX=313.99
##FIRSTY=3.056
##MAXX=313.99
##MINX=199.21
##MAXY=4.185
##MINY=1.331
##NPOINTS=146
##$REF AUTHOR=Timmons, C.J.
##$REF JOURNAL=UV atlas of organic compounds
##$REF VOLUME=1
##$REF PAGE=B5/3
##$REF DATE=1966
##XYPOINTS=(XY..XY)
199.21,3.056
199.30,3.056
199.38,3.054
199.47,3.054
199.73,3.015
200.24,2.981
200.76,2.949
201.29,2.919
201.81,2.887
202.34,2.848
202.87,2.820
203.40,2.790
203.94,2.760
204.48,2.730
205.02,2.702
205.56,2.679
206.11,2.651
206.66,2.627
207.21,2.606
207.77,2.584
208.33,2.558
208.89,2.541
209.46,2.522
210.03,2.509
210.60,2.498
211.17,2.492
211.75,2.483
212.33,2.481
212.92,2.481
213.50,2.483
214.09,2.490
214.69,2.500
215.28,2.522
215.89,2.541
216.49,2.563
217.10,2.584
217.71,2.614
218.32,2.644
218.94,2.676
219.56,2.709
220.18,2.745
220.81,2.779
221.45,2.820
222.08,2.857
222.72,2.895
223.36,2.936
224.01,2.977
224.66,3.024
225.31,3.073
225.97,3.116
226.63,3.148
227.30,3.191
227.97,3.232
228.64,3.273
229.32,3.311
230.00,3.346
230.69,3.384
231.38,3.419
232.07,3.449
232.77,3.490
233.47,3.524
234.18,3.560
234.89,3.595
235.60,3.627
236.32,3.659
237.05,3.689
237.77,3.713
238.51,3.741
239.24,3.771
239.99,3.801
240.73,3.826
241.48,3.854
242.24,3.884
243.00,3.906
243.77,3.932
244.54,3.957
245.31,3.979
246.09,3.996
246.88,4.013
247.67,4.032
248.46,4.052
249.26,4.065
250.07,4.082
250.88,4.095
251.69,4.105
252.52,4.118
253.34,4.127
254.17,4.137
255.01,4.146
255.85,4.157
256.70,4.165
257.56,4.174
258.42,4.180
259.28,4.183
260.16,4.185
261.03,4.180
261.92,4.176
262.81,4.168
263.70,4.161
264.60,4.153
265.51,4.137
266.42,4.122
267.34,4.103
268.27,4.082
269.20,4.060
270.14,4.037
271.09,4.007
272.04,3.964
273.00,3.927
273.97,3.893
274.94,3.848
275.92,3.807
276.91,3.766
277.91,3.717
278.91,3.663
279.92,3.608
280.93,3.558
281.96,3.498
282.99,3.442
284.02,3.363
285.07,3.299
286.13,3.234
287.19,3.166
288.26,3.095
289.33,3.018
290.42,2.923
291.51,2.816
292.62,2.717
293.73,2.625
294.85,2.518
295.97,2.421
297.11,2.318
298.26,2.215
299.41,2.142
300.57,2.065
301.74,1.979
302.92,1.906
304.12,1.837
305.32,1.771
306.52,1.694
307.74,1.636
308.97,1.576
310.21,1.511
311.28,1.458
312.68,1.398
313.99,1.331
##END=
