##TITLE=Benzenesulfonamide, 4-amino-N-(3,4-dimethyl-5-isoxazolyl)-
##JCAMP-DX=4.24
##DATA TYPE=UV/VIS SPECTRUM
##ORIGIN=INSTITUTE OF ENERGY PROBLEMS OF CHEMICAL PHYSICS, RAS
##OWNER=INEP CP RAS, NIST OSRD
Collection (C) 2007 copyright by the U.S. Secretary of Commerce
on behalf of the United States of America. All rights reserved.
##CAS REGISTRY NO=127-69-5
##MOLFORM=C11H13N3O3S
##MP=189-193
##SOURCE REFERENCE=RAS UV No. 19679
##$NIST SQUIB=1963LAN215
##$NIST SOURCE=TYUGLMTE
##SPECTROMETER/DATA SYSTEM=Zeiss VSU-1
##XUNITS=Wavelength (nm)
##YUNITS=Logarithm epsilon
##XFACTOR=1.0
##YFACTOR=1.0
##FIRSTX=213
##LASTX=318.71
##FIRSTY=4.084
##MAXX=318.71
##MINX=213
##MAXY=4.267
##MINY=1.834
##NPOINTS=108
##$REF AUTHOR=Lang (editor), L.
##$REF JOURNAL=Absorption Spectra in the Ultraviolet and Visible Region
##$REF VOLUME=4
##$REF PAGE=215
##$REF DATE=1963
##XYPOINTS=(XY..XY)
213.00,4.084
213.21,4.075
214.00,4.048
214.98,4.021
215.97,3.997
216.96,3.970
217.95,3.949
218.94,3.925
219.92,3.901
220.91,3.884
221.90,3.861
222.89,3.837
223.87,3.816
224.86,3.806
225.85,3.799
226.84,3.803
227.83,3.813
228.63,3.821
229.40,3.830
230.47,3.840
231.47,3.850
232.54,3.861
233.54,3.871
234.53,3.879
235.53,3.887
236.68,3.900
237.71,3.908
238.67,3.917
239.68,3.925
240.66,3.935
241.66,3.942
242.65,3.953
243.57,3.964
244.62,3.973
245.64,3.982
246.60,3.990
247.48,4.000
248.48,4.009
249.55,4.019
251.23,4.037
252.46,4.050
253.46,4.061
254.45,4.074
255.49,4.089
256.48,4.103
257.46,4.120
258.45,4.137
259.44,4.157
260.43,4.178
261.42,4.195
262.40,4.212
263.11,4.223
264.11,4.237
265.10,4.246
266.17,4.254
267.34,4.260
268.33,4.263
269.32,4.267
270.31,4.267
271.23,4.266
272.30,4.263
273.27,4.256
274.06,4.248
275.25,4.232
276.23,4.222
277.22,4.209
278.21,4.195
279.20,4.181
280.19,4.168
281.17,4.154
282.16,4.133
283.15,4.116
284.14,4.103
285.13,4.086
286.11,4.065
287.10,4.045
288.09,4.028
289.08,4.007
290.07,3.983
291.05,3.956
292.04,3.925
293.03,3.898
294.02,3.867
295.00,3.833
295.99,3.789
296.98,3.751
297.97,3.707
298.96,3.666
299.94,3.611
300.93,3.564
301.92,3.506
302.91,3.437
303.90,3.379
304.48,3.351
305.55,3.290
306.63,3.218
307.85,3.124
308.84,3.021
309.82,2.929
310.81,2.817
311.80,2.711
312.79,2.605
313.78,2.486
314.76,2.353
315.75,2.243
316.74,2.090
317.73,1.943
318.71,1.834
##END=
