##TITLE=1,3-Dichlorotetrafluoroacetone
##JCAMP-DX=4.24
##DATA TYPE=UV/VIS SPECTRUM
##ORIGIN=INSTITUTE OF ENERGY PROBLEMS OF CHEMICAL PHYSICS, RAS
##OWNER=INEP CP RAS, NIST OSRD
Collection (C) 2007 copyright by the U.S. Secretary of Commerce
on behalf of the United States of America. All rights reserved.
##CAS REGISTRY NO=127-21-9
##MOLFORM=C3Cl2F4O
##SOURCE REFERENCE=RAS UV No. 4
##$NIST SQUIB=1962BOW/MAJ1541-1556
##$NIST SOURCE=TSGMTE
##SPECTROMETER/DATA SYSTEM=n.i.g.
##XUNITS=Wavelength (nm)
##YUNITS=Logarithm epsilon
##XFACTOR=1.000000
##YFACTOR=1.000000
##FIRSTX=227.9012
##LASTX=353.0952
##FIRSTY=3.57745
##MAXX=353.095
##MINX=227.901
##MAXY=4.94321
##MINY=3.51632
##NPOINTS=198
##$REF AUTHOR=Bowles, R.; Majer, J.R.; Robb, J.C.
##$REF TITLE=Photodecomposition of halogenated ketones. Part 1. The gas phase photolysis of 1,3-dichlorotetrafluoroacetone
##$REF JOURNAL=Trans. Faraday Soc.
##$REF VOLUME=58
##$REF PAGE=1541-1556
##$REF DATE=1962
##XYPOINTS=(XY..XY)
227.9012,3.577453
229.0083,3.573466
229.9505,3.571862
230.9879,3.573426
232.3813,3.578869
234.3908,3.588776
237.2771,3.603554
237.2771,3.603554
238.7322,3.635738
240.1818,3.670311
241.6344,3.705922
243.0985,3.741533
244.5828,3.776379
244.5828,3.776379
246.7483,3.840554
247.8756,3.871908
248.6564,3.885812
248.6564,3.885812
249.6746,3.925591
250.6761,3.962512
251.6609,3.997001
252.6290,4.029398
253.5804,4.059977
254.5153,4.088963
255.4337,4.116542
256.3355,4.142870
257.2209,4.168080
258.0899,4.192284
258.9425,4.215579
259.7788,4.238048
260.5989,4.259765
261.4027,4.280793
262.1903,4.301190
262.9618,4.321005
263.7172,4.340281
264.4565,4.359060
265.1798,4.377375
265.8872,4.395259
266.5786,4.412741
267.2542,4.429846
267.9139,4.446598
268.5579,4.463018
268.5579,4.463018
269.1246,4.480360
269.7490,4.498944
270.4176,4.518172
271.1170,4.537532
271.8335,4.556590
272.5539,4.574986
273.2645,4.592416
273.9519,4.608627
274.6026,4.623399
275.2030,4.636540
275.7399,4.647873
276.1996,4.657222
276.5686,4.664413
276.8336,4.669255
276.9809,4.671531
276.9809,4.671531
277.0785,4.674673
277.3050,4.678870
277.5631,4.685045
277.5631,4.685045
278.3055,4.695189
279.0083,4.705242
279.6754,4.715178
280.3112,4.724976
280.9198,4.734612
281.5053,4.744070
282.0720,4.753332
282.0720,4.753332
283.7953,4.775311
284.9599,4.789831
285.6883,4.798855
286.1028,4.803959
286.3258,4.806514
286.4796,4.807801
286.4796,4.807801
287.0187,4.816955
287.4106,4.823926
287.7681,4.831056
288.2042,4.840526
288.8317,4.854305
288.8317,4.854305
289.5839,4.861055
290.4144,4.867221
291.3072,4.872926
292.2461,4.878284
293.2151,4.883403
294.1982,4.888386
295.1794,4.893332
296.1425,4.898334
297.0716,4.903482
297.0716,4.903482
297.6064,4.911014
298.2172,4.918377
298.9197,4.925418
299.7302,4.931993
300.6645,4.937967
301.7387,4.943211
301.7387,4.943211
302.8232,4.942748
303.7244,4.940539
304.4699,4.936884
305.0868,4.932077
305.6026,4.926416
306.0446,4.920206
306.4400,4.913771
306.8163,4.907453
307.2007,4.901611
307.6207,4.896628
307.6207,4.896628
308.0595,4.896481
308.4982,4.896285
308.9370,4.896064
308.9370,4.896064
310.2787,4.904234
311.5208,4.907812
313.5905,4.908598
313.5905,4.908598
314.2475,4.904185
314.9088,4.899677
315.5790,4.895098
315.5790,4.895098
315.7722,4.887949
315.9663,4.880674
316.1637,4.873269
316.3665,4.865731
316.5771,4.858056
316.7974,4.850238
317.0300,4.842275
317.2769,4.834161
317.5403,4.825891
317.8226,4.817459
318.1258,4.808861
318.4524,4.800091
318.8044,4.791141
319.1841,4.782007
319.1841,4.782007
319.6138,4.777443
320.0176,4.772498
320.5700,4.765365
321.4457,4.754098
322.8193,4.736453
322.8193,4.736453
323.8321,4.733249
324.7096,4.732416
325.5450,4.731383
326.4313,4.727542
327.4614,4.718155
327.4614,4.718155
327.9026,4.705523
328.3478,4.692504
328.7958,4.679066
329.2457,4.665172
329.6965,4.650782
329.6965,4.650782
329.9124,4.636914
330.1283,4.622590
330.3441,4.607777
330.5600,4.592440
330.7759,4.576542
330.9918,4.560040
331.2077,4.542887
331.4235,4.525027
331.6394,4.506402
331.6394,4.506402
332.1145,4.486437
332.5896,4.465483
333.0647,4.443409
333.5398,4.420060
333.5398,4.420060
334.3664,4.403515
335.2712,4.386984
336.2374,4.370320
337.2484,4.353356
338.2878,4.335897
339.3387,4.317716
340.3848,4.298549
341.4093,4.278084
342.3956,4.255950
342.3956,4.255950
342.9828,4.230171
343.5134,4.201466
344.0031,4.169670
344.4679,4.134581
344.9235,4.095958
345.3857,4.053511
345.8704,4.006900
346.3934,3.955729
346.9705,3.899546
347.6176,3.837848
348.3504,3.770100
349.1847,3.695801
349.1847,3.695801
350.3147,3.647089
351.6628,3.589027
353.0952,3.516322
##END=
