##TITLE=1-methyl-1H-indeno[2,1-b]pyridine
##JCAMP-DX=4.24
##DATA TYPE=UV/VIS SPECTRUM
##ORIGIN=INSTITUTE OF ENERGY PROBLEMS OF CHEMICAL PHYSICS, RAS
##OWNER=INEP CP RAS, NIST OSRD
Collection (C) 2007 copyright by the U.S. Secretary of Commerce
on behalf of the United States of America. All rights reserved.
##CAS REGISTRY NO=13038-92-1
##MOLFORM=C13H11N
##MP=109-110
##SOURCE REFERENCE=RAS UV No. 23405
##$NIST SQUIB=1975JUT/874
##$NIST SOURCE=TYUGLMTE
##SPECTROMETER/DATA SYSTEM=Beckman DK-2
##XUNITS=Wavelength (nm)
##YUNITS=Logarithm epsilon
##XFACTOR=1.0
##YFACTOR=1.0
##FIRSTX=259.652
##LASTX=595.747
##FIRSTY=4.026
##MAXX=595.747
##MINX=259.652
##MAXY=4.522
##MINY=2.269
##NPOINTS=124
##$REF AUTHOR=Jutz, Ch.; et al.
##$REF JOURNAL=Liebigs Ann. Chem.
##$REF PAGE=874
##$REF DATE=1975
##XYPOINTS=(XY..XY)
259.652,4.026
261.008,4.040
262.377,4.057
263.762,4.077
265.160,4.099
266.574,4.123
268.003,4.148
269.447,4.174
270.907,4.200
272.383,4.227
273.875,4.254
275.383,4.281
276.908,4.307
278.450,4.333
280.010,4.358
281.587,4.382
283.182,4.406
284.795,4.428
286.426,4.448
288.672,4.467
291.962,4.487
294.923,4.497
297.687,4.512
299.903,4.522
302.489,4.517
304.573,4.492
305.744,4.453
306.710,4.412
307.625,4.372
308.653,4.322
309.529,4.269
311.458,4.166
313.496,4.105
315.474,4.064
317.477,4.039
319.506,4.024
321.561,4.014
323.642,4.003
325.751,3.987
327.887,3.965
330.051,3.936
332.244,3.904
334.414,3.860
335.984,3.817
337.254,3.742
338.045,3.700
338.885,3.673
339.948,3.670
340.936,3.687
342.031,3.710
343.081,3.720
344.294,3.714
345.289,3.688
345.833,3.653
346.415,3.553
346.954,3.442
347.411,3.324
348.032,3.220
348.032,3.109
349.842,2.963
350.187,2.874
351.265,2.763
352.307,2.664
353.421,2.586
353.960,2.508
354.807,2.437
356.115,2.384
357.343,2.334
359.807,2.285
362.415,2.269
365.061,2.274
367.746,2.289
370.471,2.310
373.237,2.332
376.044,2.353
378.893,2.374
381.786,2.394
384.724,2.413
387.707,2.433
390.737,2.454
393.815,2.478
396.941,2.504
400.118,2.533
403.345,2.565
406.626,2.600
409.960,2.638
413.349,2.678
416.794,2.720
420.298,2.764
423.861,2.808
427.485,2.853
431.171,2.898
434.922,2.941
438.738,2.984
442.622,3.025
446.575,3.065
450.600,3.103
454.697,3.138
458.870,3.172
463.121,3.203
467.450,3.231
471.862,3.256
476.357,3.279
480.939,3.297
485.610,3.313
490.373,3.325
495.230,3.333
500.184,3.337
504.996,3.334
510.614,3.314
516.077,3.283
521.261,3.257
526.752,3.253
532.361,3.240
538.090,3.207
543.944,3.161
549.926,3.115
556.042,3.068
562.251,2.998
568.646,2.917
575.187,2.832
581.881,2.738
588.733,2.619
595.747,2.457
##END=
