##TITLE=1-Nitroso-2-naphthol
##JCAMP-DX=4.24
##DATA TYPE=UV/VIS SPECTRUM
##ORIGIN=INSTITUTE OF ENERGY PROBLEMS OF CHEMICAL PHYSICS, RAS
##OWNER=INEP CP RAS, NIST OSRD
Collection (C) 2007 copyright by the U.S. Secretary of Commerce
on behalf of the United States of America. All rights reserved.
##CAS REGISTRY NO=131-91-9
##MOLFORM=C10H7NO2
##MP=109.5
##SOURCE REFERENCE=RAS UV No. 5505
##$NIST SQUIB=1951EDW/TAT826-830
##$NIST SOURCE=TSGMTE
##SPECTROMETER/DATA SYSTEM=Beckman DU
##XUNITS=Wavelength (nm)
##YUNITS=Logarithm epsilon
##XFACTOR=1.000000
##YFACTOR=1.000000
##FIRSTX=319.7082
##LASTX=399.9833
##FIRSTY=3.30427
##MAXX=399.983
##MINX=319.708
##MAXY=3.74092
##MINY=3.30166
##NPOINTS=283
##$REF AUTHOR=Edwards, W.R., Jr.; Tate, C.W.
##$REF TITLE=Analogous nitro and nitroso compounds. Separation, identification, and quantitative estimation
##$REF JOURNAL=Anal. Chem.
##$REF VOLUME=23
##$REF NUMBER=6
##$REF PAGE=826-830
##$REF DATE=1951
##XYPOINTS=(XY..XY)
319.7082,3.304265
319.8649,3.304761
320.0290,3.305216
320.1326,3.307041
320.1966,3.305588
320.1966,3.305588
320.2055,3.309527
320.2163,3.304629
320.2432,3.303586
320.2739,3.302499
320.2739,3.302499
320.2820,3.311999
320.3660,3.314454
320.3660,3.314454
320.4290,3.302273
320.5916,3.302005
320.7577,3.301656
321.0387,3.322660
321.7204,3.330714
322.3979,3.338689
323.0578,3.346653
323.6868,3.354670
324.2716,3.362795
324.7989,3.371084
324.7989,3.371084
324.9556,3.371510
325.1197,3.371900
325.2873,3.372219
325.2873,3.372219
325.4851,3.379142
325.8852,3.386979
326.4319,3.395404
327.0698,3.404109
327.7435,3.412807
328.3975,3.421234
328.9764,3.429147
329.4246,3.436318
329.4246,3.436318
329.5000,3.439087
329.5791,3.441810
329.6655,3.444455
329.6655,3.444455
329.8179,3.444816
329.9739,3.445146
330.1371,3.445417
330.1371,3.445417
330.2348,3.448514
330.3398,3.451560
330.4484,3.454527
330.4484,3.454527
331.0374,3.461453
331.5689,3.468513
332.0590,3.475625
332.5238,3.482716
332.9793,3.489715
333.4415,3.496556
333.9265,3.503177
334.4503,3.509521
335.0226,3.513643
335.0290,3.515533
335.0290,3.515533
335.0741,3.509041
335.1552,3.513061
335.2680,3.509716
335.2915,3.512453
335.3616,3.510430
335.4325,3.522015
335.4350,3.511794
335.4350,3.511794
335.8856,3.528334
336.3736,3.534509
336.8821,3.540558
337.3965,3.546497
337.9023,3.552341
338.3850,3.558106
338.8301,3.563806
339.2230,3.569455
339.5492,3.575064
339.5492,3.575064
340.2472,3.580640
340.8824,3.586118
341.4727,3.591572
342.0362,3.597078
342.5908,3.602703
342.8635,3.603848
343.4512,3.608982
343.9530,3.613967
344.2516,3.619250
344.2516,3.619250
344.4373,3.619578
344.6229,3.619906
344.8085,3.620233
344.8085,3.620233
344.9603,3.623488
345.0197,3.618723
345.0197,3.618723
345.0219,3.619244
345.0241,3.619745
345.0261,3.620207
345.1083,3.618713
345.1147,3.620197
345.1514,3.625509
345.2044,3.618701
345.2108,3.620186
345.3042,3.618689
345.3064,3.619211
345.3086,3.619712
345.3106,3.620174
345.5442,3.627669
345.5442,3.627669
346.0836,3.632789
346.6229,3.637840
347.1622,3.642826
347.7014,3.647749
348.2407,3.652613
348.7799,3.657421
349.3191,3.662174
349.3191,3.662174
349.3274,3.663912
349.3357,3.665642
349.3439,3.667366
349.3439,3.667366
349.5339,3.665071
349.5472,3.667712
349.6521,3.665291
349.7540,3.668024
349.7703,3.665494
349.8884,3.665662
349.8884,3.665662
349.9090,3.666343
349.9332,3.666988
349.9647,3.667613
349.9681,3.668316
349.9681,3.668316
350.1031,3.670014
350.3206,3.671997
350.7593,3.675304
351.5576,3.680932
352.8542,3.689800
352.8542,3.689800
353.5386,3.693458
354.2055,3.697098
354.5670,3.697291
354.8653,3.700708
354.8670,3.700245
354.8676,3.697491
354.9479,3.699582
355.0121,3.697723
355.0325,3.698900
355.1243,3.698185
355.1243,3.698185
355.5286,3.704278
356.2059,3.707798
356.9077,3.711257
357.6447,3.714646
358.4272,3.717956
358.4272,3.717956
358.4822,3.718834
358.5371,3.719680
358.5918,3.720509
358.7866,3.719382
359.4724,3.720717
359.7760,3.722252
359.8556,3.725006
359.9983,3.723552
360.8864,3.726005
361.7979,3.728457
362.7304,3.730834
363.6817,3.733062
363.9299,3.731974
364.2485,3.731945
364.5708,3.731916
364.6495,3.735068
364.9006,3.731886
364.9006,3.731886
365.0571,3.732917
365.0667,3.734627
365.1002,3.733628
365.6314,3.736783
366.1202,3.737338
366.5601,3.738031
367.0038,3.738722
367.4549,3.739412
367.8763,3.739904
368.6542,3.740266
369.7653,3.740319
370.3765,3.740806
370.4356,3.739411
370.9911,3.740915
371.6155,3.740774
372.1777,3.739521
372.5931,3.738954
373.4749,3.737617
373.8723,3.735504
374.2480,3.735475
374.3664,3.732713
374.3664,3.732713
374.4705,3.735455
374.7005,3.735434
374.8052,3.736294
374.8451,3.736557
374.8925,3.736819
374.9248,3.733739
374.9281,3.734322
374.9312,3.734876
374.9342,3.735413
374.9342,3.735413
374.9436,3.737082
375.3349,3.732434
376.2220,3.730917
377.1226,3.728472
377.5380,3.727890
377.8066,3.727116
378.0826,3.726340
378.3624,3.725563
379.8730,3.723159
379.8862,3.722398
379.9031,3.721620
379.9272,3.720809
379.9272,3.720809
380.3121,3.719852
380.7042,3.718862
381.1001,3.717853
382.0584,3.715458
382.5969,3.713989
383.1299,3.712186
383.8125,3.705229
383.8125,3.705229
383.9070,3.706344
384.0089,3.707425
384.0475,3.705347
384.1143,3.708486
384.1143,3.708486
384.2497,3.708758
384.2825,3.705449
384.3665,3.708673
384.4832,3.708572
384.5173,3.705519
384.5173,3.705519
384.5997,3.708439
384.5997,3.708439
384.6144,3.707940
384.6329,3.707439
384.6587,3.706937
385.0820,3.705290
385.8720,3.702206
386.7329,3.697572
387.5102,3.692719
388.0493,3.689034
388.0493,3.689034
388.4389,3.684518
388.9019,3.679561
388.9138,3.667430
389.1504,3.667872
389.3328,3.674407
389.3868,3.668295
389.6232,3.668684
389.6232,3.668684
389.6262,3.669307
389.6810,3.663625
389.8663,3.658238
390.1264,3.652654
390.4085,3.647010
390.4085,3.647010
391.1976,3.637500
391.6334,3.632873
391.8079,3.630560
391.8079,3.630560
392.8852,3.623629
393.9802,3.617247
394.3710,3.611459
394.4110,3.611810
394.4583,3.612159
394.5094,3.612509
394.5094,3.612509
394.5143,3.613661
395.5857,3.609619
396.4783,3.605531
397.5237,3.600534
397.5237,3.600534
398.3397,3.598235
399.2494,3.595152
399.9833,3.591842
##END=
