##TITLE=Silane, 1,4-phenylenebis[trimethyl-
##JCAMP-DX=4.24
##DATA TYPE=UV/VIS SPECTRUM
##ORIGIN=INSTITUTE OF ENERGY PROBLEMS OF CHEMICAL PHYSICS, RAS
##OWNER=INEP CP RAS, NIST OSRD
Collection (C) 2007 copyright by the U.S. Secretary of Commerce
on behalf of the United States of America. All rights reserved.
##CAS REGISTRY NO=13183-70-5
##MOLFORM=C12H22Si2
##MP=96
##SOURCE REFERENCE=RAS UV No. 19128
##$NIST SQUIB=1967LAN65
##$NIST SOURCE=TYUGLMTE
##SPECTROMETER/DATA SYSTEM=Spektromom 201
##XUNITS=Wavelength (nm)
##YUNITS=Logarithm epsilon
##XFACTOR=1.0
##YFACTOR=1.0
##FIRSTX=205.2
##LASTX=297.32
##FIRSTY=4.179
##MAXX=297.32
##MINX=205.2
##MAXY=4.179
##MINY=1.118
##NPOINTS=194
##$REF AUTHOR=Lang (editor), L.
##$REF JOURNAL=Absorption Spectra in the Ultraviolet and Visible Region
##$REF VOLUME=8
##$REF PAGE=65
##$REF DATE=1967
##XYPOINTS=(XY..XY)
205.20,4.179
205.37,4.176
205.54,4.169
205.70,4.165
205.87,4.162
206.04,4.155
206.21,4.152
206.38,4.148
206.54,4.145
206.71,4.138
206.88,4.129
207.04,4.124
207.19,4.118
207.73,4.095
208.24,4.075
208.72,4.060
209.23,4.042
209.73,4.029
210.23,4.015
210.74,4.001
211.24,3.994
211.74,3.984
212.25,3.977
212.75,3.967
213.26,3.964
213.76,3.960
214.26,3.957
214.77,3.953
215.27,3.953
215.77,3.957
216.28,3.960
216.78,3.964
217.28,3.964
217.79,3.974
218.29,3.981
218.79,3.988
219.30,3.998
219.80,4.012
220.30,4.025
220.81,4.032
221.31,4.046
221.81,4.053
222.32,4.059
222.82,4.066
223.32,4.073
223.83,4.077
224.33,4.080
224.83,4.083
225.34,4.087
225.84,4.090
226.34,4.090
226.85,4.090
227.35,4.087
227.85,4.077
228.36,4.073
228.86,4.063
229.36,4.049
229.87,4.042
230.37,4.025
230.87,4.008
231.38,3.981
231.88,3.960
232.38,3.909
232.89,3.844
233.39,3.789
233.89,3.728
234.40,3.670
234.90,3.594
235.40,3.488
235.91,3.410
236.41,3.321
236.91,3.235
237.42,3.146
237.92,3.033
238.42,2.938
238.93,2.835
239.36,2.769
239.78,2.707
240.31,2.638
240.83,2.572
241.44,2.493
241.95,2.431
242.45,2.380
242.95,2.332
243.46,2.295
243.96,2.271
244.46,2.250
244.97,2.243
245.47,2.240
245.96,2.241
246.46,2.246
246.98,2.254
247.48,2.260
247.95,2.266
248.49,2.274
248.99,2.284
249.50,2.295
249.98,2.306
250.50,2.315
251.00,2.326
251.51,2.336
252.01,2.346
252.52,2.356
253.03,2.367
253.52,2.377
254.03,2.386
254.53,2.397
255.03,2.408
255.54,2.421
256.04,2.435
256.54,2.452
257.05,2.469
257.55,2.486
258.05,2.496
258.56,2.503
259.06,2.517
259.56,2.531
259.78,2.533
260.07,2.531
260.57,2.520
261.07,2.520
261.58,2.520
262.08,2.527
262.58,2.537
263.09,2.555
263.59,2.575
264.09,2.592
264.60,2.613
264.82,2.617
265.10,2.616
265.60,2.602
266.11,2.589
266.61,2.585
267.11,2.585
267.62,2.589
268.12,2.599
268.62,2.613
269.13,2.626
269.63,2.633
270.13,2.640
270.64,2.637
271.14,2.623
271.64,2.606
272.15,2.589
272.65,2.568
273.15,2.534
273.66,2.507
274.16,2.496
274.66,2.493
275.17,2.493
275.67,2.503
276.17,2.510
276.68,2.503
277.18,2.466
277.68,2.428
278.19,2.377
278.69,2.319
279.19,2.206
279.70,2.144
280.20,2.086
280.70,2.028
281.21,1.980
281.71,1.939
282.21,1.905
282.72,1.871
283.22,1.843
283.72,1.816
284.23,1.782
284.73,1.765
285.23,1.747
285.74,1.730
286.24,1.710
286.74,1.693
287.25,1.669
287.75,1.645
288.26,1.621
288.76,1.594
289.26,1.570
289.77,1.539
290.27,1.518
290.77,1.491
291.28,1.470
291.78,1.440
292.28,1.419
292.79,1.388
293.29,1.354
293.79,1.327
294.30,1.299
294.80,1.269
295.30,1.245
295.81,1.214
296.31,1.183
296.81,1.149
297.32,1.118
##END=
