##TITLE=Dibenzofuran
##JCAMP-DX=4.24
##DATA TYPE=UV/VIS SPECTRUM
##ORIGIN=INSTITUTE OF ENERGY PROBLEMS OF CHEMICAL PHYSICS, RAS
##OWNER=INEP CP RAS, NIST OSRD
Collection (C) 2007 copyright by the U.S. Secretary of Commerce
on behalf of the United States of America. All rights reserved.
##CAS REGISTRY NO=132-64-9
##MOLFORM=C12H8O
##MP=86.5
##BP=287
##SOURCE REFERENCE=RAS UV No. 591
##$NIST SQUIB=1946TAR/FRA502-506
##$NIST SOURCE=TSGMTE
##SPECTROMETER/DATA SYSTEM=n.i.g.
##XUNITS=Wavelength (nm)
##YUNITS=Logarithm epsilon
##XFACTOR=1.000000
##YFACTOR=1.000000
##FIRSTX=230.0000
##LASTX=299.0000
##FIRSTY=4.17
##MAXX=299
##MINX=230
##MAXY=4.19
##MINY=3
##NPOINTS=70
##$REF AUTHOR=Tarbell, D.S.; Frank, H.R.; Fanta, P.E.
##$REF TITLE=Studies on the structure of colchicine
##$REF JOURNAL=J. Am. Chem. Soc.
##$REF VOLUME=68
##$REF PAGE=502-506
##$REF DATE=1946
##XYPOINTS=(XY..XY)
230.0000,4.169998
231.0000,4.120000
232.0000,4.060000
233.0000,4.010000
234.0000,3.950000
235.0000,3.900000
236.0000,3.850000
237.0000,3.840000
238.0000,3.860000
239.0000,3.910000
240.0000,3.960000
241.0000,3.980000
242.0000,3.980000
243.0000,3.980000
244.0000,3.990000
245.0000,3.990000
246.0000,3.980000
247.0000,3.970000
248.0000,4.080000
249.0000,4.160000
250.0000,4.180011
251.0000,4.040000
252.0000,3.720000
253.0000,3.280000
254.0000,3.050000
255.0000,3.010000
256.0000,3.000000
257.0000,3.030000
258.0000,3.080000
259.0000,3.150000
260.0000,3.229989
261.0000,3.300000
262.0000,3.380000
263.0000,3.440000
264.0000,3.520000
265.0000,3.580000
266.0000,3.640000
267.0000,3.700000
268.0000,3.750000
269.0000,3.800000
270.0000,3.850003
271.0000,3.890000
272.0000,3.930000
273.0000,3.960000
274.0000,4.000000
275.0000,4.030000
276.0000,4.060000
277.0000,4.090000
278.0000,4.120000
279.0000,4.150000
280.0000,4.180011
281.0000,4.190000
282.0000,4.180000
283.0000,4.160000
284.0000,4.150000
285.0000,4.150000
286.0000,4.150000
287.0000,4.140000
288.0000,4.100000
289.0000,4.060000
290.0000,4.010003
291.0000,3.960000
292.0000,3.920000
293.0000,3.900000
294.0000,3.890000
295.0000,3.890000
296.0000,3.910000
297.0000,3.910000
298.0000,3.870000
299.0000,3.730000
##END=
