##TITLE=Dibenzothiophene
##JCAMP-DX=4.24
##DATA TYPE=UV/VIS SPECTRUM
##ORIGIN=INSTITUTE OF ENERGY PROBLEMS OF CHEMICAL PHYSICS, RAS
##OWNER=INEP CP RAS, NIST OSRD
Collection (C) 2007 copyright by the U.S. Secretary of Commerce
on behalf of the United States of America. All rights reserved.
##CAS REGISTRY NO=132-65-0
##MOLFORM=C12H8S
##MP=99.5
##BP=332.5
##SOURCE REFERENCE=RAS UV No. 592
##$NIST SQUIB=1949WER509-519
##$NIST SOURCE=TSGMTE
##SPECTROMETER/DATA SYSTEM=Beckman Spectrophotometer
##XUNITS=Wavelength (nm)
##YUNITS=Logarithm epsilon
##XFACTOR=1.000000
##YFACTOR=1.000000
##FIRSTX=216.6954
##LASTX=330.3019
##FIRSTY=3.80452
##MAXX=330.302
##MINX=216.695
##MAXY=4.64696
##MINY=1.23624
##NPOINTS=260
##$REF AUTHOR=Werner, E.G.G.
##$REF TITLE=Synthesis of benzothiophenes
##$REF JOURNAL=Recl. Trav. Chim. Pays-Bas
##$REF VOLUME=68
##$REF PAGE=509-519
##$REF DATE=1949
##XYPOINTS=(XY..XY)
216.6954,3.804525
216.9044,3.794489
217.1047,3.787960
217.4682,3.779343
219.4468,3.818122
219.5450,3.829830
219.7524,3.843330
219.9421,3.860460
219.9421,3.860460
220.0373,3.859736
220.0904,3.849005
220.1321,3.852100
220.1325,3.858770
220.1768,3.854953
220.2276,3.857683
220.2276,3.857683
224.2888,4.113675
224.4376,4.121867
224.6386,4.136940
224.9335,4.152720
226.7943,4.338422
226.7953,4.346039
226.7962,4.353656
226.7972,4.361273
227.3570,4.375307
227.4268,4.384925
227.4996,4.394301
227.5784,4.403555
227.5784,4.403555
227.7421,4.406242
227.9057,4.408930
228.0694,4.411618
229.9208,4.521151
230.0164,4.524235
230.1121,4.527078
230.2077,4.529799
233.8927,4.607954
233.9348,4.613769
233.9799,4.619342
234.0310,4.624792
236.9328,4.644343
237.0968,4.645379
237.2638,4.646292
237.4368,4.646963
239.2744,4.646596
240.2227,4.638930
240.9121,4.616203
241.3757,4.578166
241.6573,4.544377
241.9005,4.518153
241.9368,4.493722
241.9730,4.505020
242.4878,4.437028
242.6934,4.428020
242.8051,4.418547
242.9188,4.400489
245.9852,4.103355
245.9857,4.107163
245.9862,4.110971
245.9867,4.114780
246.9711,4.041133
246.9716,4.044941
246.9721,4.048750
246.9726,4.052558
247.5271,4.024155
247.5716,4.021426
247.6222,4.018696
247.6758,4.015964
249.3527,3.928033
249.3972,3.925284
249.4478,3.922412
249.5014,3.919298
255.4146,3.746188
255.6911,3.748148
255.9736,3.749865
256.2592,3.751460
258.0954,3.740212
259.1153,3.703535
259.8452,3.646482
260.3359,3.587423
260.9026,3.547592
260.9142,3.534995
261.0048,3.525526
261.2520,3.511069
261.6020,3.479986
261.6110,3.471420
261.6808,3.464777
261.8711,3.454361
262.0204,3.451611
262.1157,3.451592
262.2110,3.451573
262.3063,3.451554
263.5764,3.485033
263.7135,3.488814
263.8536,3.492594
263.9998,3.496374
264.5715,3.496259
264.6306,3.481316
264.7384,3.468176
264.9871,3.445577
265.4056,3.417202
265.4226,3.412685
265.4457,3.407924
265.4718,3.403042
265.6864,3.377428
265.7033,3.370896
265.7261,3.364362
265.7520,3.357828
266.1021,3.326746
266.2482,3.322243
266.3216,3.316304
266.3851,3.303838
270.9683,2.727833
270.9693,2.735430
270.9702,2.742906
270.9711,2.750140
271.4004,2.699455
271.4409,2.692918
271.4845,2.686380
271.5341,2.679842
272.8575,3.139322
272.8579,3.143130
272.8584,3.146938
272.8589,3.150747
273.1398,3.110973
273.2329,3.094088
273.3261,3.077203
273.4193,3.060318
273.8349,3.009092
273.8749,2.998747
273.9180,2.988401
273.9671,2.978053
274.4933,2.614505
274.5366,2.629710
274.5828,2.644794
274.6351,2.659635
275.6492,2.822655
275.9066,2.837093
275.9407,2.867755
275.9552,2.850725
276.5051,2.918242
276.6013,2.925840
276.6975,2.933437
276.7938,2.941035
285.7340,3.243931
285.8374,3.268475
286.0349,3.295659
286.1658,3.322736
288.0306,3.539450
288.0760,3.544317
288.1276,3.549063
288.1821,3.553565
288.6076,3.581772
288.7441,3.581040
288.8836,3.580065
289.0292,3.578968
289.0292,3.578968
289.1721,3.297915
289.1835,3.346966
289.3008,3.396716
289.3564,3.250751
289.3881,3.538291
289.4339,3.445978
289.4930,3.493566
289.8266,3.206660
290.3633,2.926898
290.3638,2.930706
290.3642,2.934515
290.3647,2.938323
290.6343,2.808235
290.6348,2.812043
290.6352,2.815852
290.6357,2.819660
293.2312,2.130885
293.2475,2.120927
293.2700,2.110726
293.2954,2.100404
293.7747,1.905529
293.7910,1.895188
293.8134,1.884846
293.8388,1.874503
294.6933,1.414589
294.6998,1.402194
294.7553,1.394143
294.9072,1.383534
295.5375,1.307237
295.5782,1.302714
295.6220,1.297951
295.6718,1.293064
296.8626,1.236242
296.9317,1.241105
297.0039,1.245846
297.0821,1.250344
299.7686,1.289524
300.1177,1.295440
300.3797,1.306088
300.7657,1.317073
301.2593,1.345266
301.3283,1.349062
301.4004,1.352856
301.4785,1.356649
303.5327,1.455259
303.6014,1.456314
303.6731,1.457247
303.7508,1.457936
306.0195,1.530389
306.1148,1.530370
306.2100,1.530351
306.3053,1.530332
306.3053,1.530332
306.3058,1.534140
306.3063,1.537949
306.3068,1.541758
306.7993,1.561790
307.2257,1.576718
307.5304,1.586711
307.7295,1.598057
308.2921,1.634398
308.4951,1.648927
308.4963,1.634357
308.5239,1.637455
308.5515,1.640310
308.5702,1.656952
308.5790,1.643046
308.5818,1.665352
309.2925,1.688061
309.2932,1.693885
309.2939,1.699467
309.2946,1.704927
309.2946,1.704927
309.7757,1.730322
310.0666,1.758173
310.2852,1.789062
310.5736,1.809135
310.7760,1.819452
310.8509,1.825925
310.8625,1.834104
317.6730,2.086827
317.8797,2.086564
317.9924,2.084990
318.1078,2.080755
319.6561,2.052698
319.6969,2.048176
319.7406,2.043411
319.7904,2.038525
327.7241,2.129976
327.7651,2.127228
327.8091,2.124357
327.8592,2.121244
329.2229,1.706386
329.2947,1.679872
329.4270,1.652864
329.7711,1.627384
329.7711,1.627384
329.7785,1.574220
329.7788,1.519636
329.8018,1.464291
329.8769,1.408847
330.0338,1.353959
330.3019,1.300289
##END=
