##TITLE=2- chloro-4-(methyl sulfonyl)benzenamine
##JCAMP-DX=4.24
##DATA TYPE=UV/VIS SPECTRUM
##ORIGIN=INSTITUTE OF ENERGY PROBLEMS OF CHEMICAL PHYSICS, RAS
##OWNER=INEP CP RAS, NIST OSRD
Collection (C) 2007 copyright by the U.S. Secretary of Commerce
on behalf of the United States of America. All rights reserved.
##CAS REGISTRY NO=13244-35-4
##MOLFORM=C7H8ClN2O2S
##MP=197-197,5
##SOURCE REFERENCE=RAS UV No. 22449
##$NIST SQUIB=1977YUN/361
##$NIST SOURCE=TYUGLMTE
##SPECTROMETER/DATA SYSTEM=SFD-2
##XUNITS=Wavelength (nm)
##YUNITS=Logarithm epsilon
##XFACTOR=1.0
##YFACTOR=1.0
##FIRSTX=219.683
##LASTX=309.39
##FIRSTY=3.708
##MAXX=309.39
##MINX=219.683
##MAXY=4.234
##MINY=3.193
##NPOINTS=92
##$REF AUTHOR=Yunnikov, V.V.; et al.
##$REF JOURNAL=Zhur. Organ. Khim.
##$REF VOLUME=13
##$REF PAGE=361
##$REF DATE=1977
##XYPOINTS=(XY..XY)
219.683,3.708
220.683,3.631
221.683,3.571
222.683,3.522
223.683,3.480
224.683,3.442
225.683,3.405
226.683,3.369
227.683,3.333
228.683,3.299
229.683,3.266
230.683,3.238
231.683,3.215
232.683,3.199
233.683,3.193
234.683,3.197
235.683,3.213
236.683,3.241
237.683,3.281
238.683,3.331
239.513,3.366
239.641,3.377
240.641,3.441
241.641,3.493
242.641,3.537
243.641,3.576
244.641,3.614
245.641,3.652
246.641,3.690
247.641,3.730
248.641,3.771
249.641,3.812
250.641,3.854
251.641,3.894
252.641,3.933
253.641,3.969
254.641,4.001
255.641,4.031
256.641,4.058
257.641,4.084
258.607,4.110
259.607,4.138
260.607,4.160
261.607,4.179
262.607,4.194
263.607,4.207
264.607,4.218
265.607,4.226
266.607,4.232
267.607,4.234
268.607,4.232
269.607,4.226
270.607,4.215
271.607,4.200
272.607,4.180
273.607,4.157
274.460,4.138
275.460,4.108
276.460,4.078
277.460,4.048
278.460,4.019
279.460,3.991
280.460,3.963
281.460,3.936
282.460,3.910
283.460,3.885
284.460,3.860
285.460,3.837
286.460,3.814
287.460,3.792
288.460,3.771
289.460,3.751
290.460,3.731
291.460,3.712
292.460,3.694
293.460,3.676
294.460,3.658
295.460,3.641
296.460,3.624
297.390,3.608
298.390,3.595
299.390,3.579
300.390,3.561
301.390,3.540
302.390,3.516
303.390,3.489
304.390,3.458
305.390,3.423
306.390,3.383
307.390,3.336
308.390,3.281
309.390,3.216
##END=
