##TITLE=Pyridine, 4,4'-(1,2-ethenediyl)bis-, (E)-
##JCAMP-DX=4.24
##DATA TYPE=UV/VIS SPECTRUM
##ORIGIN=INSTITUTE OF ENERGY PROBLEMS OF CHEMICAL PHYSICS, RAS
##OWNER=INEP CP RAS, NIST OSRD
Collection (C) 2007 copyright by the U.S. Secretary of Commerce
on behalf of the United States of America. All rights reserved.
##CAS REGISTRY NO=13362-78-2
##MOLFORM=C12H10N2
##MP=152.5-153
##SOURCE REFERENCE=RAS UV No. 19894
##$NIST SQUIB=1968PER/BRAg11/9
##$NIST SOURCE=TYUGLMTE
##SPECTROMETER/DATA SYSTEM=Zeiss PMQ II
##XUNITS=Wavelength (nm)
##YUNITS=Logarithm epsilon
##XFACTOR=1.0
##YFACTOR=1.0
##FIRSTX=200.43
##LASTX=321.67
##FIRSTY=4.216
##MAXX=321.67
##MINX=200.43
##MAXY=4.41
##MINY=3.095
##NPOINTS=189
##$REF AUTHOR=Perkampus, H.-H.; Braunschweig, T.H.
##$REF JOURNAL=UV atlas of organic compounds
##$REF VOLUME=4
##$REF PAGE=G11/9
##$REF DATE=1968
##XYPOINTS=(XY..XY)
200.43,4.216
200.52,4.214
200.60,4.214
200.69,4.212
200.77,4.210
200.86,4.210
200.95,4.208
201.03,4.208
201.12,4.205
201.21,4.203
201.29,4.203
201.38,4.201
201.47,4.201
201.55,4.199
201.64,4.197
201.73,4.197
202.16,4.180
202.60,4.169
203.04,4.152
203.48,4.137
203.92,4.118
204.37,4.101
204.82,4.088
205.27,4.075
205.72,4.064
206.17,4.052
206.63,4.043
207.08,4.037
207.54,4.032
208.00,4.026
208.47,4.022
208.93,4.011
209.40,4.005
209.87,3.992
210.34,3.981
210.81,3.979
211.29,3.970
211.77,3.970
212.25,3.973
212.73,3.977
213.22,3.983
213.70,3.994
214.19,4.007
214.68,4.017
215.18,4.024
215.67,4.030
216.17,4.035
216.67,4.028
217.17,4.024
217.68,4.020
218.19,4.022
218.70,4.026
219.21,4.020
219.72,4.015
220.24,4.020
220.76,4.024
221.28,4.032
221.81,4.030
222.33,4.020
222.86,4.009
223.39,3.996
223.93,3.979
224.47,3.951
225.00,3.923
225.55,3.902
226.09,3.883
226.64,3.864
227.19,3.851
227.74,3.834
228.30,3.821
228.86,3.804
229.42,3.782
229.98,3.761
230.55,3.731
231.12,3.697
231.69,3.637
232.26,3.569
232.84,3.518
233.42,3.490
234.01,3.439
234.59,3.411
235.18,3.398
235.77,3.389
236.37,3.389
236.97,3.389
237.57,3.398
238.17,3.409
238.78,3.409
239.39,3.424
240.01,3.441
240.62,3.462
241.24,3.481
241.87,3.498
242.49,3.513
243.12,3.535
243.76,3.554
244.39,3.573
245.03,3.592
245.68,3.607
246.32,3.629
246.97,3.648
247.63,3.669
248.28,3.689
248.94,3.708
249.61,3.729
250.28,3.748
250.95,3.770
251.62,3.791
252.30,3.817
252.98,3.840
253.67,3.864
254.36,3.887
255.05,3.911
255.75,3.928
256.45,3.949
257.15,3.973
257.86,3.992
258.57,4.013
259.29,4.035
260.01,4.052
260.73,4.073
261.46,4.092
262.20,4.111
262.93,4.131
263.67,4.150
264.42,4.165
265.17,4.184
265.92,4.199
266.68,4.214
267.44,4.233
268.21,4.246
268.98,4.261
269.75,4.276
270.53,4.287
271.32,4.299
272.11,4.310
272.90,4.321
273.70,4.331
274.50,4.340
275.31,4.349
276.12,4.357
276.94,4.361
277.76,4.370
278.58,4.378
279.42,4.387
280.25,4.391
281.10,4.398
281.94,4.400
282.79,4.406
283.65,4.408
284.51,4.410
285.38,4.410
286.25,4.410
287.13,4.404
288.02,4.398
288.90,4.396
289.80,4.391
290.70,4.387
291.60,4.381
292.52,4.378
293.43,4.378
294.36,4.378
295.28,4.378
296.22,4.372
297.16,4.361
298.11,4.338
299.06,4.316
300.02,4.289
300.98,4.265
301.95,4.240
302.93,4.214
303.91,4.195
304.90,4.180
305.90,4.161
306.90,4.148
307.91,4.131
308.93,4.111
309.95,4.090
310.98,4.064
312.02,4.035
313.06,3.985
314.11,3.913
315.17,3.808
316.24,3.684
317.31,3.569
318.39,3.441
319.48,3.313
320.57,3.184
321.67,3.095
##END=
