##TITLE=2-(2-Pyridyl-2-vinyl)pyridine, trans
##JCAMP-DX=4.24
##DATA TYPE=UV/VIS SPECTRUM
##ORIGIN=INSTITUTE OF ENERGY PROBLEMS OF CHEMICAL PHYSICS, RAS
##OWNER=INEP CP RAS, NIST OSRD
Collection (C) 2007 copyright by the U.S. Secretary of Commerce
on behalf of the United States of America. All rights reserved.
##CAS REGISTRY NO=13341-40-7
##MOLFORM=C12H10N2
##MP=119.5
##SOURCE REFERENCE=RAS UV No. 19893
##$NIST SQUIB=1968PER/BRAg11/7
##$NIST SOURCE=TYUGLMTE
##SPECTROMETER/DATA SYSTEM=Zeis PMQ II
##XUNITS=Wavelength (nm)
##YUNITS=Logarithm epsilon
##XFACTOR=1.0
##YFACTOR=1.0
##FIRSTX=200.39
##LASTX=344.01
##FIRSTY=4.06
##MAXX=344.01
##MINX=200.39
##MAXY=4.457
##MINY=2.589
##NPOINTS=217
##$REF AUTHOR=Perkampus, H.-H.; Braunschweig
##$REF JOURNAL=UV atlas oo organic compounds
##$REF VOLUME=4
##$REF PAGE=G11/7
##$REF DATE=1968
##XYPOINTS=(XY..XY)
200.39,4.060
200.47,4.058
200.56,4.055
200.64,4.053
200.73,4.049
200.82,4.047
200.90,4.045
200.99,4.043
201.07,4.040
201.16,4.038
201.25,4.034
201.33,4.032
201.42,4.030
201.51,4.028
201.59,4.025
201.68,4.013
202.11,3.996
202.55,3.976
202.99,3.959
203.43,3.940
203.87,3.923
204.32,3.904
204.76,3.887
205.21,3.869
205.66,3.855
206.11,3.848
206.57,3.842
207.02,3.837
207.48,3.833
207.94,3.833
208.40,3.833
208.87,3.833
209.33,3.835
209.80,3.840
210.27,3.842
210.74,3.848
211.22,3.855
211.69,3.861
212.17,3.867
212.65,3.874
213.14,3.882
213.62,3.884
214.11,3.893
214.60,3.897
215.09,3.904
215.59,3.908
216.08,3.914
216.58,3.916
217.08,3.923
217.59,3.925
218.09,3.931
218.60,3.936
219.11,3.940
219.63,3.940
220.14,3.934
220.66,3.919
221.18,3.904
221.70,3.887
222.23,3.865
222.76,3.844
223.29,3.829
223.82,3.814
224.36,3.812
224.89,3.820
225.43,3.837
225.98,3.842
226.52,3.833
227.07,3.822
227.62,3.731
228.18,3.649
228.73,3.572
229.29,3.525
229.85,3.478
230.42,3.442
230.99,3.408
231.56,3.386
232.13,3.374
232.71,3.367
233.28,3.367
233.87,3.376
234.45,3.389
235.04,3.406
235.63,3.427
236.22,3.451
236.82,3.474
237.42,3.498
238.02,3.515
238.63,3.538
239.23,3.560
239.85,3.581
240.46,3.602
241.08,3.624
241.70,3.645
242.33,3.666
242.95,3.688
243.58,3.713
244.22,3.737
244.86,3.760
245.50,3.786
246.14,3.810
246.79,3.837
247.44,3.861
248.09,3.882
248.75,3.908
249.41,3.929
250.08,3.942
250.75,3.963
251.42,3.983
252.10,4.002
252.78,4.021
253.46,4.034
254.15,4.053
254.84,4.070
255.53,4.087
256.23,4.107
256.93,4.126
257.64,4.143
258.35,4.158
259.06,4.171
259.78,4.181
260.50,4.190
261.22,4.196
261.95,4.201
262.69,4.207
263.42,4.211
264.17,4.211
264.91,4.214
265.66,4.214
266.42,4.214
267.18,4.214
267.94,4.214
268.71,4.211
269.48,4.209
270.26,4.201
271.04,4.192
271.82,4.181
272.61,4.169
273.41,4.147
274.21,4.128
275.01,4.117
275.82,4.107
276.63,4.098
277.45,4.090
278.28,4.085
279.10,4.079
279.94,4.075
280.77,4.072
281.62,4.070
282.47,4.070
283.32,4.072
284.18,4.075
285.04,4.075
285.91,4.081
286.78,4.085
287.66,4.094
288.55,4.098
289.44,4.107
290.34,4.117
291.24,4.128
292.14,4.139
293.06,4.154
293.98,4.169
294.90,4.184
295.83,4.199
296.77,4.214
297.71,4.229
298.66,4.243
299.61,4.261
300.57,4.273
301.54,4.290
302.51,4.303
303.49,4.320
304.47,4.333
305.47,4.346
306.46,4.357
307.47,4.363
308.48,4.367
309.50,4.374
310.52,4.382
311.55,4.395
312.59,4.408
313.64,4.421
314.69,4.438
315.75,4.451
316.82,4.457
317.89,4.449
318.97,4.425
320.06,4.374
321.16,4.335
322.26,4.320
323.37,4.310
324.49,4.303
325.62,4.301
326.75,4.303
327.89,4.310
329.04,4.316
330.20,4.320
331.37,4.323
332.54,4.320
333.73,4.303
334.92,4.216
336.12,4.087
336.79,4.000
337.39,3.930
337.79,3.849
338.65,3.765
339.28,3.681
339.91,3.574
340.77,3.465
341.17,3.345
341.77,3.215
342.14,3.098
342.51,2.991
342.94,2.881
343.51,2.762
343.76,2.671
344.01,2.589
##END=
