##TITLE=Pyridine, 2-[2-(3-pyridinyl)ethenyl]-, (E)-
##JCAMP-DX=4.24
##DATA TYPE=UV/VIS SPECTRUM
##ORIGIN=INSTITUTE OF ENERGY PROBLEMS OF CHEMICAL PHYSICS, RAS
##OWNER=INEP CP RAS, NIST OSRD
Collection (C) 2007 copyright by the U.S. Secretary of Commerce
on behalf of the United States of America. All rights reserved.
##CAS REGISTRY NO=13362-75-9
##MOLFORM=C12H10N2
##MP=72
##SOURCE REFERENCE=RAS UV No. 19895
##$NIST SQUIB=1968PER/BRAg11/10
##$NIST SOURCE=TYUGLMTE
##SPECTROMETER/DATA SYSTEM=Zeiss PMQII
##XUNITS=Wavelength (nm)
##YUNITS=Logarithm epsilon
##XFACTOR=1.0
##YFACTOR=1.0
##FIRSTX=200.73
##LASTX=342.25
##FIRSTY=4.161
##MAXX=342.25
##MINX=200.73
##MAXY=4.362
##MINY=2.686
##NPOINTS=208
##$REF AUTHOR=Perkampus, H.-H.; Braunschweig, T.H.
##$REF JOURNAL=UV atlas of organic compounds
##$REF VOLUME=4
##$REF PAGE=G11/10
##$REF DATE=1968
##XYPOINTS=(XY..XY)
200.73,4.161
200.82,4.157
200.90,4.155
200.99,4.152
201.08,4.150
201.16,4.146
201.25,4.144
201.34,4.142
201.42,4.140
201.51,4.135
201.60,4.133
201.68,4.131
201.77,4.129
201.95,4.120
202.38,4.103
202.82,4.086
203.26,4.069
203.71,4.048
204.15,4.027
204.60,4.003
205.05,3.986
205.50,3.975
205.95,3.965
206.41,3.954
206.87,3.948
207.33,3.935
207.79,3.930
208.25,3.926
208.72,3.924
209.18,3.922
209.65,3.918
210.12,3.916
210.60,3.916
211.07,3.913
211.55,3.913
212.03,3.913
212.51,3.913
213.00,3.911
213.49,3.911
213.97,3.911
214.47,3.913
214.96,3.913
215.46,3.913
215.95,3.916
216.45,3.920
216.96,3.922
217.46,3.924
217.97,3.926
218.48,3.930
218.99,3.926
219.51,3.924
220.02,3.922
220.54,3.913
221.07,3.903
221.59,3.894
222.12,3.881
222.65,3.866
223.18,3.856
223.71,3.841
224.25,3.828
224.79,3.819
225.33,3.811
225.88,3.807
226.42,3.790
226.97,3.762
227.53,3.730
228.08,3.696
228.64,3.651
229.20,3.606
229.77,3.565
230.33,3.516
230.90,3.465
231.47,3.448
232.05,3.420
232.63,3.407
233.21,3.403
233.79,3.395
234.38,3.388
234.97,3.384
235.56,3.386
236.16,3.388
236.76,3.399
237.36,3.416
237.96,3.435
238.57,3.450
239.18,3.469
239.79,3.491
240.41,3.510
241.03,3.531
241.66,3.553
242.28,3.578
242.91,3.600
243.55,3.623
244.18,3.649
244.82,3.666
245.47,3.691
246.11,3.713
246.76,3.734
247.42,3.755
248.07,3.777
248.74,3.800
249.40,3.819
250.07,3.841
250.74,3.862
251.41,3.883
252.09,3.903
252.77,3.922
253.46,3.941
254.15,3.958
254.84,3.977
255.54,3.994
256.24,4.012
256.95,4.027
257.66,4.044
258.37,4.059
259.08,4.073
259.81,4.088
260.53,4.099
261.26,4.116
261.99,4.127
262.73,4.140
263.47,4.148
264.21,4.159
264.96,4.167
265.72,4.172
266.48,4.180
267.24,4.182
268.01,4.189
268.78,4.191
269.55,4.195
270.33,4.197
271.12,4.199
271.91,4.197
272.70,4.193
273.50,4.191
274.30,4.189
275.11,4.182
275.92,4.178
276.74,4.176
277.56,4.170
278.39,4.167
279.22,4.165
280.06,4.161
280.90,4.159
281.75,4.159
282.60,4.159
283.46,4.159
284.32,4.159
285.19,4.159
286.06,4.159
286.94,4.165
287.83,4.167
288.72,4.170
289.61,4.178
290.51,4.187
291.42,4.195
292.33,4.202
293.25,4.210
294.17,4.221
295.10,4.229
296.04,4.238
296.98,4.246
297.93,4.253
298.88,4.263
299.84,4.272
300.81,4.283
301.78,4.291
302.76,4.300
303.74,4.308
304.73,4.317
305.73,4.325
306.73,4.334
307.74,4.345
308.76,4.353
309.78,4.355
310.82,4.362
311.85,4.362
312.90,4.357
313.95,4.355
315.01,4.347
316.07,4.336
317.15,4.325
318.23,4.313
319.32,4.293
320.41,4.278
321.51,4.261
322.63,4.238
323.74,4.208
324.87,4.187
326.00,4.178
327.15,4.165
328.30,4.135
329.45,4.101
330.62,4.061
331.79,4.012
332.98,3.954
334.17,3.886
335.37,3.798
336.58,3.691
337.75,3.556
338.66,3.433
339.39,3.321
340.12,3.175
340.64,3.049
341.50,2.833
341.75,2.780
342.00,2.739
342.25,2.686
##END=
