##TITLE=Benzil
##JCAMP-DX=4.24
##DATA TYPE=UV/VIS SPECTRUM
##ORIGIN=INSTITUTE OF ENERGY PROBLEMS OF CHEMICAL PHYSICS, RAS
##OWNER=INEP CP RAS, NIST OSRD
Collection (C) 2007 copyright by the U.S. Secretary of Commerce
on behalf of the United States of America. All rights reserved.
##CAS REGISTRY NO=134-81-6
##MOLFORM=C14H10O2
##MP=94.8
##BP=347
##SOURCE REFERENCE=RAS UV No. 8965
##$NIST SQUIB=1961BAR/SZO256B
##$NIST SOURCE=TSGMTE
##SPECTROMETER/DATA SYSTEM=Beckman DU
##XUNITS=Wavelength (nm)
##YUNITS=Logarithm epsilon
##XFACTOR=1.000000
##YFACTOR=1.000000
##FIRSTX=214.0006
##LASTX=461.6405
##FIRSTY=4.03988
##MAXX=461.64
##MINX=214.001
##MAXY=4.24847
##MINY=1.20253
##NPOINTS=922
##$REF AUTHOR=Bartecki, A.; Szoke, J.; Varsanyi, G.; Vizesy, M.
##$REF TITLE=Absorption spectra in the ultraviolet and visible region. Volume 2
##$REF PAGE=256
##$REF DATE=1961
##$REF PUBLISHER=Academic Press Inc.
##$REF LOCATION=New York
##XYPOINTS=(XY..XY)
214.0006,4.039880
214.1839,4.036601
214.5114,4.036569
214.8576,4.029606
215.1850,4.029574
215.3684,4.026295
215.5313,4.023019
215.5321,4.026279
216.0420,4.019301
216.0429,4.022968
216.2057,4.019284
216.3686,4.016008
216.8794,4.012697
216.8802,4.015957
217.0627,4.009011
218.7605,4.005582
218.7613,4.008842
219.9475,4.005464
220.1096,3.998927
220.1104,4.002187
220.9682,3.995174
220.9691,3.998842
222.6668,3.995005
222.8297,3.991728
222.9934,3.991712
230.6474,3.990950
230.8120,3.994194
232.5311,3.994023
232.6957,3.997674
234.3951,4.000765
234.7431,4.000730
234.7439,4.003990
235.2350,4.003942
235.4200,4.007183
235.7475,4.007151
235.9326,4.010800
236.6080,4.010733
236.6088,4.013993
237.1204,4.013942
237.1212,4.017202
237.4487,4.017169
237.6338,4.020819
238.1454,4.020768
238.1462,4.024028
238.3099,4.024011
238.4745,4.027255
238.8224,4.027220
238.8233,4.030888
239.1508,4.030855
240.5253,4.044167
240.6890,4.044150
240.8740,4.047392
241.0378,4.047376
241.0386,4.050636
241.3660,4.050603
241.3669,4.054271
241.5511,4.054253
241.8802,4.060740
242.2281,4.060706
242.2290,4.064373
242.3928,4.064357
242.3936,4.067617
242.5778,4.067599
243.2565,4.080979
243.4202,4.080963
243.4211,4.084630
243.7691,4.084596
243.7699,4.087856
243.9336,4.087840
244.0981,4.091083
244.2823,4.091065
244.2831,4.094325
244.6106,4.094292
244.6115,4.097960
244.7957,4.097942
244.9602,4.101185
244.9611,4.104446
245.1257,4.108097
245.1265,4.111357
245.2911,4.114601
245.6390,4.114566
245.6399,4.118234
245.8036,4.118217
245.8044,4.121477
245.9869,4.114531
245.9886,4.121459
245.9903,4.127979
246.1540,4.127963
246.1549,4.131630
246.3194,4.134874
246.4985,4.114480
246.6632,4.118132
246.8269,4.118115
246.8311,4.134823
247.0119,4.121357
247.0127,4.124617
247.0161,4.138065
247.1764,4.124601
247.1782,4.131529
247.3427,4.134772
247.8552,4.137982
247.8561,4.141649
254.3427,4.218839
254.3435,4.222100
254.5072,4.222083
254.6717,4.225327
254.8559,4.225309
254.8568,4.228976
255.0206,4.228960
255.1851,4.232204
255.5330,4.232169
255.5338,4.235429
255.8613,4.235397
256.0464,4.239046
256.2101,4.239030
256.3746,4.242273
256.8863,4.242222
257.0713,4.245464
257.7466,4.245397
259.6098,4.248472
260.7968,4.248353
260.9802,4.245075
261.6555,4.245008
261.8184,4.241731
262.1663,4.241697
262.3292,4.238420
262.6771,4.238386
262.8399,4.234702
263.1878,4.234667
263.3507,4.231391
263.5145,4.231374
263.8606,4.224412
266.2287,4.200540
266.3924,4.200524
266.9015,4.190285
267.0848,4.187007
267.0857,4.190267
267.2486,4.186991
267.5947,4.180028
267.7585,4.180012
268.7767,4.159942
268.9395,4.156258
268.9404,4.159926
269.1024,4.152982
269.1032,4.156242
269.2858,4.149703
269.4486,4.146020
269.4495,4.149687
269.6123,4.146003
270.1206,4.132505
270.1214,4.135765
271.6487,4.105456
271.9949,4.098494
272.1578,4.095217
272.1586,4.098478
272.4827,4.084997
272.4835,4.088257
272.8298,4.081702
272.8306,4.084962
272.9926,4.078019
272.9935,4.081686
273.3388,4.071464
273.5016,4.067780
273.5026,4.071447
273.6850,4.064501
273.6858,4.067762
273.8479,4.061225
273.8487,4.064485
274.1941,4.054263
274.3570,4.050986
274.3578,4.054246
274.5198,4.047303
274.5207,4.050970
274.6827,4.044026
274.6835,4.047286
275.0290,4.037471
276.7190,4.003071
276.8819,3.999795
277.0652,3.996517
277.0661,3.999777
277.3901,3.986296
277.3910,3.989556
277.5743,3.986278
278.0826,3.972779
278.0834,3.976039
278.2463,3.972763
278.4091,3.969079
278.5728,3.969063
278.9182,3.958840
278.9191,3.962508
279.0811,3.955564
279.0819,3.958824
279.2644,3.952286
279.2653,3.955546
279.4274,3.949009
279.4282,3.952269
279.5902,3.945325
279.5911,3.948993
279.7735,3.942047
279.7743,3.945307
279.9364,3.938771
279.9372,3.942031
280.1001,3.938754
280.4463,3.931792
281.2803,3.911333
281.4636,3.908055
281.6265,3.904778
281.6274,3.908038
281.7894,3.901094
281.7903,3.904762
281.9735,3.901076
282.1356,3.894540
282.1364,3.897800
282.2984,3.890856
282.2993,3.894523
282.4613,3.887579
282.4621,3.890839
282.6447,3.884301
282.6455,3.887561
282.8084,3.884285
282.9704,3.877341
282.9712,3.880601
283.1546,3.877322
283.3167,3.870786
283.3175,3.874046
283.4795,3.867102
283.4804,3.870770
283.6628,3.863824
283.6637,3.867084
283.8257,3.860547
283.8266,3.863807
283.9885,3.856863
283.9895,3.860531
284.1719,3.853585
284.1727,3.856845
284.3348,3.850308
284.3356,3.853569
284.4976,3.846625
284.4985,3.850292
284.6605,3.843348
284.8439,3.840070
284.8447,3.843330
285.0067,3.836386
286.3703,3.806094
286.3711,3.809354
286.5331,3.802410
286.6952,3.795873
286.6968,3.802394
286.8581,3.792597
286.8589,3.795857
287.0414,3.788911
287.0423,3.792579
287.2043,3.785635
287.2051,3.788895
287.3672,3.782358
287.3680,3.785618
287.5504,3.778672
287.7125,3.772136
287.7142,3.778656
287.8762,3.772120
288.0587,3.765174
288.0595,3.768434
288.3844,3.758213
288.5678,3.754935
288.5686,3.758195
288.8926,3.744715
288.8936,3.748382
289.0555,3.741438
289.2389,3.738160
289.2397,3.741420
289.4001,3.727956
289.4017,3.734476
289.5629,3.724272
289.5646,3.731200
289.7471,3.724254
289.7488,3.731181
290.9273,3.697240
291.0893,3.690296
291.0902,3.693963
291.2522,3.687020
291.2530,3.690280
291.4356,3.683741
291.4364,3.687001
291.7604,3.673521
291.7613,3.676781
291.9446,3.673502
292.1066,3.666558
292.1074,3.669819
292.2695,3.663282
292.2703,3.666542
292.6149,3.653060
292.6157,3.656320
292.7778,3.649783
292.7786,3.653043
293.1231,3.639561
293.1239,3.642821
293.4480,3.629341
293.4488,3.632601
293.6314,3.626062
293.6322,3.629322
294.1395,3.612156
294.1405,3.615824
295.6438,3.571662
295.8263,3.564716
295.8271,3.567976
295.9883,3.557772
295.9900,3.564700
296.1512,3.554495
296.1520,3.557756
296.6594,3.540997
296.6602,3.544257
296.8214,3.534053
296.8231,3.540980
297.0048,3.530774
297.0056,3.534034
297.5130,3.517276
297.5138,3.520536
298.1833,3.496833
298.3462,3.493557
298.3470,3.496817
298.5294,3.489871
299.8700,3.449393
300.0320,3.442449
300.0328,3.445709
300.2154,3.439170
300.2162,3.442430
300.3773,3.432226
300.3782,3.435486
300.8856,3.418728
300.8864,3.421988
301.0476,3.411784
301.0485,3.415451
301.2105,3.408507
301.2113,3.411767
301.5558,3.398285
301.5567,3.401545
301.7178,3.391341
301.7196,3.398269
301.9004,3.384803
301.9020,3.391323
302.0632,3.381119
302.0641,3.384786
302.4086,3.371304
302.4094,3.374564
302.5706,3.364360
302.5724,3.371287
304.2564,3.313252
304.2582,3.320180
304.7647,3.299753
304.7655,3.303013
305.0896,3.289533
305.0905,3.293201
305.2729,3.286255
305.2738,3.289515
305.7812,3.272756
305.7820,3.276016
305.9440,3.269072
305.9449,3.272740
306.1061,3.262535
306.1069,3.265796
306.2885,3.255589
306.2894,3.258850
306.4514,3.252313
306.4523,3.255573
306.6143,3.249037
306.6152,3.252297
306.7976,3.245351
306.7985,3.249018
307.1225,3.235130
307.1234,3.238798
308.9943,3.190932
308.9952,3.194600
309.3191,3.180712
309.3201,3.184379
309.6646,3.170897
309.6654,3.174157
309.8274,3.167213
309.8283,3.170881
309.9903,3.163937
309.9911,3.167197
310.1727,3.156991
310.1745,3.163918
310.3356,3.153714
310.3365,3.156974
310.4986,3.150438
310.4994,3.153698
310.8439,3.140215
310.8447,3.143476
311.0067,3.136532
311.0076,3.140199
311.1696,3.133255
311.1704,3.136515
311.3522,3.126717
311.3530,3.129977
311.5150,3.123033
311.5159,3.126700
311.6779,3.119756
311.8612,3.116478
311.8621,3.119738
312.0240,3.112794
313.2034,3.082520
313.3654,3.075576
313.3663,3.078836
313.5488,3.072298
313.5496,3.075558
313.7116,3.068614
313.7125,3.072282
314.0570,3.058392
314.0579,3.062059
314.2199,3.055115
314.2207,3.058375
314.3828,3.051839
314.3836,3.055099
314.7281,3.041617
314.7289,3.044877
314.8918,3.041600
315.0743,3.034654
315.0752,3.038322
315.2372,3.031378
315.2380,3.034638
315.5621,3.021158
315.5629,3.024418
315.7454,3.017879
315.7463,3.021139
315.9082,3.014195
315.9092,3.017863
316.0711,3.010919
316.0720,3.014179
316.2545,3.007640
316.4174,3.004364
316.4182,3.007624
316.5802,3.000680
316.5811,3.004348
316.7636,2.997402
318.1066,2.966704
318.2703,2.966688
318.6166,2.960133
318.7803,2.960117
321.3249,2.905663
323.3620,2.867969
323.5257,2.867952
323.6886,2.864676
323.8515,2.861400
323.8524,2.864660
324.0348,2.857714
324.0357,2.861381
324.1977,2.854437
324.1985,2.857697
324.3614,2.854421
324.5448,2.851143
324.7076,2.847459
324.7085,2.851126
324.8713,2.847442
325.0539,2.840904
325.0547,2.844164
325.2176,2.840888
325.3805,2.837611
325.5442,2.837595
325.8904,2.830633
326.0533,2.827356
326.0541,2.830616
326.2375,2.827338
326.4003,2.823654
326.5640,2.823638
326.9103,2.817083
327.0731,2.813399
327.0740,2.817067
327.4210,2.813365
327.5839,2.810088
329.2774,2.789544
329.6253,2.789509
329.7882,2.786233
329.9519,2.786216
330.1353,2.782938
330.2981,2.779254
330.2990,2.782922
330.8097,2.779203
331.1560,2.772648
331.3197,2.772632
331.4825,2.768948
331.6667,2.768930
331.9925,2.762377
332.1562,2.762361
332.3396,2.759082
332.5033,2.759066
332.8495,2.752104
333.1761,2.748811
333.1769,2.752071
333.3603,2.748793
333.8489,2.738556
335.8895,2.714717
336.0532,2.714700
336.2365,2.711014
336.3994,2.707738
336.4002,2.710998
336.5631,2.707722
336.7465,2.704443
336.9093,2.700760
336.9102,2.704427
337.0722,2.697483
337.0730,2.700743
337.2564,2.697465
337.5821,2.690504
337.7655,2.687226
337.7663,2.690486
337.9292,2.687210
338.2549,2.680250
338.4383,2.676971
338.4391,2.680231
338.6012,2.673695
338.6020,2.676955
338.7649,2.673678
339.2740,2.663440
339.4573,2.660161
339.4581,2.663422
339.6201,2.656477
339.6211,2.660145
339.7830,2.653201
339.7839,2.656461
339.9672,2.653183
340.1301,2.649906
341.8203,2.615914
341.9831,2.612230
342.1460,2.608954
342.1468,2.612214
342.3293,2.605675
342.3301,2.608935
342.4921,2.601991
342.6550,2.598715
342.6558,2.601975
342.8384,2.595437
342.8392,2.598697
343.0013,2.592160
343.0021,2.595420
343.1641,2.588476
343.1650,2.592144
343.5104,2.581922
343.6732,2.578238
343.6741,2.581905
343.8565,2.574959
343.8574,2.578219
344.0194,2.571683
344.0203,2.574943
344.1823,2.567999
344.3452,2.564723
344.3460,2.567983
344.5285,2.561444
344.5293,2.564704
344.6905,2.554500
344.6913,2.557760
344.8542,2.554484
345.2005,2.547929
345.3633,2.544245
345.3642,2.547913
345.7096,2.537691
345.8733,2.537674
346.0566,2.533988
347.7476,2.503664
347.9113,2.503647
348.0733,2.496703
348.0741,2.499963
348.2370,2.496687
348.5832,2.489725
348.7461,2.486448
348.7469,2.489708
348.9295,2.483170
349.0932,2.483154
349.9484,2.465953
350.1122,2.465936
350.6212,2.455698
350.7841,2.452421
350.7850,2.455681
350.9479,2.452405
351.1312,2.449127
351.2940,2.445443
351.2950,2.449110
351.4569,2.442166
351.4578,2.445426
351.6411,2.442148
351.8040,2.438872
353.8437,2.411365
354.0066,2.408088
354.1703,2.408072
354.3537,2.404794
354.5174,2.404777
354.8431,2.397817
355.0273,2.397799
355.1902,2.394522
355.3539,2.394506
355.7001,2.387544
355.8638,2.387528
356.0472,2.384249
356.3738,2.380957
356.3746,2.384216
356.5366,2.377273
356.5375,2.380940
356.7208,2.377254
356.8837,2.373978
357.0474,2.373962
357.2308,2.370683
357.3936,2.366999
357.3945,2.370667
357.5573,2.366983
357.7407,2.363704
360.1079,2.336573
360.4549,2.332870
360.4558,2.336538
360.6186,2.332854
360.9444,2.326301
361.2923,2.326267
361.6385,2.319304
361.8022,2.319288
361.9651,2.316012
362.1493,2.315993
362.3121,2.312309
362.6388,2.309017
362.6396,2.312277
362.9867,2.308982
363.3329,2.302427
363.6604,2.302395
363.8437,2.298709
364.0074,2.298692
364.1703,2.295416
364.3545,2.295398
364.5174,2.292122
364.6811,2.292105
364.8439,2.288421
366.7225,2.271526
366.8853,2.267842
367.2332,2.267807
367.5590,2.261255
367.9069,2.261220
368.0698,2.257944
368.2540,2.257925
368.4168,2.254242
368.7639,2.250947
368.7647,2.254207
368.9276,2.250930
369.0905,2.247654
369.4385,2.247619
369.6013,2.243935
369.7650,2.243919
369.9483,2.240641
370.1121,2.240625
370.2750,2.237348
370.6229,2.237313
370.7857,2.233630
370.9486,2.230353
370.9494,2.233613
371.1328,2.230335
371.4602,2.230302
374.1762,2.206396
374.3603,2.206377
374.5233,2.203101
374.6870,2.203085
374.8702,2.199399
375.3606,2.196090
375.3614,2.199350
376.0556,2.192761
376.0564,2.196021
376.5672,2.192710
376.7300,2.189026
377.0575,2.188993
377.2408,2.185715
377.7525,2.185664
377.9154,2.182387
378.2633,2.182353
378.4262,2.179076
378.7741,2.179042
378.9369,2.175358
381.8199,2.164883
382.8432,2.164781
383.0061,2.161505
383.8648,2.158159
383.8657,2.161419
384.7039,2.158075
384.8872,2.154389
386.0742,2.154271
386.2371,2.150995
386.5850,2.150960
386.7479,2.147684
388.7927,2.140552
389.6317,2.140469
389.7946,2.137193
391.0021,2.137072
391.1650,2.133796
391.8394,2.130061
391.8404,2.133729
392.5148,2.129994
392.6982,2.126715
392.8619,2.126699
393.5372,2.126632
396.0911,2.109262
396.7665,2.109195
396.9294,2.105918
397.6252,2.105849
397.7881,2.102573
398.4634,2.102505
398.6262,2.098822
399.3221,2.098752
399.4850,2.095476
399.9966,2.095425
400.1595,2.092148
400.3232,2.092132
400.5066,2.088854
400.6703,2.088837
401.0182,2.088803
403.5524,2.074695
403.7358,2.071417
404.2270,2.071368
404.4103,2.068089
404.7378,2.068057
404.9210,2.064371
405.0848,2.064354
405.2477,2.061078
405.7593,2.061027
405.9222,2.057751
406.2701,2.057716
406.4329,2.054032
406.7800,2.050737
406.7808,2.053998
407.2916,2.050686
407.4545,2.047410
407.8025,2.047375
407.9654,2.044099
408.1291,2.044083
408.3123,2.040397
414.2337,1.985607
414.4179,1.985589
414.5808,1.982312
414.7445,1.982296
414.9279,1.979018
415.0907,1.975334
415.0916,1.979001
415.2544,1.975318
415.4377,1.972039
417.2941,1.948218
417.6421,1.948184
417.8050,1.944907
417.9678,1.941223
417.9687,1.944891
418.1511,1.937945
418.1520,1.941205
418.3149,1.937928
418.4778,1.934652
418.6415,1.934636
418.8247,1.930950
419.3347,1.924379
419.6614,1.921086
419.6622,1.924346
419.8446,1.917400
419.8456,1.921068
420.0084,1.917384
420.1713,1.914108
420.3546,1.910829
420.3554,1.914089
420.5174,1.907145
420.5184,1.910813
420.8449,1.907113
421.1911,1.900558
421.3539,1.896874
421.3549,1.900542
421.5381,1.896856
421.8639,1.890303
423.7408,1.866480
424.0673,1.862780
424.0683,1.866447
424.2515,1.862761
424.5773,1.856209
424.7401,1.852525
424.7411,1.856192
424.9243,1.852507
425.2501,1.845954
425.4343,1.845935
425.5972,1.842659
425.7609,1.842643
425.9434,1.835697
425.9442,1.838957
426.1071,1.835680
426.4533,1.828718
426.6162,1.825442
426.6170,1.828702
426.7799,1.825425
427.2890,1.815187
427.4527,1.815170
427.9618,1.804932
428.1451,1.801653
428.1460,1.804913
428.3089,1.801637
428.4718,1.798361
430.1644,1.774149
430.3477,1.770870
430.5106,1.767594
430.5114,1.770854
430.6743,1.767577
430.8363,1.760634
430.8371,1.763893
431.0205,1.760615
431.3463,1.754062
431.5296,1.750376
431.5305,1.754044
431.6925,1.747100
431.6933,1.750360
431.8562,1.747084
432.0396,1.743805
432.2024,1.740122
432.2033,1.743790
432.3661,1.740105
432.5487,1.733567
432.5495,1.736827
432.7124,1.733550
432.8752,1.729867
433.0381,1.726590
433.0389,1.729851
433.2215,1.723312
433.2223,1.726572
433.3844,1.720035
433.3852,1.723296
433.5481,1.720019
433.7313,1.716333
433.8943,1.713057
433.8951,1.716317
434.0572,1.709780
434.0580,1.713041
434.2404,1.706094
434.2413,1.709763
434.4041,1.706078
434.5670,1.702802
436.2580,1.672069
436.2589,1.675737
436.6043,1.665514
436.7671,1.661831
436.7680,1.665498
437.1142,1.658536
437.1150,1.661797
437.4399,1.651576
437.6232,1.648298
437.6240,1.651558
437.7870,1.648281
438.1323,1.638059
438.1331,1.641319
438.2960,1.638043
438.4589,1.634766
438.6423,1.631487
438.6431,1.634748
438.9680,1.624528
439.1309,1.621251
439.1317,1.624511
439.3142,1.617565
439.3151,1.621232
439.4779,1.617549
439.6400,1.611012
439.6408,1.614273
439.8232,1.607326
439.8242,1.610994
439.9870,1.607310
440.4960,1.597072
442.1862,1.563079
442.3499,1.563063
442.8591,1.553232
443.0219,1.549548
443.0228,1.553215
443.2052,1.546270
443.3681,1.542993
443.3690,1.546253
443.5309,1.539310
443.5319,1.542977
443.7143,1.536030
443.7151,1.539291
443.8780,1.536014
444.5491,1.518832
444.5500,1.522499
444.7333,1.518814
445.5682,1.502023
445.7311,1.498746
445.7319,1.502006
446.0772,1.491783
452.8403,1.366002
453.0245,1.365984
453.1865,1.359040
453.1873,1.362300
453.3502,1.359023
454.2055,1.342229
454.3683,1.338546
454.3693,1.342213
454.5312,1.335269
454.5321,1.338530
454.7146,1.331992
454.7154,1.335251
454.8774,1.328306
455.0403,1.325031
455.0411,1.328290
455.2245,1.325013
455.7131,1.314775
457.9131,1.273804
457.9140,1.277472
458.4223,1.263974
458.6056,1.260288
458.6065,1.263955
458.9314,1.253735
459.1156,1.253716
459.2775,1.246772
459.2784,1.250032
459.4404,1.243497
459.4413,1.246757
459.6032,1.239812
459.6042,1.243480
459.7874,1.239795
460.1123,1.229574
460.1132,1.233242
460.2957,1.226296
460.2965,1.229556
460.4586,1.223018
460.4594,1.226280
460.6223,1.223002
460.8057,1.219723
460.9685,1.216039
460.9694,1.219708
461.3138,1.205819
461.3148,1.209486
461.4776,1.205802
461.6405,1.202526
##END=
