##TITLE=1-Naphthalenamine
##JCAMP-DX=4.24
##DATA TYPE=UV/VIS SPECTRUM
##ORIGIN=INSTITUTE OF ENERGY PROBLEMS OF CHEMICAL PHYSICS, RAS
##OWNER=INEP CP RAS, NIST OSRD
Collection (C) 2007 copyright by the U.S. Secretary of Commerce
on behalf of the United States of America. All rights reserved.
##CAS REGISTRY NO=134-32-7
##MOLFORM=C10H9N
##MP=49.2
##BP=300.8
##SOURCE REFERENCE=RAS UV No. 1011
##$NIST SQUIB=1953DUF/ETI1601-1604
##$NIST SOURCE=TSGMTE
##SPECTROMETER/DATA SYSTEM=n.i.g.
##XUNITS=Wavelength (nm)
##YUNITS=Logarithm epsilon
##XFACTOR=1.000000
##YFACTOR=1.000000
##FIRSTX=220.0095
##LASTX=354.9084
##FIRSTY=4.36984
##MAXX=354.908
##MINX=220.01
##MAXY=4.36984
##MINY=2.86003
##NPOINTS=181
##$REF AUTHOR=Dufraisse, C.; Etienne, A.; Rutimeyer, B.
##$REF TITLE=Le meso-aminonaphtacene, sa constitution et quelques derives
##$REF JOURNAL=Compt. Rend.
##$REF VOLUME=237
##$REF PAGE=1601-1604
##$REF DATE=1953
##XYPOINTS=(XY..XY)
220.0095,4.369839
220.5144,4.359263
221.0415,4.348686
221.5796,4.338107
224.0769,4.280714
224.4225,4.276655
224.7680,4.272484
225.1134,4.268091
231.8343,4.264572
232.6893,4.273391
233.5553,4.281986
234.4433,4.290468
237.5463,4.310807
238.7131,4.322019
239.3876,4.326131
240.1479,4.326668
244.8098,4.300223
244.9580,4.296048
245.1170,4.291650
245.2981,4.287139
247.8433,4.227233
248.1862,4.219531
248.5289,4.211607
248.8716,4.203571
249.8730,4.143781
249.9318,4.136101
250.0126,4.128197
250.1044,4.120179
251.3316,4.029262
251.3380,4.037792
251.3443,4.046322
251.3507,4.054852
251.8550,3.936891
251.9359,3.941569
252.0069,3.932866
252.3192,3.950907
252.7320,3.836466
252.7373,3.843491
252.7425,3.850515
252.7477,3.857540
253.1680,3.753135
253.1747,3.762018
253.1811,3.770678
253.1875,3.779227
253.9051,3.672792
253.9793,3.685814
254.0757,3.698724
254.1829,3.711409
254.6534,3.607502
254.7814,3.576362
254.9205,3.545110
255.0815,3.513633
255.5101,3.420267
255.5205,3.434298
255.5309,3.448217
255.5411,3.461914
255.7183,3.365555
255.9737,3.371558
256.2401,3.377559
256.4823,3.321339
256.5286,3.383559
256.6246,3.309267
256.7778,3.297082
256.9530,3.284673
257.4351,3.196320
257.4429,3.206839
257.4507,3.217246
257.4583,3.227430
257.8674,3.107971
257.8764,3.120014
257.8853,3.132056
257.8943,3.144099
258.3648,3.040191
258.6686,3.027122
258.9946,3.014050
259.3317,3.000978
259.8309,2.935707
260.0705,2.922995
260.3099,2.910060
260.5492,2.897014
265.2032,2.860031
266.7011,2.877481
267.5757,2.890295
268.5769,2.909454
270.7148,2.971515
271.1020,2.993584
271.3802,3.003060
271.7879,3.008066
274.1310,3.078140
274.5527,3.089501
274.9963,3.100637
275.4509,3.111661
278.0947,3.184221
278.7198,3.211379
280.1818,3.245387
281.9084,3.278267
283.3270,3.302041
283.8650,3.308732
287.0488,3.370715
287.6180,3.389424
288.0253,3.398890
288.6199,3.407227
290.6965,3.453737
291.1443,3.460580
291.6933,3.469534
292.8076,3.479671
294.3884,3.529229
294.6419,3.535232
294.8954,3.541234
295.1489,3.547237
295.1489,3.547237
295.5984,3.549061
296.0479,3.550663
296.4972,3.552153
298.8191,3.593626
299.5861,3.600594
300.3752,3.607559
301.1754,3.614524
304.2844,3.642891
305.3973,3.646320
306.5325,3.649746
307.6787,3.653172
307.6787,3.653172
308.4294,3.658134
308.9455,3.662592
309.3091,3.673070
309.4837,3.666938
310.0328,3.671059
311.6973,3.686917
314.5770,3.695680
317.6819,3.700329
320.7458,3.701830
320.9126,3.701348
321.5729,3.698790
322.2553,3.696229
322.9488,3.693668
323.5022,3.701153
323.5022,3.701153
323.6509,3.697629
323.8105,3.694104
323.9924,3.690578
329.1639,3.679649
329.7585,3.675572
330.3530,3.671382
330.9474,3.666970
334.2969,3.617039
334.7891,3.606817
335.2923,3.596371
335.8175,3.585813
338.3646,3.528415
338.7578,3.518851
339.1620,3.509287
339.5883,3.499720
340.9117,3.471018
341.2150,3.457298
341.5404,3.443353
341.8767,3.429296
343.4352,3.382009
343.7372,3.366431
344.0613,3.350851
344.3965,3.335270
345.9015,3.282969
345.9542,3.274546
346.3584,3.262417
347.4604,3.236184
348.4217,3.189445
348.8598,3.178279
349.0190,3.164235
349.9843,3.147677
350.4435,3.095456
350.7831,3.083387
351.1228,3.071318
351.4624,3.059250
352.9674,3.006949
353.1084,2.993241
353.2604,2.979309
353.4344,2.965265
354.4414,2.913002
354.5824,2.899294
354.7344,2.885362
354.9084,2.871317
##END=
