##TITLE=Methanone, (4-methylphenyl)phenyl-
##JCAMP-DX=4.24
##DATA TYPE=UV/VIS SPECTRUM
##ORIGIN=INSTITUTE OF ENERGY PROBLEMS OF CHEMICAL PHYSICS, RAS
##OWNER=INEP CP RAS, NIST OSRD
Collection (C) 2007 copyright by the U.S. Secretary of Commerce
on behalf of the United States of America. All rights reserved.
##CAS REGISTRY NO=134-84-9
##MOLFORM=C14H12O
##MP=59-60
##SOURCE REFERENCE=RAS UV No. 19113
##$NIST SQUIB=1968LAN83
##$NIST SOURCE=TYUGLMTE
##SPECTROMETER/DATA SYSTEM=Unicam SP 700
##XUNITS=Wavelength (nm)
##YUNITS=Logarithm epsilon
##XFACTOR=1.0
##YFACTOR=1.0
##FIRSTX=209.18
##LASTX=373.32
##FIRSTY=4.319
##MAXX=373.32
##MINX=209.18
##MAXY=4.319
##MINY=1.556
##NPOINTS=162
##$REF AUTHOR=Lang (editor), L.
##$REF JOURNAL=Absorption Spectra in the Ultraviolet and Visible Region
##$REF VOLUME=10
##$REF PAGE=83
##$REF DATE=1968
##XYPOINTS=(XY..XY)
209.18,4.319
210.20,4.264
211.22,4.227
212.23,4.193
213.25,4.153
214.27,4.122
215.29,4.088
216.31,4.058
217.33,4.030
218.35,4.003
219.37,3.973
220.39,3.949
221.41,3.922
222.43,3.905
223.45,3.881
224.47,3.861
225.49,3.851
226.51,3.841
227.53,3.841
228.55,3.844
229.57,3.858
230.59,3.871
231.61,3.888
232.63,3.905
233.65,3.922
234.68,3.945
235.68,3.973
236.70,4.003
237.72,4.034
238.74,4.064
239.69,4.089
240.62,4.115
241.50,4.135
242.38,4.156
243.44,4.175
244.44,4.193
245.69,4.213
246.76,4.224
247.82,4.238
248.95,4.248
249.96,4.254
250.98,4.261
252.00,4.264
252.95,4.265
253.83,4.264
255.06,4.258
256.08,4.247
257.09,4.237
258.11,4.224
259.13,4.207
260.15,4.183
261.17,4.163
262.19,4.139
263.21,4.115
264.23,4.091
265.25,4.064
266.27,4.037
267.29,4.010
268.31,3.980
269.33,3.949
270.35,3.915
271.37,3.878
272.39,3.841
273.41,3.803
274.43,3.769
275.45,3.725
276.47,3.685
277.49,3.634
278.51,3.580
279.52,3.529
280.54,3.478
281.56,3.430
282.47,3.383
283.60,3.329
284.62,3.261
285.64,3.190
286.66,3.112
287.68,3.041
288.70,2.959
289.72,2.878
290.74,2.797
291.76,2.712
292.78,2.624
293.80,2.529
294.82,2.424
295.84,2.322
296.86,2.217
297.88,2.122
298.90,2.024
299.92,1.925
300.94,1.837
301.95,1.773
302.97,1.729
303.99,1.698
305.19,1.674
306.11,1.675
307.02,1.684
308.10,1.700
309.10,1.718
310.27,1.741
311.35,1.762
312.26,1.782
313.26,1.803
314.34,1.824
315.50,1.851
316.67,1.874
317.58,1.895
318.58,1.915
319.49,1.931
320.49,1.945
321.41,1.957
322.49,1.973
323.37,1.986
324.38,2.000
325.40,2.017
326.42,2.030
327.39,2.041
328.39,2.055
329.39,2.065
330.55,2.074
331.52,2.081
332.54,2.088
333.56,2.098
334.46,2.106
335.60,2.115
336.54,2.122
337.54,2.128
338.66,2.132
339.68,2.135
340.70,2.135
341.72,2.139
342.74,2.135
343.76,2.135
344.78,2.135
345.80,2.132
346.81,2.122
347.83,2.115
348.85,2.105
349.87,2.098
350.89,2.085
351.91,2.074
352.93,2.061
353.95,2.047
354.97,2.030
355.99,2.013
357.01,1.997
358.03,1.980
359.05,1.963
360.07,1.946
361.09,1.925
362.11,1.902
363.13,1.874
364.15,1.851
365.17,1.820
366.19,1.797
367.21,1.766
368.23,1.732
369.25,1.698
370.26,1.664
371.28,1.630
372.30,1.593
373.32,1.556
##END=
