##TITLE=1,2,4-Trimethoxybenzene
##JCAMP-DX=4.24
##DATA TYPE=UV/VIS SPECTRUM
##ORIGIN=INSTITUTE OF ENERGY PROBLEMS OF CHEMICAL PHYSICS, RAS
##OWNER=INEP CP RAS, NIST OSRD
Collection (C) 2007 copyright by the U.S. Secretary of Commerce
on behalf of the United States of America. All rights reserved.
##CAS REGISTRY NO=135-77-3
##MOLFORM=C9H12O3
##SOURCE REFERENCE=RAS UV No. 984
##$NIST SQUIB=1955SHA/KUL2515-2516
##$NIST SOURCE=TSGMTE
##SPECTROMETER/DATA SYSTEM=n.i.g.
##XUNITS=Wavelength (nm)
##YUNITS=Logarithm epsilon
##XFACTOR=1.000000
##YFACTOR=1.000000
##FIRSTX=239.5511
##LASTX=300.3543
##FIRSTY=3.4754
##MAXX=300.354
##MINX=239.551
##MAXY=3.55153
##MINY=2.48497
##NPOINTS=124
##$REF AUTHOR=Shah, R.C.; Kulkarni, A.B.; Thakore, V.M.
##$REF TITLE=Pristimerin. Part I.
##$REF JOURNAL=J. Chem. Soc.
##$REF PAGE=2515-2516
##$REF DATE=1955
##XYPOINTS=(XY..XY)
239.5511,3.475401
239.9027,3.451075
240.2138,3.430006
240.5131,3.409850
240.8289,3.388261
241.1897,3.362894
241.6240,3.331404
242.1601,3.291446
242.8265,3.240675
243.6518,3.176746
243.6518,3.176746
243.9318,3.145317
244.2143,3.113981
244.5000,3.082722
244.7892,3.051522
245.0826,3.020365
245.3808,2.989232
245.6842,2.958108
245.9934,2.926975
246.3090,2.895815
246.6315,2.864612
246.9615,2.833348
247.2995,2.802006
247.6460,2.770570
248.0017,2.739021
248.0017,2.739021
248.3171,2.724363
248.9271,2.691120
249.8106,2.645094
250.9467,2.592084
250.9467,2.592084
251.3779,2.583620
251.8133,2.574973
252.2575,2.566231
252.5755,2.564039
253.3780,2.567755
254.0412,2.574069
254.7846,2.584045
254.7846,2.584045
255.7177,2.609908
256.6012,2.636609
257.4398,2.664053
258.2383,2.692145
259.0013,2.720791
259.7335,2.749895
260.4396,2.779364
261.1243,2.809103
261.7924,2.839017
262.4484,2.869011
263.0971,2.898991
263.7433,2.928863
264.3915,2.958530
265.0466,2.987900
265.7131,3.016877
266.3958,3.045368
266.3958,3.045368
266.7785,3.067368
267.4313,3.095370
268.9138,3.153377
268.9504,3.183016
269.2308,3.182874
269.5111,3.182732
269.7705,3.165537
269.7775,3.171222
269.7845,3.176906
269.7915,3.182590
269.7915,3.182590
269.7965,3.186650
270.3914,3.217173
271.1819,3.246289
272.0816,3.274674
273.0039,3.303005
273.8626,3.331959
274.5711,3.362211
275.0429,3.394438
276.0843,3.393910
276.6642,3.427209
277.7301,3.455992
279.0544,3.482147
280.4096,3.507565
281.5680,3.534136
281.5680,3.534136
282.6782,3.540059
283.7928,3.545889
284.9161,3.551534
284.9161,3.551534
286.5828,3.544741
288.0292,3.532104
289.2822,3.514397
290.3685,3.492390
291.3150,3.466855
292.1487,3.438566
292.8962,3.408295
293.5845,3.376812
294.2405,3.344892
294.2405,3.344892
294.6605,3.315534
295.0571,3.285973
295.4314,3.256221
295.7842,3.226290
296.1165,3.196192
296.4294,3.165938
296.7237,3.135541
297.0006,3.105012
297.2609,3.074363
297.5056,3.043605
297.7356,3.012752
297.9521,2.981814
298.1558,2.950803
298.3479,2.919732
298.5293,2.888611
298.7009,2.857454
298.8637,2.826271
299.0188,2.795074
299.1670,2.763876
299.3093,2.732688
299.4468,2.701523
299.5804,2.670391
299.7110,2.639305
299.8397,2.608276
299.9674,2.577316
300.0951,2.546438
300.2237,2.515653
300.3543,2.484972
##END=
