##TITLE=2-Naphthalenol
##JCAMP-DX=4.24
##DATA TYPE=UV/VIS SPECTRUM
##ORIGIN=INSTITUTE OF ENERGY PROBLEMS OF CHEMICAL PHYSICS, RAS
##OWNER=INEP CP RAS, NIST OSRD
Collection (C) 2007 copyright by the U.S. Secretary of Commerce
on behalf of the United States of America. All rights reserved.
##CAS REGISTRY NO=135-19-3
##MOLFORM=C10H8O
##MP=123
##BP=285
##SOURCE REFERENCE=RAS UV No. 534
##$NIST SQUIB=1950FOR531-535
##$NIST SOURCE=TSGMTE
##SPECTROMETER/DATA SYSTEM=n.i.g.
##XUNITS=Wavelength (nm)
##YUNITS=Logarithm epsilon
##XFACTOR=1.000000
##YFACTOR=1.000000
##FIRSTX=249.6494
##LASTX=336.1217
##FIRSTY=3.4433
##MAXX=336.122
##MINX=249.649
##MAXY=3.64214
##MINY=2.78483
##NPOINTS=345
##$REF AUTHOR=Forster, Th.
##$REF TITLE=Die pH-Abhangigkeit der fluoreszenz von naphthalinderivaten
##$REF JOURNAL=Z. Elektrochem.
##$REF VOLUME=54
##$REF PAGE=531-535
##$REF DATE=1950
##XYPOINTS=(XY..XY)
249.6494,3.443301
250.1565,3.444695
250.7698,3.447381
252.0151,3.453662
252.0151,3.453662
252.6094,3.457980
253.1930,3.462191
253.7712,3.466347
253.7712,3.466347
255.0257,3.479007
255.6414,3.484927
256.1458,3.489181
256.1458,3.489181
256.1914,3.490866
256.2315,3.492550
256.2609,3.494232
256.2609,3.494232
256.5144,3.497887
256.8567,3.503792
257.3801,3.511637
257.3801,3.511637
257.6629,3.520573
258.1338,3.534488
258.5713,3.549199
258.5713,3.549199
258.6663,3.550161
258.7560,3.551069
258.8228,3.561702
258.8228,3.561702
258.8267,3.558513
258.8308,3.555218
258.8350,3.551870
258.8350,3.551870
259.3532,3.568198
259.6067,3.571836
259.8005,3.575732
259.8005,3.575732
260.1831,3.579607
260.5604,3.583429
260.9271,3.587142
260.9271,3.587142
261.1431,3.588367
261.3538,3.589592
261.5536,3.590816
261.5536,3.590816
264.3519,3.593100
265.7219,3.594572
266.8378,3.596493
266.8378,3.596493
267.0065,3.597464
267.1752,3.598382
267.3441,3.599193
267.3441,3.599193
267.7685,3.603491
268.1822,3.607681
268.5906,3.611817
268.5906,3.611817
268.8451,3.616094
269.0889,3.620263
269.3274,3.624378
269.3274,3.624378
269.5912,3.627724
269.9711,3.633056
270.5694,3.640599
270.5694,3.640599
270.9253,3.640696
271.1513,3.641096
271.4413,3.642144
271.4413,3.642144
271.7028,3.640808
271.9533,3.639577
272.1984,3.638398
272.1984,3.638398
272.5716,3.630279
272.7408,3.625760
272.8511,3.620968
272.8511,3.620968
272.9484,3.620029
273.0403,3.619143
273.1213,3.618362
273.1213,3.618362
273.3966,3.606580
273.5320,3.598886
273.6436,3.588683
273.6436,3.588683
273.7409,3.587745
273.8328,3.586859
273.9138,3.586078
273.9138,3.586078
274.5694,3.556877
274.8442,3.543354
274.9737,3.533918
274.9737,3.533918
275.0710,3.532979
275.1629,3.532093
275.2439,3.531312
275.2439,3.531312
275.5226,3.516786
275.6597,3.507786
275.7724,3.496597
275.7724,3.496597
275.8698,3.495659
275.9617,3.494772
276.0426,3.493992
276.0426,3.493992
276.0930,3.491848
276.1378,3.489757
276.1717,3.487771
276.1717,3.487771
276.7545,3.486101
277.3094,3.485173
278.3121,3.484193
278.3121,3.484193
278.6152,3.486228
278.9403,3.487947
279.5660,3.490821
279.5660,3.490821
279.9365,3.496471
280.1951,3.501042
280.5635,3.508451
280.5635,3.508451
280.9704,3.513058
281.3773,3.517664
281.7842,3.522271
281.7842,3.522271
282.1240,3.522312
282.4637,3.522353
282.8035,3.522394
282.8035,3.522394
283.0665,3.519797
283.3187,3.517251
283.5653,3.514811
283.5653,3.514811
283.5674,3.513142
283.5694,3.511525
283.5713,3.510015
283.5713,3.510015
283.6686,3.509076
283.7605,3.508190
283.8415,3.507409
283.8415,3.507409
284.0962,3.487724
284.3463,3.468038
284.5928,3.448352
284.8371,3.428666
285.0802,3.408979
285.0802,3.408979
285.1387,3.400183
285.1918,3.391492
285.2340,3.382854
285.2340,3.382854
285.3313,3.381915
285.4232,3.381029
285.5042,3.380248
285.5042,3.380248
285.5627,3.371451
285.6158,3.362761
285.6580,3.354122
285.6580,3.354122
285.7531,3.349887
285.8374,3.345758
285.9161,3.341681
285.9161,3.341681
286.0727,3.327725
286.2305,3.314144
286.3915,3.300651
286.5576,3.286954
286.7309,3.272766
286.9134,3.257796
287.1070,3.241755
287.3139,3.224353
287.5359,3.205301
287.7751,3.184309
288.0335,3.161087
288.0335,3.161087
288.1308,3.160148
288.2227,3.159262
288.3037,3.158481
288.3037,3.158481
288.4205,3.147675
288.5926,3.135757
288.9676,3.112510
288.9676,3.112510
289.3092,3.098523
289.6844,3.084923
290.3286,3.063666
291.4770,3.026706
291.4770,3.026706
291.5743,3.025767
291.6662,3.024881
291.7472,3.024100
291.7472,3.024100
291.7984,3.021228
291.8442,3.018356
291.8792,3.015481
291.8792,3.015481
292.1459,3.010006
292.4016,3.004582
292.6518,2.999265
292.6518,2.999265
292.8714,2.997613
293.0856,2.995960
293.2890,2.994305
293.2890,2.994305
293.3398,2.991744
293.3852,2.989289
293.4196,2.986886
293.4196,2.986886
293.6825,2.984350
293.9346,2.981920
294.1811,2.979542
294.1811,2.979542
294.4915,2.977901
294.7911,2.976258
295.0853,2.974615
295.0853,2.974615
295.6671,2.975165
296.2490,2.975716
296.8308,2.976266
296.8308,2.976266
297.0468,2.977491
297.2575,2.978716
297.4573,2.979940
297.4573,2.979940
297.8301,2.984542
298.3343,2.991879
299.1994,3.003896
299.1994,3.003896
299.6203,3.011028
299.9996,3.016821
300.4367,3.023954
300.4367,3.023954
300.5568,3.024919
300.6770,3.025831
300.7974,3.026636
300.7974,3.026636
301.5979,3.040032
301.9871,3.045863
302.2986,3.049125
302.2986,3.049125
302.8673,3.058086
303.7717,3.070393
304.5183,3.079376
304.5183,3.079376
305.2625,3.088891
305.7891,3.095609
306.1178,3.100917
306.1178,3.100917
306.3744,3.103515
306.6203,3.106006
306.8609,3.108442
306.8609,3.108442
308.3054,3.132416
309.2048,3.148010
310.3299,3.168587
310.3299,3.168587
310.7830,3.175047
311.2363,3.181400
311.6897,3.187700
311.6897,3.187700
312.2339,3.193212
312.7674,3.198615
313.2957,3.203965
313.2957,3.203965
313.6023,3.205370
313.8982,3.206668
314.1888,3.207911
314.1888,3.207911
314.8198,3.207988
315.4508,3.208064
316.0817,3.208141
316.0817,3.208141
317.3302,3.204659
317.8863,3.202798
318.2266,3.200965
318.2266,3.200965
319.3940,3.197562
319.9493,3.196324
320.3684,3.196188
320.3684,3.196188
322.0670,3.205215
322.8176,3.208851
323.2636,3.210210
323.2636,3.210210
324.0960,3.218227
324.9176,3.226241
325.7337,3.234256
325.7337,3.234256
325.9502,3.235170
326.1613,3.235977
326.3617,3.236730
326.3617,3.236730
326.8228,3.236786
327.2839,3.236842
327.7450,3.236898
327.7450,3.236898
327.9640,3.235725
328.1776,3.234552
328.3805,3.233377
328.3805,3.233377
328.7537,3.225258
328.9229,3.220739
329.0332,3.215947
329.0332,3.215947
329.1305,3.215008
329.2224,3.214122
329.3034,3.213341
329.3034,3.213341
329.5799,3.200574
329.7170,3.191573
329.8319,3.178626
329.8319,3.178626
329.9293,3.177687
330.0212,3.176801
330.1021,3.176021
330.1021,3.176021
330.2572,3.163315
330.3985,3.152387
330.5622,3.140908
330.7843,3.126549
331.1007,3.106982
331.5474,3.079879
332.1605,3.042911
332.1605,3.042911
332.2991,3.029087
332.4375,3.015370
332.5758,3.001706
332.5758,3.001706
332.6731,3.000767
332.7650,2.999881
332.8460,2.999100
332.8460,2.999100
333.1494,2.976253
333.3955,2.960488
333.7953,2.938292
333.7953,2.938292
333.9322,2.928211
334.1484,2.913736
334.4231,2.896003
334.7351,2.876148
335.0636,2.855307
335.3874,2.834619
335.6857,2.815218
335.9375,2.798242
336.1217,2.784827
##END=
