##TITLE=Phenoxazine
##JCAMP-DX=4.24
##DATA TYPE=UV/VIS SPECTRUM
##ORIGIN=INSTITUTE OF ENERGY PROBLEMS OF CHEMICAL PHYSICS, RAS
##OWNER=INEP CP RAS, NIST OSRD
Collection (C) 2007 copyright by the U.S. Secretary of Commerce
on behalf of the United States of America. All rights reserved.
##CAS REGISTRY NO=135-67-1
##MOLFORM=C12H9NO
##MP=156
##BP=dec
##SOURCE REFERENCE=RAS UV No. 317
##$NIST SQUIB=1962VAN/REY1659-1664
##$NIST SOURCE=TSGMTE
##SPECTROMETER/DATA SYSTEM=n.i.g.
##XUNITS=Wavelength (nm)
##YUNITS=Logarithm epsilon
##XFACTOR=1.000000
##YFACTOR=1.000000
##FIRSTX=209.8113
##LASTX=363.3360
##FIRSTY=4.2904
##MAXX=363.336
##MINX=209.811
##MAXY=4.2904
##MINY=3.21014
##NPOINTS=414
##$REF AUTHOR=VanAllan, J.A.; Reynolds, G.A.; Adel, R.E.
##$REF TITLE=Polynuclear heterocycles. I. 1H-benzo[b]pyrido[1,2,3-mn]phenoxazin-1-one and related substances
##$REF JOURNAL=J. Org. Chem.
##$REF VOLUME=27
##$REF PAGE=1659-1664
##$REF DATE=1962
##XYPOINTS=(XY..XY)
209.8113,4.290395
210.1569,4.279385
210.1836,4.288900
210.4613,4.268286
210.4875,4.277855
210.7699,4.258481
210.7918,4.266715
211.4461,4.244970
211.4592,4.250044
211.7635,4.238158
211.7766,4.243312
212.0810,4.231238
212.0940,4.236475
212.4444,4.225913
212.4528,4.229313
212.7483,4.213118
212.7614,4.218576
213.0657,4.205783
213.0788,4.211334
213.1008,4.220503
213.4245,4.198093
213.4376,4.203742
213.7461,4.192346
213.7550,4.196247
214.0636,4.184649
214.0766,4.190475
214.4051,4.168611
214.4228,4.176810
214.4359,4.182742
214.7356,4.166635
214.7445,4.170773
214.7528,4.174631
215.4426,4.164622
215.4468,4.166583
215.7643,4.158411
215.7726,4.162381
216.0859,4.152111
216.0943,4.156138
216.4535,4.147762
216.4577,4.149800
216.7752,4.141303
216.7841,4.145688
217.0968,4.134748
217.1057,4.139199
217.4644,4.130220
217.4692,4.132607
217.7861,4.123494
217.7950,4.128061
218.1119,4.118851
218.1166,4.121301
218.8017,4.107452
218.8059,4.109688
219.1233,4.100360
219.1317,4.104894
219.4952,4.097757
222.5608,4.080533
222.9374,4.080500
223.6157,4.085481
223.9922,4.085448
225.0596,4.097280
225.3990,4.099826
225.4032,4.102101
225.7421,4.104337
225.7468,4.106870
226.1233,4.106838
226.1275,4.109078
226.4622,4.109050
226.4664,4.111278
226.8058,4.113743
226.8100,4.115947
227.1865,4.115916
227.1907,4.118110
227.5254,4.118082
227.8648,4.120509
227.8779,4.127255
228.2586,4.129362
228.2633,4.131753
228.6022,4.133842
228.6064,4.135947
228.9411,4.135920
228.9500,4.140359
229.3266,4.140330
229.3307,4.142404
230.0090,4.146726
230.0221,4.153080
230.4028,4.155065
230.4075,4.157320
230.7464,4.159289
230.7506,4.161274
231.0900,4.163472
231.0942,4.165438
231.4707,4.165411
231.4749,4.167368
231.8143,4.169535
231.8185,4.171474
232.1532,4.171450
232.1705,4.179359
232.5470,4.179332
232.5517,4.181464
232.8906,4.183327
232.8948,4.185206
233.2342,4.187286
233.2384,4.189148
233.6149,4.189122
233.6191,4.190975
233.9585,4.193028
233.9627,4.194865
234.3016,4.196672
234.3063,4.198721
234.6410,4.198698
234.6452,4.200511
235.0259,4.202292
235.0306,4.204314
236.0897,4.209815
237.1398,4.211514
237.1440,4.213274
237.4834,4.215225
238.5116,4.207656
238.5163,4.209654
238.8379,4.204059
238.8421,4.205850
239.2144,4.204034
239.8838,4.203989
240.9036,4.192550
240.9078,4.194389
241.2671,4.186726
241.2755,4.190446
241.5887,4.180826
241.5971,4.184596
241.9104,4.174844
241.9187,4.178666
242.2738,4.168776
242.2822,4.172652
242.6038,4.166556
243.2758,4.147759
243.2978,4.158355
243.5891,4.137132
243.6064,4.145685
243.8971,4.123548
243.9191,4.134744
244.2475,4.109800
244.2695,4.121351
244.5608,4.098190
244.5780,4.107536
244.8693,4.083605
244.8908,4.095577
245.2239,4.070954
245.2412,4.080898
245.5325,4.055408
245.5544,4.068478
245.8410,4.039285
245.8630,4.052842
246.1538,4.025257
246.1715,4.036621
246.5041,4.007947
246.5261,4.022501
246.8169,3.992851
246.8347,4.005083
247.1254,3.974175
247.1474,3.989886
247.4758,3.954655
247.4978,3.971074
247.7891,3.937964
247.8063,3.951416
248.0799,3.901669
248.0888,3.909254
248.1107,3.927445
248.1191,3.934180
248.4433,3.890216
248.4522,3.898002
248.4695,3.912729
248.4826,3.923563
248.7608,3.874643
248.7738,3.886456
249.0777,3.857994
249.0908,3.870262
249.4328,3.837033
249.4501,3.853937
249.7628,3.832253
249.7675,3.836981
250.0844,3.818791
250.0933,3.827954
250.4437,3.800368
250.4568,3.814349
250.7653,3.785862
250.7742,3.795739
251.0828,3.765962
251.0958,3.781076
251.4373,3.739248
251.4546,3.760319
251.7590,3.722508
251.7721,3.739183
252.0848,3.710722
252.0895,3.716965
252.4399,3.681005
252.4571,3.705017
253.8028,3.654465
253.8075,3.661564
254.1333,3.647974
255.1703,3.633769
255.5511,3.640299
255.8858,3.640216
255.8905,3.647550
256.9364,3.647298
256.9406,3.653718
257.6100,3.653559
257.9913,3.660585
258.6607,3.660428
259.0414,3.666571
259.7108,3.666417
260.0915,3.672477
260.4220,3.666252
261.1333,3.666088
261.4722,3.672162
261.4769,3.678980
262.1881,3.678820
262.1923,3.684794
262.5270,3.684720
262.8659,3.690541
264.2884,3.690230
264.2931,3.696772
264.6278,3.696700
264.6320,3.702434
264.9667,3.702363
265.3474,3.707945
265.6821,3.707875
266.0215,3.714089
266.3981,3.714011
266.7370,3.719454
267.4482,3.719309
267.4524,3.724755
268.1218,3.724619
268.5030,3.730592
268.8377,3.730525
269.1766,3.735767
269.8837,3.730316
269.8879,3.735626
270.5531,3.730183
271.6121,3.746370
273.0346,3.746096
273.3646,3.740196
275.4565,3.739787
275.7870,3.734462
276.1636,3.734388
276.4941,3.728995
277.2053,3.728853
277.5353,3.722712
278.2466,3.722567
278.5771,3.717025
278.9118,3.716956
279.2842,3.711333
280.3212,3.699083
280.6559,3.699012
280.9864,3.693158
281.6977,3.693004
282.3582,3.680302
283.0694,3.680143
283.4000,3.674028
285.1613,3.679674
285.4960,3.679599
285.8768,3.685479
286.9227,3.685248
287.2621,3.691792
288.3034,3.684942
288.3081,3.691564
288.6297,3.672839
288.6339,3.678895
288.6428,3.691491
289.0235,3.697213
289.6887,3.691263
289.6929,3.697069
290.0606,3.684553
290.0694,3.696988
290.4042,3.696916
290.7430,3.702577
291.1196,3.702496
291.4501,3.696690
292.8308,3.696393
293.1785,3.714011
293.5551,3.713933
293.8940,3.719377
294.6052,3.719232
294.9446,3.725287
295.2615,3.701614
295.2793,3.725219
295.6559,3.725143
295.9906,3.725075
296.3295,3.730383
296.6929,3.713282
296.7060,3.730308
297.0407,3.730241
297.3796,3.735486
297.7519,3.730099
297.7561,3.735412
298.0825,3.724653
298.0908,3.735346
298.4302,3.741182
299.4762,3.740978
299.8569,3.746088
300.5263,3.745959
300.9070,3.751011
301.9530,3.750812
301.9577,3.756508
302.6271,3.756382
303.0078,3.761314
304.3885,3.761058
307.1587,3.771007
308.5812,3.770749
308.9201,3.775529
312.0579,3.774965
312.3968,3.779699
315.8693,3.779080
317.2835,3.769164
318.6641,3.768912
318.9941,3.763315
319.3706,3.763245
319.7012,3.758202
320.0359,3.758139
320.4082,3.753028
320.7429,3.752964
321.0729,3.747157
321.7842,3.747020
322.1147,3.741784
322.4912,3.741710
322.8218,3.736409
323.5330,3.736269
324.1935,3.724788
324.5701,3.724712
324.9006,3.719197
325.2353,3.719128
325.6071,3.712839
327.3094,3.694728
328.0165,3.688734
328.0206,3.694574
328.3470,3.682740
328.3512,3.688661
328.6770,3.675905
328.6817,3.682665
329.0493,3.669721
329.3840,3.669644
329.7146,3.663378
330.0864,3.656220
330.0911,3.663290
330.4169,3.649756
330.4211,3.656140
330.7516,3.649676
331.1193,3.635692
331.1240,3.643103
331.4540,3.635609
331.7845,3.628829
332.1563,3.621073
332.1610,3.628734
332.4868,3.614060
332.4910,3.620987
332.8215,3.613972
333.1892,3.598770
333.1939,3.606832
333.5239,3.598679
333.8544,3.591292
334.2268,3.583765
334.2310,3.591189
334.5568,3.575164
334.5615,3.583672
334.8915,3.575069
335.2596,3.559405
335.2638,3.567253
335.5943,3.559306
335.9243,3.550201
338.3666,3.495610
339.0360,3.495380
339.3666,3.485988
339.7431,3.485856
340.0736,3.476253
340.4083,3.476133
340.7802,3.465066
341.1149,3.464943
341.4454,3.454861
341.8219,3.454719
342.1524,3.444393
342.4824,3.432493
342.4871,3.444264
343.1937,3.432211
343.5242,3.421329
343.9007,3.421176
344.2313,3.410011
344.5613,3.397115
344.5660,3.409871
345.2725,3.396809
345.6030,3.384991
345.9754,3.372823
345.9796,3.384824
346.6448,3.372518
347.0166,3.358421
347.3513,3.358264
347.6818,3.345332
348.0584,3.345149
348.3889,3.331815
348.7236,3.331648
349.0954,3.316134
350.8024,3.286528
351.1413,3.300944
351.5137,3.286133
352.5596,3.285552
352.8896,3.268291
353.9356,3.267685
354.2661,3.251699
355.3079,3.234657
355.6886,3.250843
358.8264,3.248951
359.1569,3.232246
361.9601,3.230481
362.2901,3.210832
362.6248,3.210611
363.3360,3.210141
##END=
