##TITLE=2-Naphthyl phenyl amine
##JCAMP-DX=4.24
##DATA TYPE=UV/VIS SPECTRUM
##ORIGIN=INSTITUTE OF ENERGY PROBLEMS OF CHEMICAL PHYSICS, RAS
##OWNER=INEP CP RAS, NIST OSRD
Collection (C) 2007 copyright by the U.S. Secretary of Commerce
on behalf of the United States of America. All rights reserved.
##CAS REGISTRY NO=135-88-6
##MOLFORM=C16H13N
##MP=108
##SOURCE REFERENCE=RAS UV No. 20150
##$NIST SQUIB=1969FIH/66
##$NIST SOURCE=TYUGLMTE
##SPECTROMETER/DATA SYSTEM=SF-4
##XUNITS=Wavelength (nm)
##YUNITS=Logarithm epsilon
##XFACTOR=1.0
##YFACTOR=1.0
##FIRSTX=222.69
##LASTX=380.38
##FIRSTY=4.436
##MAXX=380.38
##MINX=222.69
##MAXY=4.436
##MINY=2.572
##NPOINTS=189
##$REF AUTHOR=Fihtengolts, V.S.; et al.
##$REF JOURNAL=Atlas of UV Absorption Spectra of Substances Used in Synthetic Rubber Manufacture
##$REF PAGE=66
##$REF DATE=1969
##XYPOINTS=(XY..XY)
222.69,4.436
222.74,4.418
222.82,4.398
222.98,4.375
223.29,4.340
223.85,4.290
224.56,4.234
225.97,4.176
226.82,4.150
227.68,4.134
228.53,4.126
229.38,4.120
230.24,4.113
231.09,4.113
231.94,4.115
232.80,4.116
233.65,4.123
234.50,4.129
235.36,4.136
236.21,4.149
237.06,4.161
237.91,4.170
238.77,4.180
239.62,4.187
240.47,4.200
241.33,4.210
242.18,4.216
243.03,4.224
243.89,4.229
244.74,4.235
245.59,4.241
246.45,4.245
247.30,4.249
248.15,4.251
248.98,4.253
249.76,4.255
250.70,4.257
251.56,4.262
252.42,4.268
253.27,4.274
254.12,4.281
254.98,4.288
255.83,4.298
256.68,4.308
257.54,4.316
258.39,4.325
259.24,4.333
260.09,4.345
260.95,4.351
261.80,4.357
262.65,4.365
263.51,4.371
264.36,4.375
265.21,4.377
266.07,4.381
266.92,4.386
267.77,4.392
268.63,4.397
269.48,4.406
270.33,4.415
271.18,4.422
272.04,4.426
272.89,4.427
273.74,4.420
274.60,4.391
275.45,4.348
276.30,4.301
277.16,4.247
278.01,4.187
278.86,4.116
279.72,4.083
280.57,4.070
281.42,4.063
282.27,4.058
283.13,4.056
283.98,4.059
284.83,4.063
285.69,4.071
286.54,4.086
287.39,4.099
288.25,4.124
289.10,4.139
289.95,4.157
290.81,4.172
291.66,4.189
292.51,4.207
293.36,4.221
294.22,4.234
295.07,4.249
295.92,4.259
296.78,4.269
297.63,4.280
298.48,4.289
299.34,4.297
300.19,4.305
301.04,4.310
301.90,4.318
302.75,4.327
303.60,4.331
304.45,4.336
305.31,4.341
306.16,4.345
307.01,4.349
307.87,4.352
308.72,4.354
309.57,4.355
310.43,4.353
311.28,4.344
312.13,4.322
312.99,4.298
313.84,4.268
314.69,4.231
315.54,4.193
316.40,4.156
317.25,4.120
318.10,4.088
318.96,4.054
319.81,4.017
320.66,3.998
321.52,3.947
322.37,3.909
323.22,3.873
324.08,3.845
324.93,3.816
325.78,3.784
326.63,3.753
327.49,3.720
328.34,3.697
329.19,3.672
330.05,3.637
330.90,3.613
331.75,3.588
332.61,3.572
333.17,3.561
334.08,3.549
335.17,3.539
336.02,3.539
336.87,3.539
337.73,3.541
338.57,3.545
339.40,3.553
340.39,3.563
341.14,3.572
341.98,3.582
342.84,3.593
343.73,3.602
344.64,3.610
345.40,3.618
346.24,3.625
347.11,3.632
347.96,3.637
348.81,3.641
349.66,3.640
350.52,3.637
351.28,3.632
352.18,3.627
353.10,3.619
353.93,3.613
354.83,3.604
355.64,3.593
356.42,3.583
357.26,3.572
358.24,3.554
358.93,3.541
359.90,3.521
360.68,3.505
361.61,3.483
362.46,3.456
363.32,3.435
364.17,3.412
365.02,3.380
365.88,3.345
366.73,3.317
367.58,3.287
368.43,3.255
369.29,3.221
370.14,3.183
370.93,3.150
371.85,3.112
372.70,3.080
373.61,3.038
374.34,2.998
375.26,2.944
376.11,2.896
376.97,2.842
377.78,2.789
378.55,2.736
379.37,2.667
380.38,2.572
##END=
