##TITLE=Cupferron
##JCAMP-DX=4.24
##DATA TYPE=UV/VIS SPECTRUM
##ORIGIN=INSTITUTE OF ENERGY PROBLEMS OF CHEMICAL PHYSICS, RAS
##OWNER=INEP CP RAS, NIST OSRD
Collection (C) 2007 copyright by the U.S. Secretary of Commerce
on behalf of the United States of America. All rights reserved.
##CAS REGISTRY NO=135-20-6
##MOLFORM=C6H9N3O2
##MP=163.5
##SOURCE REFERENCE=RAS UV No. 8659
##$NIST SQUIB=1966BAR/SZO42B
##$NIST SOURCE=TSGMTE
##SPECTROMETER/DATA SYSTEM=Spectrophotometer SF-4
##XUNITS=Wavelength (nm)
##YUNITS=Logarithm epsilon
##XFACTOR=1.000000
##YFACTOR=1.000000
##FIRSTX=210.0607
##LASTX=494.6710
##FIRSTY=3.94
##MAXX=494.671
##MINX=210.061
##MAXY=4.01843
##MINY=0.491123
##NPOINTS=292
##$REF AUTHOR=Bartecki, A.; Szoke, J.; Varsanyi, G.; Visesy, M.
##$REF TITLE=Absorption spectra in the ultraviolet and visible region. Volume 3
##$REF PAGE=42
##$REF DATE=1966
##$REF PUBLISHER=Academic Press Inc.
##$REF LOCATION=New York
##XYPOINTS=(XY..XY)
210.0607,3.939997
210.9700,3.952029
211.0355,3.952995
211.1234,3.953738
211.2226,3.954035
211.6267,3.957043
211.6922,3.958045
211.7801,3.959048
211.8793,3.960051
213.2675,3.966958
214.6577,3.984116
215.4678,3.989835
216.2892,3.995109
216.4856,3.991246
217.1330,4.000159
218.5980,4.010187
218.6503,4.010187
218.7139,4.010187
218.8000,4.010187
219.1536,4.014197
219.9619,4.012192
219.9619,4.012192
220.4072,4.017651
221.4026,4.018431
222.0223,4.009198
222.9929,4.017206
223.3465,4.014197
223.5130,4.013901
223.7020,4.013158
223.9022,4.012192
223.9384,4.000573
225.7253,3.986851
227.3984,3.968569
228.3981,3.964062
228.5010,3.962019
228.6151,3.959754
228.7517,3.957043
228.9727,3.946260
230.4635,3.920461
231.0755,3.909915
231.2925,3.905867
231.5320,3.901597
231.7827,3.896880
231.8860,3.891706
232.2879,3.883844
232.4413,3.880799
232.6059,3.877531
232.7930,3.873817
233.0961,3.863790
233.1990,3.861748
233.2553,3.860529
233.3131,3.859483
233.4497,3.856771
233.8033,3.846744
234.0073,3.841434
234.2224,3.835677
234.4601,3.829698
234.5868,3.827467
235.3188,3.806635
235.4199,3.804593
235.5209,3.802328
235.6219,3.799616
235.8955,3.793054
237.1968,3.757825
237.8446,3.743464
237.9457,3.741422
238.0467,3.739157
238.1477,3.736445
238.5014,3.726418
238.5057,3.722315
238.6043,3.724376
238.7184,3.722111
238.8550,3.719399
239.8375,3.687061
241.2074,3.652594
242.1890,3.629155
242.5932,3.620093
242.6306,3.619454
242.9973,3.610809
243.4014,3.601079
244.0581,3.586038
244.1223,3.588172
244.1610,3.583996
244.2752,3.581731
244.4118,3.579019
245.6976,3.559285
247.3719,3.533327
247.5943,3.532894
247.6598,3.532598
247.7477,3.531854
247.8469,3.530889
248.6046,3.522867
248.9283,3.522050
249.1603,3.510835
249.2071,3.521679
249.6149,3.508829
249.6654,3.510538
249.7160,3.511800
249.7665,3.512840
249.7665,3.512840
249.9685,3.508829
249.9685,3.515848
250.7282,3.510538
250.7282,3.514845
251.4990,3.511800
251.4990,3.513843
252.2923,3.512840
252.2923,3.512840
252.4944,3.514845
252.6459,3.512840
253.8096,3.517557
254.6334,3.524565
254.9846,3.521827
256.1820,3.525875
256.7109,3.537168
258.7341,3.552320
260.7101,3.569687
262.6462,3.588932
264.5496,3.609720
266.4275,3.631718
267.5482,3.641188
267.9037,3.646201
268.2704,3.651215
268.2870,3.654588
268.6596,3.656228
270.1354,3.677995
271.9799,3.701606
273.8277,3.725085
275.6859,3.748095
276.4391,3.755497
276.5401,3.756203
276.6411,3.756463
276.7421,3.756500
277.5618,3.770302
277.9545,3.771540
278.0556,3.772506
278.1566,3.773249
278.2576,3.773546
279.4625,3.791372
281.3954,3.810968
283.3675,3.828755
285.3861,3.844399
287.4584,3.857563
288.0073,3.859779
289.5915,3.867913
290.1458,3.868433
291.6781,3.872852
291.7927,3.875115
301.7738,3.852061
303.1621,3.843736
303.2127,3.843736
303.2632,3.843736
303.3137,3.843736
304.1389,3.838596
306.4183,3.822637
308.2138,3.806635
308.2792,3.806598
308.3672,3.806339
308.4663,3.805633
308.6216,3.804047
310.7583,3.782696
312.8378,3.758447
313.9221,3.743464
314.0381,3.742165
314.1765,3.740419
314.3262,3.738451
314.8697,3.731166
316.8636,3.700720
318.8289,3.666974
327.9703,3.441471
329.2307,3.404386
330.4731,3.366895
331.6992,3.329031
335.2983,3.213561
336.4776,3.174561
337.6498,3.135366
338.8165,3.096009
341.1411,3.016954
342.3025,2.977326
343.4658,2.937678
344.6328,2.898043
345.8053,2.858460
346.9850,2.818961
348.1738,2.779583
349.3735,2.740361
350.5860,2.701328
351.8129,2.662522
353.0562,2.623977
354.3176,2.585727
355.5990,2.547809
356.9021,2.510258
358.2288,2.473108
359.5809,2.436395
360.9601,2.400153
362.3684,2.364419
363.8074,2.329227
365.2791,2.294612
366.7852,2.260610
368.3275,2.227255
369.9078,2.194584
371.5280,2.162630
373.1899,2.131430
374.8952,2.101018
374.8952,2.101018
376.8349,2.074352
378.8390,2.049634
385.1722,1.984874
387.3682,1.965651
407.5037,1.798820
409.4882,1.775757
411.4618,1.752097
413.4251,1.727866
415.3783,1.703089
417.3220,1.677797
419.2563,1.652013
421.1818,1.625766
423.0987,1.599080
425.0075,1.571985
426.9086,1.544505
428.8022,1.516666
430.6889,1.488499
432.5689,1.460025
434.4427,1.431274
436.3107,1.402273
438.1731,1.373046
438.1920,1.370039
438.2949,1.367997
438.4090,1.365731
438.5456,1.363019
440.0304,1.343623
441.8830,1.314027
443.7312,1.284289
456.5786,1.074304
458.4055,1.044367
460.2316,1.014525
462.0570,0.984806
465.7077,0.925838
467.5336,0.896642
469.3605,0.867680
469.3605,0.867680
471.0483,0.836565
472.7958,0.805576
474.5976,0.774772
476.4484,0.744223
478.3430,0.713994
478.9586,0.708251
479.0615,0.706206
479.1756,0.703936
479.3122,0.701231
479.6153,0.698222
479.7182,0.696173
479.8324,0.693912
479.9690,0.691196
480.2760,0.684136
481.4844,0.671145
481.6379,0.668097
481.8025,0.664830
481.9896,0.661121
482.2422,0.654725
482.8484,0.651094
482.9494,0.649091
483.0504,0.647080
483.1515,0.645078
484.2362,0.625827
485.8794,0.607980
486.0833,0.604928
486.2527,0.597487
486.2984,0.601658
486.5361,0.597947
487.5464,0.584908
488.0029,0.578891
488.2865,0.569783
488.4706,0.572883
488.9608,0.566862
490.2238,0.550815
490.3267,0.548819
490.3322,0.542788
490.4408,0.546814
490.5774,0.544800
490.9310,0.540792
491.0470,0.539753
491.1854,0.538486
491.3351,0.536786
491.7392,0.530763
492.0947,0.526456
492.3845,0.516535
492.4614,0.521700
492.8506,0.516734
494.1135,0.500689
494.3810,0.496639
494.4381,0.491123
494.6710,0.492369
##END=
