##TITLE=Benzenethiol, 2-methyl-
##JCAMP-DX=4.24
##DATA TYPE=UV/VIS SPECTRUM
##ORIGIN=INSTITUTE OF ENERGY PROBLEMS OF CHEMICAL PHYSICS, RAS
##OWNER=INEP CP RAS, NIST OSRD
Collection (C) 2007 copyright by the U.S. Secretary of Commerce
on behalf of the United States of America. All rights reserved.
##CAS REGISTRY NO=137-06-4
##MOLFORM=C7H8S
##BP=195
##SOURCE REFERENCE=RAS UV No. 16365
##$NIST SQUIB=1972ABU/HIL270
##$NIST SOURCE=TYUGLMTE
##SPECTROMETER/DATA SYSTEM=Beckman DK
##XUNITS=Wavelength (nm)
##YUNITS=Logarithm epsilon
##XFACTOR=1.0
##YFACTOR=1.0
##FIRSTX=232.95
##LASTX=322.81
##FIRSTY=4.011
##MAXX=322.81
##MINX=232.95
##MAXY=4.09
##MINY=2.875
##NPOINTS=160
##$REF AUTHOR=Abu-Eittah, R.H.; Hilal, R.H.
##$REF JOURNAL=Appl. Spectroscopy
##$REF VOLUME=26
##$REF PAGE=270
##$REF DATE=1972
##XYPOINTS=(XY..XY)
232.95,4.011
233.07,4.010
233.31,3.997
233.67,3.982
234.03,3.975
234.39,3.969
234.74,3.965
235.10,3.960
235.46,3.957
235.82,3.953
236.18,3.952
236.53,3.950
236.89,3.949
237.25,3.948
237.61,3.948
237.97,3.949
238.32,3.950
238.68,3.952
239.04,3.954
239.40,3.958
239.76,3.964
240.11,3.972
240.47,3.978
240.83,3.983
241.19,3.990
241.55,4.001
241.90,4.012
242.26,4.033
242.62,4.050
242.98,4.066
243.34,4.071
243.69,4.075
244.05,4.079
244.41,4.084
244.77,4.085
245.13,4.088
245.48,4.088
245.84,4.089
246.20,4.090
246.56,4.090
246.92,4.090
247.27,4.090
247.63,4.089
247.99,4.088
248.35,4.086
248.71,4.085
249.06,4.081
249.42,4.079
249.78,4.074
250.14,4.069
250.50,4.065
250.85,4.060
251.21,4.053
251.57,4.047
251.93,4.041
252.29,4.033
252.64,4.027
253.00,4.019
253.36,4.012
253.72,4.002
254.08,3.990
254.43,3.971
254.79,3.956
255.15,3.941
255.51,3.920
255.87,3.909
256.22,3.897
256.58,3.877
256.94,3.862
257.30,3.843
257.66,3.830
258.01,3.816
258.37,3.803
258.73,3.791
259.09,3.775
259.45,3.755
259.80,3.741
260.16,3.727
260.52,3.713
260.88,3.699
261.24,3.687
261.59,3.672
261.95,3.654
262.31,3.641
262.67,3.627
263.03,3.613
263.38,3.598
263.74,3.584
264.10,3.570
264.46,3.558
264.82,3.547
265.17,3.530
265.53,3.506
265.89,3.486
266.25,3.466
266.61,3.455
266.96,3.440
267.32,3.426
267.68,3.415
268.04,3.403
268.40,3.392
268.75,3.383
269.11,3.367
269.47,3.355
269.83,3.350
270.19,3.345
270.54,3.340
270.90,3.340
271.26,3.335
271.62,3.330
271.98,3.330
272.33,3.328
273.77,3.333
274.84,3.328
275.91,3.323
276.99,3.323
278.06,3.320
279.14,3.323
280.21,3.323
281.16,3.333
282.24,3.338
283.31,3.338
284.27,3.328
284.98,3.309
285.70,3.290
286.42,3.273
287.25,3.259
288.32,3.250
289.40,3.240
290.11,3.221
290.71,3.198
291.31,3.169
291.79,3.139
292.50,3.110
293.34,3.084
294.29,3.066
295.13,3.042
296.08,3.016
297.04,3.000
298.11,2.984
299.18,2.972
300.26,2.961
301.33,2.949
302.41,2.930
303.48,2.923
304.55,2.917
305.63,2.917
306.70,2.923
307.78,2.923
308.85,2.923
309.92,2.917
311.00,2.917
312.07,2.910
313.15,2.910
314.22,2.910
315.29,2.910
316.37,2.910
317.44,2.904
318.52,2.890
322.81,2.875
##END=
