##TITLE=Thiram
##JCAMP-DX=4.24
##DATA TYPE=UV/VIS SPECTRUM
##ORIGIN=INSTITUTE OF ENERGY PROBLEMS OF CHEMICAL PHYSICS, RAS
##OWNER=INEP CP RAS, NIST OSRD
Collection (C) 2007 copyright by the U.S. Secretary of Commerce
on behalf of the United States of America. All rights reserved.
##CAS REGISTRY NO=137-26-8
##MOLFORM=C6H12N2S4
##MP=155
##SOURCE REFERENCE=RAS UV No. 20162
##$NIST SQUIB=1969FIH/148
##$NIST SOURCE=TYUGLMTE
##SPECTROMETER/DATA SYSTEM=SF-4
##XUNITS=Wavelength (nm)
##YUNITS=Logarithm epsilon
##XFACTOR=1.0
##YFACTOR=1.0
##FIRSTX=208.16
##LASTX=332.79
##FIRSTY=4.365
##MAXX=332.79
##MINX=208.16
##MAXY=4.381
##MINY=2.651
##NPOINTS=115
##$REF AUTHOR=Fihtengolts, V.S.; et al.
##$REF JOURNAL=Atlas of UV Absorption Spectra of Substances Used in Synthetic Rubber Manufacture
##$REF PAGE=148
##$REF DATE=1969
##XYPOINTS=(XY..XY)
208.16,4.365
209.01,4.371
210.03,4.375
211.22,4.380
212.75,4.381
214.28,4.380
215.64,4.376
216.66,4.371
217.34,4.365
218.19,4.360
218.87,4.353
219.55,4.347
220.06,4.341
220.57,4.334
221.25,4.327
221.76,4.321
222.27,4.314
222.61,4.306
223.29,4.299
223.80,4.291
224.31,4.284
224.82,4.275
225.16,4.267
225.67,4.259
226.35,4.251
226.87,4.243
227.38,4.235
227.89,4.227
228.40,4.218
229.08,4.210
229.93,4.202
230.78,4.193
231.80,4.185
232.65,4.177
233.67,4.170
235.03,4.164
236.39,4.159
237.92,4.155
239.45,4.151
240.98,4.149
242.51,4.145
244.04,4.143
245.57,4.140
247.10,4.136
248.63,4.132
250.16,4.130
251.69,4.127
253.05,4.122
254.58,4.119
255.94,4.114
257.30,4.108
258.83,4.104
260.19,4.098
261.72,4.094
263.25,4.091
264.61,4.087
266.14,4.084
267.67,4.081
269.20,4.080
270.73,4.080
272.26,4.080
273.79,4.080
275.32,4.080
276.85,4.080
278.38,4.078
279.91,4.075
281.45,4.074
282.98,4.071
284.51,4.071
285.87,4.065
287.40,4.060
288.76,4.054
290.12,4.046
291.14,4.036
292.33,4.026
293.35,4.016
294.54,4.006
295.39,3.994
296.24,3.981
297.09,3.968
298.11,3.954
298.96,3.938
299.98,3.924
300.83,3.906
301.51,3.889
302.53,3.872
303.21,3.853
304.23,3.835
304.91,3.814
305.93,3.795
306.61,3.771
307.46,3.747
308.31,3.724
309.16,3.700
310.01,3.671
310.86,3.643
311.71,3.610
312.56,3.579
313.47,3.544
314.53,3.506
315.45,3.467
316.28,3.423
317.32,3.373
318.27,3.325
319.28,3.264
320.38,3.201
321.57,3.141
322.76,3.057
323.61,2.987
324.74,2.907
326.32,2.824
328.22,2.764
329.73,2.724
331.26,2.689
332.79,2.651
##END=
