##TITLE=2,5-Dimethyl-p-benzoquinone
##JCAMP-DX=4.24
##DATA TYPE=UV/VIS SPECTRUM
##ORIGIN=INSTITUTE OF ENERGY PROBLEMS OF CHEMICAL PHYSICS, RAS
##OWNER=INEP CP RAS, NIST OSRD
Collection (C) 2007 copyright by the U.S. Secretary of Commerce
on behalf of the United States of America. All rights reserved.
##CAS REGISTRY NO=137-18-8
##MOLFORM=C8H8O2
##MP=125
##SOURCE REFERENCE=RAS UV No. 1307
##$NIST SQUIB=1958CRA/REE3094-3103
##$NIST SOURCE=TSGMTE
##SPECTROMETER/DATA SYSTEM=Cary 11 MPS
##XUNITS=Wavelength (nm)
##YUNITS=Logarithm epsilon
##XFACTOR=1.000000
##YFACTOR=1.000000
##FIRSTX=214.7982
##LASTX=337.0631
##FIRSTY=3.39565
##MAXX=337.063
##MINX=214.798
##MAXY=4.26815
##MINY=2.23614
##NPOINTS=308
##$REF AUTHOR=Cram, D.J.; Reeves, R.A.
##$REF TITLE=Macro rings. XIV. Substitution studies in the [4.4]paracyclophane system
##$REF JOURNAL=J. Am. Chem. Soc.
##$REF VOLUME=80
##$REF PAGE=3094-3103
##$REF DATE=1958
##XYPOINTS=(XY..XY)
214.7982,3.395654
214.9690,3.397014
215.1446,3.398279
215.3300,3.399352
217.1721,3.421931
217.3196,3.424598
217.4672,3.427168
217.6150,3.429542
222.6016,3.528213
222.6846,3.531311
222.7675,3.534409
222.8504,3.537508
223.9789,3.569038
224.0626,3.572120
224.1512,3.575107
224.2495,3.577902
225.6560,3.609532
225.7034,3.611611
225.7604,3.613498
225.8223,3.615290
226.9507,3.646820
227.1448,3.652459
227.3486,3.657906
227.5572,3.663257
228.5986,3.696509
228.7097,3.699163
228.8303,3.701723
228.9559,3.704090
229.8918,3.735550
229.9180,3.737313
229.9538,3.739080
229.9943,3.740848
230.8462,3.770525
231.0137,3.775716
231.1862,3.780713
231.3682,3.785617
232.0737,3.811296
232.1792,3.813948
232.2896,3.816504
232.4096,3.818869
233.5351,3.853904
233.6188,3.857003
233.7073,3.860104
233.8053,3.863207
234.7413,3.894668
234.7675,3.896431
234.8032,3.898197
234.8437,3.899965
236.0529,3.937223
236.1640,3.939763
236.2848,3.942112
236.4105,3.944365
237.2609,3.975795
237.3705,3.980202
237.4896,3.984515
237.6137,3.988635
238.3879,4.009078
238.5350,4.012199
238.6821,4.015321
238.8292,4.018442
240.0369,4.057453
240.0995,4.059229
240.1622,4.061005
240.2249,4.062781
242.4912,4.114884
242.6598,4.118760
242.8334,4.122443
243.0166,4.126032
244.2385,4.148389
244.3495,4.151043
244.4702,4.153603
244.5957,4.155969
246.2574,4.189444
246.3419,4.190773
246.4264,4.192005
246.5111,4.193042
247.7544,4.215407
247.8599,4.218059
247.9702,4.220615
248.0903,4.222980
249.3369,4.241400
249.5056,4.245276
249.6791,4.248959
249.8623,4.252548
251.0902,4.267893
251.3255,4.267978
251.5608,4.268062
251.7960,4.268146
253.5744,4.265277
253.7256,4.263562
253.8770,4.261749
254.0284,4.259741
255.5613,4.243632
255.7333,4.243694
255.9099,4.243757
256.0961,4.243824
257.3461,4.233313
257.4328,4.232889
257.5244,4.232370
257.6256,4.231659
259.6655,4.223185
259.8167,4.221486
259.9680,4.219786
260.1192,4.218087
261.2945,4.194836
261.4107,4.191354
261.5366,4.187779
261.6674,4.184010
262.0561,4.154778
262.1068,4.153043
262.1669,4.151311
262.2318,4.149580
263.1601,4.114843
263.2122,4.111338
263.2739,4.107740
263.3406,4.103948
264.0745,4.071333
264.1277,4.066530
264.1905,4.061730
264.2580,4.056932
264.8242,4.020311
264.9150,4.015067
265.0107,4.009727
265.1161,4.004196
265.5948,3.969735
265.6481,3.964916
265.7109,3.960003
265.7787,3.954896
266.1734,3.918652
266.2255,3.915148
266.2872,3.911549
266.3539,3.907757
266.7456,3.875019
266.7962,3.873268
266.8564,3.871422
266.9215,3.869383
267.3241,3.823936
267.3773,3.819133
267.4401,3.814333
267.5076,3.809535
268.0768,3.769409
268.0787,3.767088
268.0809,3.764572
268.0831,3.761958
268.6523,3.721831
268.6553,3.718309
268.6584,3.714690
268.6617,3.710875
269.2305,3.671187
269.2335,3.667665
269.2366,3.664045
269.2398,3.660231
269.8060,3.623610
269.8090,3.620087
269.8121,3.616468
269.8154,3.612653
270.3906,3.565515
270.4154,3.562455
270.4449,3.559397
270.4840,3.556342
270.9661,3.517938
270.9918,3.513872
271.0224,3.509612
271.0625,3.505259
271.5413,3.470799
271.5454,3.465962
271.5496,3.461028
271.5540,3.455898
271.9210,3.427097
271.9893,3.422283
272.0577,3.417372
272.1262,3.412265
272.6950,3.372577
272.6980,3.369055
272.7011,3.365435
272.7044,3.361621
273.2769,3.317550
273.3295,3.313493
273.3918,3.309245
273.4589,3.304902
273.8521,3.270411
273.9073,3.263287
273.9722,3.255971
274.0419,3.248560
274.4336,3.215822
274.4880,3.209704
274.5519,3.203589
274.6205,3.197477
275.0122,3.164739
275.0628,3.163003
275.1229,3.161271
275.1878,3.159541
275.7585,3.117661
275.7841,3.113595
275.8147,3.109336
275.8549,3.104983
276.1595,3.073967
276.2128,3.069148
276.2756,3.064234
276.3434,3.059128
276.9122,3.019439
276.9648,3.015383
277.0271,3.011135
277.0942,3.006791
277.4878,2.971862
277.5403,2.967806
277.6026,2.963558
277.6697,2.959214
278.0663,2.920779
278.1564,2.915535
278.2465,2.910193
278.3368,2.904656
278.8190,2.866251
278.8220,2.862729
278.8251,2.859110
278.8283,2.855295
279.3941,2.819113
279.4493,2.811989
279.5142,2.804673
279.5840,2.797262
279.9697,2.771536
280.0229,2.766733
280.0857,2.761933
280.1532,2.757135
280.9055,2.728033
280.9934,2.725305
281.0815,2.722381
281.1697,2.719360
282.0094,2.688098
282.1206,2.684063
282.2368,2.679834
282.3625,2.675512
283.2841,2.648662
283.5246,2.642611
283.7652,2.636560
284.0057,2.630509
286.7326,2.569237
286.9064,2.567091
287.0850,2.564850
287.2733,2.562417
288.8966,2.540642
288.9826,2.540218
289.0686,2.539697
289.1548,2.538981
291.3996,2.516113
291.5508,2.514414
291.7020,2.512714
291.8532,2.511015
293.5543,2.498474
293.6410,2.498050
293.7326,2.497531
293.8338,2.496820
298.2175,2.474720
298.3253,2.474758
298.4378,2.474799
298.5598,2.474842
305.1729,2.447842
305.3448,2.447904
305.5215,2.447967
305.7077,2.448034
307.3179,2.441597
307.4898,2.441659
307.6665,2.441722
307.8526,2.441789
313.5674,2.414467
313.6807,2.414508
313.8035,2.414552
313.9310,2.414597
315.5383,2.411667
315.6515,2.411707
315.7743,2.411751
315.9019,2.411797
317.8577,2.401539
318.0078,2.401138
318.1580,2.400640
318.3084,2.399947
322.1548,2.380722
322.4137,2.379062
322.6774,2.377403
322.9507,2.375747
324.6727,2.363652
324.8078,2.363245
324.9524,2.362745
325.1020,2.362052
326.8030,2.349511
327.0034,2.347829
327.2132,2.346151
327.4278,2.344474
328.9607,2.328365
329.0475,2.327942
329.1390,2.327423
329.2403,2.326712
330.9473,2.307159
331.0621,2.305446
331.1864,2.303737
331.3154,2.302030
332.9125,2.285944
333.0277,2.283778
333.1524,2.281517
333.2821,2.279063
334.7280,2.264676
334.9292,2.261988
335.1400,2.259109
335.3557,2.256134
336.6931,2.243462
336.8084,2.241182
336.9334,2.238710
337.0631,2.236142
##END=
