##TITLE=Benzenamine, 2,4,5-trimethyl-
##JCAMP-DX=4.24
##DATA TYPE=UV/VIS SPECTRUM
##ORIGIN=INSTITUTE OF ENERGY PROBLEMS OF CHEMICAL PHYSICS, RAS
##OWNER=INEP CP RAS, NIST OSRD
Collection (C) 2007 copyright by the U.S. Secretary of Commerce
on behalf of the United States of America. All rights reserved.
##CAS REGISTRY NO=137-17-7
##MOLFORM=C9H13N
##MP=67-68
##SOURCE REFERENCE=RAS UV No. 18998
##$NIST SQUIB=1972LAN211
##$NIST SOURCE=TYUGLMTE
##SPECTROMETER/DATA SYSTEM=Unicam SP 800
##XUNITS=Wavelength (nm)
##YUNITS=Logarithm epsilon
##XFACTOR=1.0
##YFACTOR=1.0
##FIRSTX=212.23
##LASTX=327.07
##FIRSTY=3.508
##MAXX=327.07
##MINX=212.23
##MAXY=3.761
##MINY=1.294
##NPOINTS=163
##$REF AUTHOR=Lang (editor), L.
##$REF JOURNAL=Absorption Spectra in the Ultraviolet and Visible Region
##$REF VOLUME=16
##$REF PAGE=211
##$REF DATE=1972
##XYPOINTS=(XY..XY)
212.23,3.508
213.59,3.522
214.95,3.535
216.31,3.552
217.67,3.565
219.03,3.579
220.22,3.596
221.58,3.613
222.93,3.630
224.12,3.646
225.31,3.663
226.50,3.680
227.69,3.697
229.05,3.711
230.41,3.724
231.77,3.738
233.13,3.748
234.49,3.758
236.02,3.761
237.54,3.761
239.07,3.755
240.43,3.738
241.45,3.717
242.30,3.694
243.15,3.670
243.83,3.643
244.51,3.616
245.02,3.589
245.53,3.562
246.04,3.532
246.38,3.501
246.89,3.474
247.40,3.447
247.91,3.417
248.42,3.387
248.93,3.356
249.44,3.326
249.78,3.295
250.12,3.265
250.62,3.238
251.13,3.208
251.64,3.177
252.15,3.150
252.49,3.120
253.00,3.093
253.34,3.063
253.85,3.032
254.36,3.002
254.87,2.975
255.21,2.944
255.72,2.917
256.23,2.890
256.74,2.860
257.08,2.830
257.59,2.799
258.10,2.769
258.61,2.742
259.12,2.715
259.97,2.688
260.99,2.668
262.35,2.651
263.71,2.661
264.89,2.681
265.91,2.705
266.76,2.728
267.78,2.752
268.46,2.779
269.14,2.806
269.99,2.833
270.67,2.860
271.18,2.887
272.03,2.914
272.54,2.941
273.22,2.968
274.07,2.992
274.75,3.019
275.43,3.046
276.28,3.073
277.13,3.100
277.98,3.127
279.00,3.150
279.84,3.177
280.86,3.198
281.88,3.221
282.90,3.241
284.09,3.262
285.45,3.275
286.64,3.292
288.00,3.302
289.53,3.306
291.06,3.309
292.42,3.299
293.77,3.285
294.96,3.268
295.81,3.245
296.83,3.221
297.85,3.201
298.70,3.174
299.55,3.150
300.40,3.127
301.08,3.100
301.93,3.076
302.44,3.049
303.12,3.022
303.97,2.995
304.48,2.968
304.99,2.941
305.67,2.914
306.18,2.887
306.86,2.860
307.20,2.830
307.71,2.799
308.05,2.769
308.72,2.742
309.06,2.712
309.57,2.685
309.91,2.654
310.25,2.624
310.59,2.593
310.93,2.563
311.27,2.533
311.61,2.502
311.95,2.472
312.29,2.441
312.80,2.414
312.97,2.384
313.31,2.354
313.65,2.323
313.99,2.293
314.33,2.263
314.84,2.236
315.18,2.205
315.52,2.175
315.69,2.144
316.03,2.114
316.54,2.087
316.88,2.057
317.22,2.026
317.73,1.996
318.07,1.966
318.24,1.935
318.58,1.905
318.92,1.874
319.43,1.847
319.77,1.817
320.11,1.787
320.45,1.756
320.96,1.729
321.13,1.699
321.47,1.669
321.98,1.642
322.48,1.611
322.82,1.581
323.33,1.554
323.67,1.523
324.01,1.493
324.35,1.463
324.86,1.436
325.37,1.409
325.71,1.378
326.22,1.351
326.73,1.324
327.07,1.294
##END=
