##TITLE=Lidocaine hydrochloride
##JCAMP-DX=4.24
##DATA TYPE=UV/VIS SPECTRUM
##ORIGIN=INSTITUTE OF ENERGY PROBLEMS OF CHEMICAL PHYSICS, RAS
##OWNER=INEP CP RAS, NIST OSRD
Collection (C) 2007 copyright by the U.S. Secretary of Commerce
on behalf of the United States of America. All rights reserved.
##CAS REGISTRY NO=137-58-6
##MOLFORM=C14H22N2O
##MP=76-79
##SOURCE REFERENCE=RAS UV No. 19637
##$NIST SQUIB=1965LAN137
##$NIST SOURCE=TYUGLMTE
##SPECTROMETER/DATA SYSTEM=Hilger Uvispek
##XUNITS=Wavelength (nm)
##YUNITS=Logarithm epsilon
##XFACTOR=1.0
##YFACTOR=1.0
##FIRSTX=205.25
##LASTX=279.77
##FIRSTY=4.289
##MAXX=279.77
##MINX=205.25
##MAXY=4.289
##MINY=1.586
##NPOINTS=114
##$REF AUTHOR=Lang (editor), L.
##$REF JOURNAL=Absorption Spectra in the Ultraviolet and Visible Region
##$REF VOLUME=5
##$REF PAGE=137
##$REF DATE=1965
##XYPOINTS=(XY..XY)
205.25,4.289
205.45,4.285
205.73,4.278
206.16,4.270
206.62,4.260
207.27,4.247
207.96,4.238
208.64,4.224
209.32,4.210
209.99,4.193
210.67,4.180
211.35,4.166
212.03,4.149
212.70,4.129
213.38,4.112
214.06,4.095
214.74,4.078
215.41,4.057
216.09,4.033
216.77,4.016
217.45,3.989
218.12,3.962
218.80,3.938
219.48,3.914
220.15,3.887
220.83,3.860
221.51,3.829
222.19,3.798
222.86,3.775
223.54,3.751
224.22,3.737
224.90,3.717
225.57,3.700
226.25,3.683
226.93,3.669
227.61,3.649
228.28,3.632
228.96,3.611
229.64,3.587
230.32,3.570
230.99,3.550
231.67,3.526
232.35,3.506
233.03,3.485
233.70,3.461
234.38,3.438
235.06,3.417
235.74,3.390
236.41,3.366
237.09,3.335
237.77,3.305
238.45,3.264
239.12,3.230
239.80,3.192
240.48,3.158
241.16,3.135
241.83,3.111
242.51,3.084
243.19,3.053
243.87,3.026
244.54,2.998
245.22,2.968
245.90,2.941
246.58,2.910
247.25,2.883
247.93,2.852
248.61,2.825
249.29,2.794
249.96,2.760
250.64,2.726
251.32,2.696
252.00,2.672
252.67,2.648
253.35,2.631
254.03,2.614
254.71,2.597
255.35,2.587
255.98,2.578
256.62,2.570
257.42,2.559
258.09,2.553
258.77,2.549
259.45,2.549
260.13,2.549
260.80,2.549
261.48,2.549
262.10,2.551
262.81,2.555
263.51,2.559
264.19,2.563
264.87,2.563
265.55,2.556
266.22,2.549
266.90,2.539
267.58,2.525
268.26,2.512
268.93,2.488
269.61,2.464
270.29,2.444
270.97,2.427
271.63,2.423
272.32,2.430
272.69,2.437
273.00,2.427
273.68,2.372
274.35,2.311
275.03,2.222
275.71,2.127
276.39,2.059
276.94,1.997
277.74,1.892
278.42,1.787
279.10,1.685
279.77,1.586
##END=
