##TITLE=N-(3-amino-1,4-dihydro-1,4-dioxo-2-naphthalenyl)acetamide
##JCAMP-DX=4.24
##DATA TYPE=UV/VIS SPECTRUM
##ORIGIN=INSTITUTE OF ENERGY PROBLEMS OF CHEMICAL PHYSICS, RAS
##OWNER=INEP CP RAS, NIST OSRD
Collection (C) 2007 copyright by the U.S. Secretary of Commerce
on behalf of the United States of America. All rights reserved.
##CAS REGISTRY NO=13755-96-9
##MOLFORM=C12H10N2O3
##MP=229-233
##SOURCE REFERENCE=RAS UV No. 22250
##$NIST SQUIB=1978LOS/172
##$NIST SOURCE=TYUGLMTE
##SPECTROMETER/DATA SYSTEM=SF-16
##XUNITS=Wavelength (nm)
##YUNITS=Logarithm epsilon
##XFACTOR=1.0
##YFACTOR=1.0
##FIRSTX=213.153
##LASTX=552.51
##FIRSTY=4.189
##MAXX=552.51
##MINX=213.153
##MAXY=4.354
##MINY=2.352
##NPOINTS=183
##$REF AUTHOR=Loskutov, V.A.; et al.
##$REF JOURNAL=Zhur. Organ. Khim.
##$REF VOLUME=14
##$REF PAGE=172
##$REF DATE=1978
##XYPOINTS=(XY..XY)
213.153,4.189
213.223,4.189
215.223,4.184
217.223,4.176
219.223,4.168
221.223,4.161
223.223,4.155
225.223,4.147
225.961,4.144
227.961,4.136
229.114,4.136
230.097,4.139
231.047,4.144
232.097,4.147
234.097,4.143
235.341,4.134
236.200,4.126
238.200,4.109
240.200,4.097
242.200,4.090
244.200,4.091
246.200,4.101
248.200,4.122
251.401,4.175
253.401,4.212
255.401,4.245
257.401,4.276
259.401,4.302
261.401,4.324
263.401,4.339
265.401,4.350
267.401,4.354
269.401,4.354
271.401,4.347
273.401,4.336
275.401,4.320
275.437,4.319
277.437,4.299
279.437,4.279
281.437,4.261
283.437,4.245
285.437,4.230
287.437,4.213
289.437,4.192
291.437,4.164
293.437,4.126
295.437,4.078
297.420,4.023
299.164,3.962
300.164,3.933
301.164,3.895
302.164,3.851
303.164,3.802
304.164,3.750
305.164,3.696
306.164,3.643
307.164,3.591
308.164,3.542
309.164,3.497
310.164,3.458
310.243,3.456
312.243,3.398
314.243,3.372
316.243,3.360
318.243,3.353
320.243,3.348
322.243,3.345
324.243,3.345
326.243,3.346
326.272,3.346
328.272,3.341
330.272,3.337
332.272,3.329
334.272,3.317
336.272,3.299
338.272,3.275
340.272,3.245
342.272,3.209
344.272,3.168
346.272,3.121
348.272,3.069
350.255,3.007
352.255,2.946
354.255,2.893
356.255,2.851
358.255,2.819
360.255,2.799
362.255,2.789
364.255,2.788
366.255,2.795
368.255,2.808
370.255,2.825
372.255,2.845
374.255,2.866
376.255,2.887
378.255,2.907
380.255,2.925
382.255,2.944
384.255,2.962
386.255,2.983
388.510,3.008
390.510,3.028
392.510,3.047
394.510,3.067
396.510,3.086
398.510,3.105
400.510,3.124
402.510,3.142
404.510,3.160
406.510,3.178
408.510,3.195
410.510,3.211
412.510,3.227
414.510,3.242
416.510,3.257
418.510,3.271
420.510,3.284
422.510,3.297
424.510,3.309
426.510,3.320
428.510,3.330
430.510,3.340
432.510,3.349
434.510,3.356
436.510,3.363
438.510,3.370
440.510,3.375
442.510,3.379
444.510,3.382
446.510,3.385
448.510,3.386
450.510,3.387
452.510,3.386
454.510,3.385
456.510,3.383
458.510,3.379
460.510,3.375
462.510,3.370
464.510,3.364
466.510,3.357
468.510,3.348
470.510,3.339
472.510,3.329
474.510,3.318
476.510,3.307
478.510,3.294
480.510,3.280
482.510,3.266
484.510,3.250
486.510,3.234
488.510,3.217
490.510,3.199
492.510,3.180
494.510,3.161
496.510,3.141
498.510,3.120
500.510,3.098
502.510,3.076
504.510,3.053
506.510,3.029
508.510,3.005
510.510,2.980
512.510,2.955
514.510,2.929
516.510,2.903
518.510,2.876
520.510,2.848
522.510,2.820
524.510,2.792
526.510,2.763
528.510,2.734
530.510,2.704
532.510,2.674
534.510,2.643
536.510,2.612
538.510,2.581
540.510,2.549
542.510,2.517
544.510,2.485
546.510,2.452
548.510,2.419
550.510,2.386
552.510,2.352
##END=
