##TITLE=Benzene, 1-methyl-2-(phenylthio)-
##JCAMP-DX=4.24
##DATA TYPE=UV/VIS SPECTRUM
##ORIGIN=INSTITUTE OF ENERGY PROBLEMS OF CHEMICAL PHYSICS, RAS
##OWNER=INEP CP RAS, NIST OSRD
Collection (C) 2007 copyright by the U.S. Secretary of Commerce
on behalf of the United States of America. All rights reserved.
##CAS REGISTRY NO=13963-35-4
##MOLFORM=C13H12S
##BP=164/ 12 mm
##SOURCE REFERENCE=RAS UV No. 20129
##$NIST SQUIB=1969BOL/115
##$NIST SOURCE=TYUGLMTE
##SPECTROMETER/DATA SYSTEM=unknown
##XUNITS=Wavelength (nm)
##YUNITS=Logarithm epsilon
##XFACTOR=1.0
##YFACTOR=1.0
##FIRSTX=224.44
##LASTX=322.76
##FIRSTY=3.875
##MAXX=322.76
##MINX=224.44
##MAXY=3.88
##MINY=1.839
##NPOINTS=125
##$REF AUTHOR=Bol'shakov, G.F.; et al.
##$REF JOURNAL=Ultraviolet spectra of heteroorganic compounds
##$REF PAGE=115
##$REF DATE=1969
##XYPOINTS=(XY..XY)
224.44,3.875
225.35,3.850
226.40,3.835
227.44,3.810
228.49,3.790
229.29,3.779
230.36,3.769
231.46,3.760
232.95,3.751
234.23,3.750
235.41,3.755
236.58,3.765
237.63,3.780
238.67,3.795
239.72,3.810
240.87,3.827
241.94,3.840
243.03,3.853
244.16,3.862
245.33,3.870
246.51,3.875
247.68,3.880
248.86,3.880
250.03,3.880
251.11,3.875
252.38,3.865
253.56,3.855
254.77,3.842
255.78,3.825
256.82,3.800
257.74,3.770
258.65,3.745
259.30,3.706
260.22,3.676
261.13,3.646
262.05,3.616
262.96,3.591
264.00,3.571
265.18,3.556
266.22,3.536
267.40,3.531
268.57,3.521
269.75,3.531
270.92,3.541
272.10,3.546
273.27,3.551
274.45,3.551
275.62,3.551
276.80,3.546
277.98,3.546
279.15,3.541
280.33,3.541
281.50,3.531
282.68,3.521
283.85,3.516
285.03,3.501
286.20,3.486
287.25,3.466
288.29,3.446
289.34,3.421
290.38,3.401
291.42,3.376
292.47,3.351
293.51,3.326
294.43,3.296
295.34,3.266
296.13,3.236
296.91,3.206
297.69,3.176
298.47,3.145
299.26,3.112
300.04,3.077
300.79,3.042
301.47,3.010
302.14,2.977
302.80,2.942
303.44,2.907
304.03,2.873
304.74,2.832
305.29,2.797
305.85,2.759
306.42,2.717
306.96,2.677
307.44,2.638
307.81,2.603
308.28,2.562
308.80,2.519
309.14,2.489
309.44,2.458
309.81,2.419
310.23,2.368
310.62,2.318
311.01,2.273
311.16,2.244
311.40,2.203
311.60,2.172
311.79,2.148
312.14,2.125
312.58,2.118
312.97,2.113
313.36,2.108
313.75,2.098
314.14,2.088
314.54,2.076
314.93,2.058
315.32,2.028
315.71,2.003
316.10,1.978
316.49,1.963
316.89,1.949
317.28,1.939
317.67,1.924
318.06,1.919
318.45,1.909
318.85,1.904
319.24,1.904
319.63,1.899
320.02,1.894
320.41,1.884
320.80,1.884
321.20,1.879
321.59,1.874
321.98,1.869
322.37,1.854
322.76,1.839
##END=
