##TITLE=3,4-Dihydroxybenzaldehyde
##JCAMP-DX=4.24
##DATA TYPE=UV/VIS SPECTRUM
##ORIGIN=INSTITUTE OF ENERGY PROBLEMS OF CHEMICAL PHYSICS, RAS
##OWNER=INEP CP RAS, NIST OSRD
Collection (C) 2007 copyright by the U.S. Secretary of Commerce
on behalf of the United States of America. All rights reserved.
##CAS REGISTRY NO=139-85-5
##MOLFORM=C7H6O3
##MP=154
##SOURCE REFERENCE=RAS UV No. 19148
##$NIST SQUIB=1967LAN71
##$NIST SOURCE=TYUGLMTE
##SPECTROMETER/DATA SYSTEM=Beckman DU
##XUNITS=Wavelength (nm)
##YUNITS=Logarithm epsilon
##XFACTOR=1.0
##YFACTOR=1.0
##FIRSTX=209.27
##LASTX=386.8
##FIRSTY=4.083
##MAXX=386.8
##MINX=209.27
##MAXY=4.107
##MINY=0.944
##NPOINTS=178
##$REF AUTHOR=Lang (editor), L.
##$REF JOURNAL=Absorption Spectra in the Ultraviolet and Visible Region
##$REF VOLUME=9
##$REF PAGE=71
##$REF DATE=1967
##XYPOINTS=(XY..XY)
209.27,4.083
209.48,4.087
210.18,4.093
211.02,4.096
211.83,4.095
212.52,4.090
213.31,4.080
214.21,4.059
215.23,4.025
216.20,3.976
217.26,3.906
218.27,3.851
219.29,3.817
220.30,3.800
221.32,3.800
222.33,3.810
223.35,3.838
224.36,3.872
225.38,3.903
226.40,3.937
227.41,3.967
228.43,3.998
229.44,4.022
230.46,4.049
231.47,4.070
232.49,4.087
233.50,4.100
234.52,4.107
235.53,4.107
236.55,4.100
237.56,4.090
238.58,4.070
239.59,4.046
240.61,3.998
241.62,3.926
242.64,3.855
243.65,3.773
244.67,3.691
245.68,3.606
246.70,3.517
247.71,3.419
248.73,3.333
249.74,3.252
250.76,3.180
251.78,3.153
252.79,3.156
253.81,3.180
254.82,3.207
255.84,3.248
256.85,3.289
257.87,3.344
258.88,3.405
259.90,3.446
260.91,3.490
261.93,3.531
262.94,3.562
263.96,3.592
264.97,3.630
265.99,3.664
267.00,3.695
268.02,3.725
269.03,3.756
270.05,3.787
271.06,3.814
272.08,3.838
273.09,3.858
274.11,3.882
275.12,3.903
276.14,3.920
277.16,3.933
278.17,3.943
279.19,3.954
280.20,3.960
281.22,3.967
282.23,3.967
283.25,3.964
284.26,3.957
285.28,3.950
286.29,3.940
287.31,3.933
288.32,3.923
289.34,3.906
290.35,3.896
291.37,3.879
292.38,3.868
293.40,3.855
294.41,3.848
295.43,3.838
296.44,3.831
297.46,3.824
298.47,3.821
299.49,3.821
300.50,3.821
301.52,3.824
302.53,3.831
303.55,3.834
304.57,3.841
305.58,3.851
306.60,3.858
307.61,3.868
308.63,3.879
309.64,3.885
310.66,3.896
311.67,3.903
312.69,3.913
313.70,3.920
314.72,3.923
315.73,3.926
316.75,3.923
317.76,3.920
318.78,3.913
319.79,3.906
320.81,3.899
321.82,3.889
322.84,3.872
323.85,3.851
324.87,3.834
325.88,3.817
326.90,3.790
327.91,3.770
328.93,3.749
329.95,3.722
330.96,3.695
331.98,3.667
332.99,3.633
334.01,3.599
335.02,3.569
336.04,3.528
337.05,3.490
338.07,3.453
339.08,3.408
340.10,3.371
341.11,3.320
342.13,3.269
343.14,3.214
344.16,3.153
345.17,3.078
346.19,2.996
347.20,2.924
348.22,2.853
349.23,2.788
350.25,2.727
351.26,2.669
352.28,2.614
353.29,2.556
354.31,2.505
355.33,2.457
356.34,2.406
357.36,2.359
358.37,2.321
359.39,2.284
360.40,2.249
361.42,2.215
362.43,2.192
363.45,2.175
364.46,2.140
365.48,2.106
366.49,2.069
367.51,2.035
368.52,2.001
369.54,1.963
370.55,1.926
371.57,1.892
372.58,1.851
373.60,1.813
374.61,1.772
375.63,1.728
376.64,1.677
377.66,1.626
378.67,1.571
379.69,1.506
380.71,1.442
381.72,1.374
382.74,1.305
383.75,1.224
384.77,1.138
385.78,1.043
386.80,0.944
##END=
