##TITLE=Bis(dibutyldithiocarbamate)nickel complex
##JCAMP-DX=4.24
##DATA TYPE=UV/VIS SPECTRUM
##ORIGIN=INSTITUTE OF ENERGY PROBLEMS OF CHEMICAL PHYSICS, RAS
##OWNER=INEP CP RAS, NIST OSRD
Collection (C) 2007 copyright by the U.S. Secretary of Commerce
on behalf of the United States of America. All rights reserved.
##CAS REGISTRY NO=13927-77-0
##MOLFORM=C18H36N2NiS4
##MP=90
##SOURCE REFERENCE=RAS UV No. 20169
##$NIST SQUIB=1969FIH/167
##$NIST SOURCE=TYUGLMTE
##SPECTROMETER/DATA SYSTEM=SF-4
##XUNITS=Wavelength (nm)
##YUNITS=Logarithm epsilon
##XFACTOR=1.0
##YFACTOR=1.0
##FIRSTX=229.89
##LASTX=434.36
##FIRSTY=4.298
##MAXX=434.36
##MINX=229.89
##MAXY=4.536
##MINY=2.719
##NPOINTS=154
##$REF AUTHOR=Fihtengolts, V.S.; et al.
##$REF JOURNAL=Atlas of UV Absorption Spectra of Substances Used in Synthetic Rubber Manufacture
##$REF PAGE=167
##$REF DATE=1969
##XYPOINTS=(XY..XY)
229.89,4.298
230.23,4.306
231.93,4.358
233.64,4.401
235.34,4.435
237.05,4.466
238.75,4.491
240.45,4.510
242.16,4.526
243.86,4.536
245.57,4.536
247.27,4.529
248.98,4.511
250.68,4.489
252.39,4.459
254.09,4.423
255.80,4.386
257.50,4.344
259.20,4.280
260.73,4.226
262.24,4.166
263.68,4.102
264.96,4.046
266.10,3.992
267.02,3.953
267.71,3.921
268.24,3.894
268.92,3.859
269.58,3.826
270.24,3.791
270.80,3.762
271.37,3.722
272.14,3.671
273.10,3.615
274.22,3.537
275.57,3.458
276.64,3.413
277.61,3.372
278.97,3.346
280.68,3.329
282.24,3.346
283.41,3.372
284.68,3.407
285.80,3.447
287.16,3.530
288.52,3.599
289.89,3.659
291.25,3.712
291.93,3.765
293.30,3.807
294.32,3.849
295.34,3.888
296.02,3.924
297.05,3.957
297.73,3.988
298.41,4.016
298.75,4.043
299.77,4.068
300.45,4.092
301.14,4.115
301.82,4.137
302.50,4.157
303.18,4.177
303.86,4.195
304.55,4.213
305.23,4.231
305.91,4.247
306.59,4.263
307.61,4.279
308.30,4.294
308.64,4.308
309.66,4.322
310.34,4.335
311.02,4.348
311.70,4.361
312.39,4.374
313.07,4.386
313.75,4.397
314.43,4.409
314.77,4.420
315.80,4.431
316.48,4.441
317.16,4.451
318.18,4.461
319.20,4.471
319.89,4.481
320.91,4.490
322.61,4.498
323.98,4.507
326.70,4.510
329.43,4.508
331.14,4.501
332.50,4.492
333.52,4.484
334.55,4.474
335.20,4.469
335.93,4.460
336.61,4.451
337.42,4.440
338.06,4.432
338.67,4.421
339.83,4.404
341.45,4.376
343.11,4.346
344.73,4.311
346.82,4.260
348.52,4.213
350.23,4.148
351.93,4.082
353.64,4.013
354.96,3.947
356.40,3.869
357.17,3.836
358.28,3.777
359.14,3.729
360.11,3.673
361.48,3.615
363.18,3.557
365.57,3.501
366.76,3.477
368.30,3.458
369.92,3.459
371.36,3.469
374.09,3.520
376.48,3.566
378.86,3.615
381.25,3.659
383.98,3.693
387.05,3.706
390.11,3.693
392.84,3.659
395.57,3.623
397.95,3.575
400.34,3.520
402.73,3.458
405.11,3.386
407.50,3.298
409.89,3.189
412.27,3.071
414.60,2.976
416.27,2.912
418.07,2.867
419.13,2.868
420.03,2.880
421.14,2.908
422.55,2.960
423.86,3.013
425.08,3.035
426.93,3.043
428.50,3.033
430.00,3.013
431.31,2.928
432.73,2.821
434.36,2.719
##END=
