##TITLE=3-Penten-2-one, 4-methyl-
##JCAMP-DX=4.24
##DATA TYPE=UV/VIS SPECTRUM
##ORIGIN=INSTITUTE OF ENERGY PROBLEMS OF CHEMICAL PHYSICS, RAS
##OWNER=INEP CP RAS, NIST OSRD
Collection (C) 2007 copyright by the U.S. Secretary of Commerce
on behalf of the United States of America. All rights reserved.
##CAS REGISTRY NO=141-79-7
##MOLFORM=C6H10O
##BP=130-131
##SOURCE REFERENCE=RAS UV No. 19939
##$NIST SQUIB=1966TIMb3/2
##$NIST SOURCE=TYUGLMTE
##SPECTROMETER/DATA SYSTEM=Unicam SP 700
##XUNITS=Wavelength (nm)
##YUNITS=Logarithm epsilon
##XFACTOR=1.0
##YFACTOR=1.0
##FIRSTX=204.01
##LASTX=350.38
##FIRSTY=2.821
##MAXX=350.38
##MINX=204.01
##MAXY=4.108
##MINY=1.281
##NPOINTS=214
##$REF AUTHOR=Timmons, C.J.
##$REF JOURNAL=UV atlas of organic compounds
##$REF VOLUME=1
##$REF PAGE=B 3/2
##$REF DATE=1966
##XYPOINTS=(XY..XY)
204.01,2.821
204.10,2.840
204.28,2.859
204.45,2.878
204.54,2.898
204.72,2.917
204.90,2.936
204.99,2.955
205.17,2.975
205.36,2.994
205.54,3.013
205.72,3.032
205.99,3.052
206.17,3.071
206.35,3.090
206.63,3.109
206.81,3.129
207.00,3.148
207.27,3.167
207.46,3.186
207.73,3.206
207.92,3.225
208.20,3.244
208.48,3.263
208.76,3.283
208.94,3.302
209.22,3.321
209.51,3.340
209.79,3.360
210.07,3.377
210.36,3.394
210.74,3.411
211.12,3.428
211.41,3.447
211.69,3.464
212.08,3.482
212.37,3.501
212.76,3.518
213.14,3.535
213.54,3.552
213.83,3.569
214.22,3.586
214.62,3.603
214.91,3.621
215.41,3.638
215.81,3.655
216.11,3.672
216.61,3.687
217.11,3.704
217.42,3.721
217.93,3.738
218.44,3.755
218.95,3.772
219.46,3.790
219.88,3.807
220.40,3.824
220.92,3.841
221.34,3.858
221.87,3.875
222.39,3.890
222.82,3.907
223.46,3.922
224.00,3.939
224.54,3.954
225.08,3.971
225.62,3.986
226.17,4.003
226.83,4.016
227.38,4.031
228.05,4.044
228.83,4.055
229.62,4.065
230.41,4.076
231.33,4.087
232.25,4.095
233.30,4.100
234.23,4.106
235.30,4.106
236.37,4.108
237.45,4.106
238.55,4.102
239.65,4.095
240.64,4.087
241.64,4.076
242.64,4.065
243.53,4.055
245.97,4.003
246.10,3.999
246.23,3.997
246.36,3.995
246.49,3.991
246.62,3.988
246.75,3.984
246.88,3.982
247.01,3.978
247.14,3.976
247.27,3.971
247.40,3.969
247.54,3.967
247.67,3.963
247.80,3.961
247.93,3.956
248.06,3.954
248.19,3.950
248.59,3.946
249.26,3.922
249.92,3.903
250.60,3.877
251.27,3.856
251.95,3.826
252.63,3.796
253.32,3.772
254.01,3.732
254.70,3.700
255.40,3.668
256.10,3.629
256.80,3.586
257.51,3.550
258.23,3.505
258.94,3.458
259.66,3.409
260.39,3.345
261.12,3.293
261.85,3.229
262.59,3.167
263.33,3.088
264.08,2.977
264.83,2.900
265.58,2.812
266.34,2.739
267.10,2.639
267.87,2.562
268.64,2.481
269.41,2.380
270.20,2.269
270.98,2.183
271.77,2.091
272.56,1.989
273.36,1.888
274.17,1.813
274.97,1.743
275.79,1.685
276.61,1.630
277.43,1.567
278.26,1.523
279.09,1.484
279.93,1.450
280.77,1.424
281.62,1.411
282.47,1.414
283.33,1.426
284.19,1.439
285.06,1.458
285.93,1.478
286.81,1.493
287.70,1.512
288.59,1.527
289.48,1.542
290.38,1.559
291.29,1.574
292.20,1.591
293.12,1.606
294.04,1.617
294.97,1.630
295.91,1.644
296.85,1.657
297.80,1.668
298.75,1.679
299.71,1.689
300.68,1.700
301.65,1.711
302.63,1.719
303.62,1.730
304.61,1.734
305.61,1.741
306.61,1.749
307.62,1.754
308.64,1.760
309.66,1.762
310.70,1.769
311.73,1.771
312.78,1.773
313.83,1.771
314.89,1.771
315.96,1.771
317.03,1.769
318.11,1.769
319.20,1.762
320.30,1.760
321.40,1.756
322.51,1.749
323.63,1.743
324.76,1.739
325.89,1.728
327.04,1.719
328.19,1.711
329.34,1.700
330.51,1.689
331.69,1.677
332.87,1.666
334.06,1.653
335.26,1.634
336.47,1.615
337.69,1.595
338.92,1.574
340.15,1.553
341.40,1.529
342.65,1.501
343.92,1.471
345.19,1.437
346.47,1.403
347.76,1.364
349.06,1.328
350.38,1.281
##END=
