##TITLE=2H-Pyran, tetrahydro-
##JCAMP-DX=4.24
##DATA TYPE=UV/VIS SPECTRUM
##ORIGIN=INSTITUTE OF ENERGY PROBLEMS OF CHEMICAL PHYSICS, RAS
##OWNER=INEP CP RAS, NIST OSRD
Collection (C) 2007 copyright by the U.S. Secretary of Commerce
on behalf of the United States of America. All rights reserved.
##CAS REGISTRY NO=142-68-7
##MOLFORM=C5H10O
##MP=-45
##BP=88
##SOURCE REFERENCE=RAS UV No. 4887
##$NIST SQUIB=1951PIC/HOE4865-4869
##$NIST SOURCE=TSGMTE
##SPECTROMETER/DATA SYSTEM=Hilger fluorite prism spectrograph
##XUNITS=Wavelength (nm)
##YUNITS=Logarithm epsilon
##XFACTOR=1.000000
##YFACTOR=1.000000
##FIRSTX=194.0582
##LASTX=168.1508
##FIRSTY=2.41568
##MAXX=194.058
##MINX=168.151
##MAXY=3.80695
##MINY=2.41568
##NPOINTS=763
##$REF AUTHOR=Pickett, L.W.; Hoeflich, N.J.; Liu, T.-C.
##$REF TITLE=The vacuum ultraviolet absorption spectra of cyclic compounds. II. Tetrahydrofuran, tetrahydropyran, 1,4-dioxane and furan
##$REF JOURNAL=J. Am. Chem. Soc.
##$REF VOLUME=73
##$REF PAGE=4865-4869
##$REF DATE=1951
##XYPOINTS=(XY..XY)
194.0582,2.415685
193.9808,2.436922
193.8870,2.463990
193.7616,2.494506
193.7616,2.494506
193.7411,2.496453
193.7198,2.498493
193.6967,2.500577
193.6967,2.500577
193.6654,2.500810
193.6333,2.501135
193.5993,2.501506
193.5993,2.501506
193.5186,2.473452
193.4669,2.459174
193.3999,2.446432
193.3999,2.446432
193.3575,2.445886
193.3142,2.445245
193.2693,2.444554
193.2693,2.444554
193.2495,2.445376
193.2288,2.446197
193.2064,2.447016
193.2064,2.447016
193.1048,2.468203
193.0487,2.481617
192.9902,2.498757
192.9902,2.498757
192.9631,2.513383
192.9596,2.710480
192.9596,2.710480
192.9495,2.682535
192.9399,2.654591
192.9344,2.528054
192.9307,2.626647
192.9219,2.598704
192.9174,2.714418
192.9133,2.570761
192.9047,2.542819
192.9047,2.542819
192.8661,2.717541
192.7619,2.722526
192.7619,2.722526
192.7217,2.743074
192.6807,2.763620
192.6380,2.784164
192.6380,2.784164
192.6111,2.784347
192.5841,2.784577
192.5571,2.784902
192.5571,2.784902
192.5163,2.781872
192.4755,2.778841
192.4348,2.775811
192.4348,2.775811
192.3775,2.751887
192.3203,2.724465
192.2642,2.696372
192.2101,2.670433
192.1590,2.649473
192.1590,2.649473
192.1323,2.649436
192.1138,2.639640
192.1127,2.641975
192.1117,2.644310
192.1106,2.646645
192.1056,2.649399
192.0789,2.649362
192.0789,2.649362
192.0038,2.659351
191.9521,2.664510
191.8794,2.669262
191.8794,2.669262
191.8703,2.680719
191.8604,2.692175
191.8488,2.703629
191.8488,2.703629
191.8280,2.705087
191.8055,2.706542
191.7821,2.707996
191.7821,2.707996
191.7753,2.714367
191.7678,2.706064
191.7677,2.720783
191.7583,2.727292
191.7457,2.704822
191.7244,2.703675
191.7047,2.702578
191.7047,2.702578
191.6736,2.687462
191.6434,2.672394
191.6148,2.657423
191.6148,2.657423
191.5853,2.655266
191.5559,2.653155
191.5265,2.651140
191.5265,2.651140
191.5217,2.645193
191.5177,2.639296
191.5154,2.633495
191.4916,2.652790
191.4469,2.665298
191.3917,2.684259
191.3477,2.695069
191.3477,2.695069
191.3417,2.699733
191.3349,2.704397
191.3263,2.709057
191.2982,2.695849
191.2982,2.695849
191.2655,2.695174
191.2474,2.696902
191.2346,2.694548
191.2044,2.694018
191.2044,2.694018
191.1949,2.698048
191.1944,2.691251
191.1853,2.688532
191.1778,2.685909
191.1416,2.699240
191.1416,2.699240
191.1049,2.706103
191.0770,2.713828
191.0340,2.729037
191.0340,2.729037
190.9459,2.731737
190.8570,2.734531
190.7665,2.737369
190.7665,2.737369
190.7608,2.739335
190.7533,2.741394
190.7450,2.743498
190.7180,2.736451
190.7033,2.735580
190.6887,2.734710
190.6740,2.733840
190.6740,2.733840
190.6270,2.716702
190.5883,2.705618
190.5497,2.692033
190.5415,2.710713
190.5226,2.719403
190.5038,2.728139
190.4849,2.736971
190.4849,2.736971
190.4796,2.757566
190.4753,2.778163
190.4726,2.798762
190.4726,2.798762
190.4416,2.800693
190.4097,2.802717
190.3762,2.804785
190.3762,2.804785
190.3049,2.804684
190.2328,2.804582
190.1592,2.804478
190.1592,2.804478
190.1132,2.829909
190.0656,2.855384
190.0172,2.880953
190.0172,2.880953
189.9966,2.882898
189.9742,2.884936
189.9511,2.887019
189.9511,2.887019
189.9431,2.896361
189.9343,2.905749
189.9238,2.915229
189.9071,2.885257
189.8902,2.883746
189.8750,2.882238
189.8606,2.880730
189.8606,2.880730
189.8348,2.865621
189.8106,2.850561
189.7872,2.835596
189.7872,2.835596
189.7669,2.833451
189.7483,2.831356
189.7304,2.829356
189.7304,2.829356
189.6790,2.827803
189.6276,2.826298
189.5761,2.824887
189.5761,2.824887
189.5662,2.813624
189.5562,2.802407
189.5463,2.791285
189.5463,2.791285
189.5252,2.763005
189.5247,2.789987
189.5131,2.771122
189.5039,2.788738
189.4993,2.779331
189.4847,2.787586
189.4847,2.787586
189.4565,2.784147
189.4558,2.785845
189.4551,2.787544
189.4543,2.789242
189.4543,2.789242
189.4345,2.789489
189.4131,2.789828
189.3908,2.790213
189.3908,2.790213
189.3191,2.800140
189.2776,2.804872
189.2309,2.808463
189.2309,2.808463
189.1786,2.854632
189.1440,2.881670
189.1254,2.898934
189.1212,2.915781
189.0699,2.889369
189.0445,2.888483
189.0200,2.887598
188.9971,2.886716
188.9971,2.886716
188.9604,2.871858
188.9252,2.857096
188.8909,2.842383
188.8909,2.842383
188.8260,2.838954
188.7611,2.835620
188.6962,2.832332
188.6962,2.832332
188.6796,2.827990
188.6596,2.823642
188.6443,2.816327
188.6069,2.826044
188.5715,2.828966
188.5344,2.831886
188.4965,2.834805
188.4965,2.834805
188.4822,2.865441
188.4671,2.882766
188.4382,2.901628
188.4382,2.901628
188.4149,2.906456
188.4013,2.911722
188.3854,2.921942
188.3586,2.907672
188.3441,2.907289
188.3295,2.907001
188.3149,2.906759
188.3149,2.906759
188.2723,2.900145
188.2470,2.894877
188.2174,2.886440
188.1621,2.870429
188.1601,2.875099
188.1580,2.879769
188.1560,2.884439
188.1560,2.884439
188.1094,2.884788
188.0644,2.885093
188.0203,2.885304
188.0203,2.885304
187.9845,2.883765
187.9496,2.882228
187.9163,2.880692
187.9163,2.880692
187.9113,2.877932
187.9079,2.875221
187.9052,2.872605
187.9052,2.872605
187.8812,2.869510
187.8583,2.867880
187.8223,2.853156
187.8205,2.857464
187.8186,2.861867
187.8167,2.866316
187.8167,2.866316
187.7688,2.867309
187.7406,2.879587
187.7108,2.891863
187.6801,2.904138
187.6801,2.904138
187.6542,2.905225
187.6282,2.906406
187.6022,2.907635
187.6022,2.907635
187.4629,2.907392
187.4037,2.907030
187.3738,2.906239
187.3738,2.906239
187.3725,2.900439
187.3705,2.894544
187.3668,2.888599
187.3430,2.876245
187.3415,2.879846
187.3400,2.883400
187.3385,2.886859
187.3385,2.886859
187.2405,2.887250
187.1824,2.886945
187.1143,2.885681
187.1143,2.885681
187.0390,2.874187
186.9855,2.866501
186.9589,2.859752
186.9266,2.867776
186.8557,2.881698
186.7848,2.895667
186.7139,2.909731
186.7139,2.909731
186.5843,2.909540
186.4548,2.909348
186.3256,2.909157
186.3256,2.909157
186.2829,2.903572
186.2547,2.897583
186.2169,2.886057
186.2169,2.886057
186.1811,2.886004
186.1752,2.874525
186.1657,2.877485
186.1547,2.880442
186.1453,2.885951
186.1428,2.883398
186.1095,2.885898
186.1095,2.885898
186.0587,2.893469
186.0063,2.901038
185.9532,2.908605
185.9532,2.908605
185.9190,2.910891
185.8832,2.913174
185.8467,2.915456
185.8467,2.915456
185.8278,2.915428
185.8073,2.915398
185.7860,2.915366
185.7860,2.915366
185.7603,2.908319
185.7338,2.901270
185.7057,2.894219
185.7057,2.894219
185.6727,2.893894
185.6671,2.884391
185.6554,2.886710
185.6437,2.889029
185.6382,2.893473
185.6321,2.891348
185.6029,2.893003
185.6029,2.893003
185.5682,2.898726
185.5402,2.901438
185.4952,2.903463
185.4952,2.903463
185.4901,2.906917
185.4841,2.910464
185.4766,2.914055
185.4511,2.907008
185.4394,2.904324
185.4171,2.902473
185.3696,2.889257
185.3696,2.889257
185.3682,2.892716
185.3667,2.896270
185.3652,2.899870
185.3652,2.899870
185.3490,2.887959
185.3291,2.886710
185.3144,2.876855
185.3132,2.879677
185.3120,2.882594
185.3108,2.885558
185.3108,2.885558
185.2155,2.901346
185.2132,2.906652
185.2110,2.911959
185.2088,2.917266
185.2088,2.917266
185.1905,2.918308
185.1714,2.919397
185.1507,2.920577
185.1507,2.920577
185.1074,2.920025
185.0625,2.919375
185.0169,2.918677
185.0169,2.918677
184.9897,2.915663
184.9617,2.912647
184.9322,2.909629
184.9322,2.909629
184.8938,2.908502
184.8554,2.907327
184.8171,2.906058
184.8171,2.906058
184.7919,2.907090
184.7667,2.908169
184.7415,2.909343
184.7415,2.909343
184.7086,2.920401
184.6748,2.931552
184.6395,2.942749
184.6395,2.942749
184.6007,2.942690
184.5620,2.942632
184.5233,2.942573
184.5233,2.942573
184.4957,2.940825
184.4674,2.939028
184.4376,2.937134
184.4376,2.937134
184.3776,2.927611
184.3421,2.922987
184.3008,2.919298
184.3008,2.919298
184.2821,2.919545
184.2700,2.917552
184.2618,2.919884
184.2575,2.913710
184.2450,2.909868
184.2407,2.920269
184.2407,2.920269
184.2326,2.906026
184.2267,2.945524
184.2118,2.970777
184.1954,2.996028
184.1954,2.996028
184.1016,3.020769
184.0489,3.038255
183.9924,3.063477
183.9924,3.063477
183.9392,3.111605
183.9041,3.140764
183.8713,3.162757
183.8251,3.189390
183.8251,3.189390
183.8025,3.193730
183.7863,3.195577
183.7628,3.196517
183.7628,3.196517
183.7566,3.202667
183.7497,3.208816
183.7412,3.214963
183.7213,3.195392
183.7055,3.193889
183.6913,3.192435
183.6778,3.191077
183.6778,3.191077
183.6265,3.166036
183.5737,3.134727
183.5231,3.101792
183.4786,3.071876
183.4439,3.049621
183.4228,3.039671
183.4228,3.039671
183.3361,3.039176
183.2494,3.038776
183.1628,3.038423
183.1628,3.038423
183.1394,3.036271
183.1160,3.034167
183.0925,3.032156
183.0506,3.032942
183.0319,3.033770
183.0117,3.034644
182.9906,3.035611
182.9906,3.035611
182.9063,3.055722
182.8220,3.075929
182.7378,3.096182
182.7378,3.096182
182.6934,3.111894
182.6490,3.127701
182.6046,3.143555
182.6046,3.143555
182.5723,3.197172
182.5567,3.232391
182.5519,3.266892
182.5519,3.254027
182.5510,3.275799
182.5510,3.275799
182.5299,3.282776
182.5073,3.289751
182.4839,3.296724
182.4839,3.296724
182.4193,3.301769
182.3818,3.304024
182.3393,3.305422
182.3393,3.305422
182.3097,3.319182
182.2801,3.332942
182.2505,3.346703
182.2505,3.346703
182.2058,3.349237
182.1724,3.350562
182.1214,3.351813
182.1214,3.351813
182.0857,3.355219
182.0501,3.358720
182.0144,3.362267
182.0144,3.362267
181.9826,3.361998
181.9494,3.361679
181.9155,3.361264
181.9155,3.361264
181.8993,3.358627
181.8824,3.355895
181.8640,3.353113
181.8640,3.353113
181.8195,3.323377
181.7747,3.293581
181.7294,3.263744
181.6831,3.233886
181.6831,3.233886
181.6504,3.221729
181.6178,3.209571
181.5851,3.197413
181.5851,3.197413
181.5590,3.194186
181.5322,3.190958
181.5038,3.187728
181.5038,3.187728
181.4631,3.187028
181.4216,3.186326
181.3787,3.185621
181.3787,3.185621
181.3715,3.194033
181.3674,3.204980
181.3624,3.222156
181.3522,3.249254
181.3328,3.289966
181.3001,3.347987
181.3001,3.347987
181.2885,3.351375
181.2770,3.354810
181.2654,3.358340
181.2654,3.358340
181.2042,3.358465
181.1430,3.358636
181.0819,3.358903
181.0819,3.358903
181.0501,3.384986
181.0168,3.411115
180.9828,3.437336
180.9828,3.437336
180.9275,3.439885
180.8786,3.441405
180.7944,3.443200
180.7944,3.443200
180.7678,3.456335
180.7398,3.469515
180.7110,3.482788
180.7110,3.482788
180.6674,3.485922
180.6379,3.487472
180.5973,3.488769
180.5973,3.488769
180.5710,3.486753
180.5440,3.484642
180.5155,3.482481
180.5155,3.482481
180.4161,3.452163
180.3312,3.421584
180.2682,3.401802
180.2682,3.401802
180.1950,3.399712
180.1211,3.397526
180.0459,3.395291
180.0459,3.395291
180.0168,3.390776
179.9891,3.388199
179.9392,3.385351
179.9392,3.385351
179.9118,3.386794
179.8836,3.388236
179.8539,3.389676
179.8539,3.389676
179.8403,3.403891
179.8266,3.422155
179.8126,3.443938
179.7980,3.468709
179.7825,3.495939
179.7659,3.525096
179.7480,3.555652
179.7284,3.587076
179.7069,3.618837
179.7069,3.618837
179.6600,3.639932
179.6360,3.648319
179.6141,3.651187
179.6141,3.651187
179.5713,3.651827
179.5385,3.651775
179.4875,3.650985
179.4875,3.650985
179.4531,3.644299
179.3975,3.635030
179.3206,3.618221
179.3206,3.618221
179.2695,3.587066
179.2177,3.555815
179.1646,3.524515
179.1646,3.524515
179.1254,3.518112
179.0981,3.515314
179.0593,3.513726
179.0593,3.513726
179.0323,3.514533
179.0046,3.515338
178.9755,3.516141
178.9755,3.516141
178.9531,3.528699
178.9291,3.541350
178.9044,3.554047
178.9044,3.554047
178.8841,3.580779
178.8635,3.607520
178.8427,3.634282
178.8214,3.661073
178.7994,3.687904
178.7994,3.687904
178.7804,3.691697
178.7600,3.695487
178.7388,3.699276
178.7388,3.699276
178.6978,3.702404
178.6561,3.705578
178.6129,3.708845
178.6129,3.708845
178.5796,3.715808
178.5447,3.722816
178.5091,3.729918
178.5091,3.729918
178.4821,3.731211
178.4544,3.732598
178.4252,3.734030
178.4252,3.734030
178.4006,3.738034
178.3760,3.742085
178.3514,3.746230
178.3514,3.746230
178.3043,3.748766
178.2573,3.751396
178.2103,3.754074
178.2103,3.754074
178.1799,3.753804
178.1480,3.753485
178.1155,3.753071
178.1155,3.753071
177.9389,3.709628
177.8617,3.691881
177.8176,3.684619
177.8176,3.684619
177.7850,3.684566
177.7523,3.684513
177.7197,3.684460
177.7197,3.684460
177.5965,3.710636
177.4053,3.756054
177.2914,3.781679
177.2914,3.781679
177.2748,3.782140
177.2575,3.782694
177.2388,3.783292
177.2388,3.783292
177.1725,3.778291
177.1063,3.773242
177.0402,3.768099
177.0402,3.768099
176.9975,3.766904
176.9535,3.765613
176.9088,3.764273
176.9088,3.764273
176.8527,3.758871
176.7965,3.753468
176.7404,3.748066
176.7404,3.748066
176.6823,3.747970
176.6243,3.747875
176.5663,3.747779
176.5663,3.747779
176.4549,3.760906
176.2973,3.781178
176.1888,3.793035
176.1888,3.793035
176.1631,3.792993
176.1366,3.792949
176.1087,3.792903
176.1087,3.792903
176.0923,3.791389
176.0744,3.789872
176.0559,3.788355
176.0559,3.788355
175.9946,3.788418
175.9394,3.789483
175.8431,3.792462
175.8431,3.792462
175.7961,3.788372
175.7420,3.782288
175.6887,3.778187
175.6887,3.778187
175.6385,3.779559
175.6030,3.781757
175.5516,3.786667
175.5516,3.786667
175.4619,3.786108
175.3957,3.785400
175.3419,3.785467
175.3419,3.785467
175.2715,3.792422
175.2256,3.796255
175.1649,3.800252
175.1649,3.800252
175.1037,3.802486
175.0418,3.804719
174.9786,3.806949
174.9786,3.806949
174.7921,3.806502
174.6526,3.805331
174.4405,3.802433
174.4405,3.802433
174.2936,3.797748
174.1808,3.793545
174.0159,3.787696
174.0159,3.787696
173.8289,3.777395
173.6423,3.767095
173.4561,3.756794
173.4561,3.756794
173.2992,3.743570
173.1419,3.730344
172.9835,3.717116
172.9835,3.717116
172.6656,3.680877
172.4158,3.652655
172.2206,3.630542
172.0667,3.612629
171.9412,3.597008
171.9412,3.597008
171.8991,3.589807
171.8180,3.579707
171.7337,3.571159
171.7337,3.571159
171.6610,3.561411
171.5884,3.551569
171.5159,3.541679
171.5159,3.541679
171.2611,3.516202
171.1202,3.501307
170.9724,3.484228
170.9724,3.484228
170.7718,3.468779
170.5418,3.450917
170.1082,3.419194
170.1082,3.419194
170.0161,3.413476
169.7687,3.394974
169.1572,3.347828
169.1572,3.347828
168.8672,3.321703
168.6746,3.303815
168.4924,3.285906
168.2343,3.259715
168.2343,3.259715
168.2064,3.255621
168.1786,3.251480
168.1508,3.247244
##END=
