##TITLE=Cyclopentene
##JCAMP-DX=4.24
##DATA TYPE=UV/VIS SPECTRUM
##ORIGIN=INSTITUTE OF ENERGY PROBLEMS OF CHEMICAL PHYSICS, RAS
##OWNER=INEP CP RAS, NIST OSRD
Collection (C) 2007 copyright by the U.S. Secretary of Commerce
on behalf of the United States of America. All rights reserved.
##CAS REGISTRY NO=142-29-0
##MOLFORM=C5H8
##MP=-135.1
##BP=44.2
##SOURCE REFERENCE=RAS UV No. 47
##$NIST SQUIB=1951PIC/MUN4862-4865
##$NIST SOURCE=TSGMTE
##SPECTROMETER/DATA SYSTEM=Hilger fluorite prism spectrograph
##XUNITS=Wavelength (nm)
##YUNITS=Logarithm epsilon
##XFACTOR=1.000000
##YFACTOR=1.000000
##FIRSTX=211.3235
##LASTX=154.0660
##FIRSTY=1.50587
##MAXX=211.324
##MINX=154.066
##MAXY=3.96057
##MINY=1.50587
##NPOINTS=657
##$REF AUTHOR=Pickett, L.W.; Muntz, M.; McPherson, E.M.
##$REF TITLE=Vacuum ultraviolet absorption spectra of cyclic compounds. I. Cyclohexane, cyclohexene, cyclopentane, Cyclopentene and benzene
##$REF JOURNAL=J. Am. Chem. Soc.
##$REF VOLUME=73
##$REF PAGE=4862-4865
##$REF DATE=1951
##XYPOINTS=(XY..XY)
211.3235,1.505874
211.2978,1.524763
211.2671,1.543617
211.2251,1.565485
211.1657,1.593413
211.0827,1.630453
210.9700,1.679651
210.8214,1.744058
210.8214,1.744058
210.6501,1.801327
210.5228,1.843509
210.4268,1.874398
210.3497,1.897785
210.2787,1.917463
210.2015,1.937226
210.0680,1.961200
210.0274,1.961605
209.9852,1.962150
209.9852,1.962150
209.9784,1.967276
209.9701,1.972542
209.9586,1.977878
209.9586,1.977878
209.9288,1.964993
209.9080,1.969178
209.8873,1.973503
209.8701,1.982090
209.8665,1.977899
209.8101,1.986506
209.7270,1.994909
209.7270,1.994909
209.6156,2.028358
209.5012,2.061947
209.3854,2.095606
209.3854,2.095606
209.2869,2.096898
209.1885,2.098259
209.0903,2.099760
209.0903,2.099760
209.0569,2.118005
209.0220,2.136251
208.9840,2.154496
208.9840,2.154496
208.9074,2.159638
208.8309,2.164919
208.7544,2.170270
208.7544,2.170270
208.6694,2.198624
208.6094,2.213556
208.5229,2.227865
208.5229,2.227865
208.4556,2.231572
208.4113,2.229148
208.3832,2.229876
208.3726,2.233954
208.3536,2.230744
208.3209,2.231683
208.2030,2.237056
208.2030,2.237056
208.1706,2.261286
208.1367,2.285587
208.0997,2.310029
208.0997,2.310029
208.0512,2.312567
208.0028,2.315175
207.9843,2.336154
207.9718,2.329961
207.9623,2.323907
207.9545,2.317923
207.9545,2.317923
207.8717,2.323287
207.8711,2.317942
207.8343,2.317950
207.8303,2.323297
207.7945,2.317959
207.7904,2.323306
207.7537,2.323314
207.7537,2.323314
207.7535,2.321439
207.7533,2.319634
207.7531,2.317969
207.7531,2.317969
207.6985,2.325842
207.6985,2.325842
207.6983,2.323967
207.6981,2.322162
207.6979,2.320497
207.6618,2.325850
207.6220,2.325859
207.5807,2.325869
207.5807,2.325869
207.4795,2.350197
207.3785,2.374665
207.2776,2.399202
207.2776,2.399202
207.1913,2.405115
207.1312,2.411161
207.0719,2.410883
207.0456,2.422524
207.0456,2.422524
207.0376,2.414676
207.0018,2.418539
206.9905,2.424737
206.9630,2.422543
206.9339,2.426952
206.8742,2.429166
206.8742,2.429166
206.8401,2.433902
206.8045,2.438708
206.7658,2.443655
206.7658,2.443655
206.7295,2.444386
206.6902,2.445256
206.6493,2.446197
206.6493,2.446197
206.6429,2.452185
206.6349,2.458242
206.6239,2.464441
206.5676,2.451562
206.5676,2.451562
206.5674,2.449687
206.5672,2.447881
206.5670,2.446216
206.4717,2.452306
206.3759,2.453189
206.2803,2.454143
206.2803,2.454143
206.1910,2.468942
206.0987,2.483742
206.0050,2.498543
206.0050,2.498543
205.9574,2.499276
205.9098,2.500148
205.8622,2.501091
205.8622,2.501091
205.8554,2.503620
205.8471,2.506219
205.8358,2.508958
205.7737,2.501112
205.7349,2.501120
205.6991,2.501129
205.6649,2.501137
205.6649,2.501137
205.6647,2.499343
205.6645,2.497690
205.6643,2.496106
205.5768,2.503987
205.4146,2.510488
205.3200,2.513200
205.2129,2.524824
205.2129,2.524824
205.2126,2.521366
205.2122,2.517907
205.2118,2.514448
205.2118,2.514448
205.1302,2.510694
205.1275,2.515318
205.1050,2.518339
205.0914,2.527054
205.0436,2.522348
204.9700,2.529283
204.8488,2.531513
204.8488,2.531513
204.8222,2.534978
204.7956,2.538443
204.7690,2.541908
204.7690,2.541908
204.7334,2.542242
204.6947,2.542647
204.6555,2.551053
204.6552,2.548316
204.6549,2.545719
204.6547,2.543192
204.6547,2.543192
204.6008,2.543205
204.5337,2.542289
204.4681,2.541442
204.4056,2.540735
204.4056,2.540735
204.3938,2.537279
204.3850,2.533822
204.3777,2.530365
204.3184,2.540755
204.1862,2.540250
204.0980,2.548668
204.0978,2.546793
204.0976,2.544988
204.0975,2.543323
204.0572,2.539885
203.9298,2.539589
203.8498,2.540865
203.7506,2.544895
203.7077,2.548003
203.6842,2.552853
203.6842,2.552853
203.6308,2.554123
203.5759,2.555394
203.5181,2.556666
203.5181,2.556666
203.5113,2.558332
203.5032,2.560140
203.4920,2.562017
203.4920,2.562017
203.3573,2.564565
203.2198,2.567113
203.0810,2.569661
203.0810,2.569661
203.0731,2.575730
203.0622,2.581940
203.0498,2.588220
202.9955,2.575027
202.9840,2.573155
202.9754,2.571351
202.9684,2.569688
202.8828,2.573796
202.8086,2.576201
202.6670,2.579530
202.5011,2.585521
202.5011,2.585521
202.4976,2.589528
202.4706,2.592632
202.3969,2.597495
202.3969,2.597495
202.3375,2.596251
202.3161,2.598772
202.2325,2.600049
202.1624,2.595303
202.1474,2.601328
202.1474,2.601328
202.1410,2.604788
202.1331,2.608249
202.1222,2.611710
202.0720,2.594265
201.9890,2.592247
201.9890,2.592247
201.9758,2.589117
201.9641,2.586057
201.9553,2.583136
201.9039,2.593525
201.7565,2.598126
201.6339,2.602650
201.5259,2.605565
201.5259,2.605565
201.5066,2.608492
201.4873,2.611560
201.4681,2.614697
201.4670,2.604007
201.4215,2.603482
201.3775,2.603096
201.3365,2.602780
201.3365,2.602780
201.3251,2.600594
201.3167,2.598476
201.3098,2.596498
201.2519,2.604058
201.1459,2.604492
201.0372,2.605065
200.9865,2.614814
200.9667,2.611686
200.9469,2.608627
200.9271,2.605709
200.9271,2.605709
200.8496,2.608244
200.6512,2.615186
200.5232,2.619247
200.4499,2.622805
200.4493,2.617460
200.3442,2.618207
200.2364,2.619095
200.1272,2.620054
200.1272,2.620054
199.8971,2.633095
199.6675,2.646276
199.4385,2.659528
199.4385,2.659528
199.3967,2.665361
199.3139,2.672182
199.2552,2.679068
199.2552,2.679068
199.0561,2.692591
198.8746,2.707718
198.7818,2.718490
198.7818,2.718490
198.5882,2.733270
198.4803,2.742509
198.3918,2.748459
198.3918,2.748459
198.3570,2.754453
198.2872,2.760946
198.2356,2.766735
198.2356,2.766735
198.1437,2.773128
198.0645,2.780636
197.9728,2.787868
197.9728,2.787868
197.8433,2.805171
197.7775,2.816030
197.7191,2.829752
197.7191,2.829752
197.6860,2.831344
197.6501,2.833007
197.6128,2.834810
197.6128,2.834810
197.4353,2.859474
197.2853,2.877982
197.1249,2.901594
197.1249,2.901594
196.8339,2.936966
196.6950,2.952246
196.5888,2.960529
196.5888,2.960529
196.5216,2.971866
196.4545,2.983203
196.3874,2.994540
196.3874,2.994540
196.3548,2.996214
196.3194,2.998028
196.2826,2.999912
196.2826,2.999912
196.0515,3.033930
195.8197,3.067949
195.5876,3.101968
195.3555,3.135987
195.1236,3.170006
195.1236,3.170006
195.0746,3.172534
195.0244,3.175063
194.9714,3.177592
194.9714,3.177592
194.5584,3.220986
194.3671,3.240846
194.3207,3.248509
194.3207,3.248509
194.2390,3.254738
194.1497,3.264252
193.9964,3.278465
193.9964,3.278465
193.7335,3.309034
193.4714,3.339603
193.2100,3.370172
193.2100,3.370172
192.7375,3.415506
192.5583,3.434140
192.5173,3.442047
192.5173,3.442047
192.2589,3.462764
192.1582,3.472328
192.1285,3.478940
192.1285,3.478940
192.0380,3.488234
191.9801,3.492977
191.9050,3.497236
191.9050,3.497236
191.8758,3.503230
191.8452,3.509294
191.8121,3.515499
191.8121,3.515499
191.6549,3.526651
191.4982,3.540109
191.3728,3.549575
191.3728,3.549575
191.2586,3.562731
191.0098,3.585915
190.7682,3.609795
190.7682,3.609795
190.5451,3.628862
190.2100,3.660955
189.6210,3.715758
189.6210,3.715758
189.2253,3.749371
188.9402,3.775408
188.6231,3.803760
188.6231,3.803760
188.4142,3.832839
188.2045,3.862058
187.9927,3.891348
187.9927,3.891348
187.9571,3.893559
187.9191,3.895771
187.9036,3.910868
187.8936,3.906480
187.8860,3.902162
187.8798,3.897983
187.8798,3.897983
187.8058,3.895173
187.7337,3.893935
187.6642,3.892697
187.5959,3.891458
187.5959,3.891458
187.4781,3.882127
187.3251,3.871340
187.1471,3.857624
187.1471,3.857624
187.0834,3.855766
186.9798,3.854410
186.7479,3.852390
186.7479,3.852390
186.5920,3.860295
186.4376,3.868199
186.2859,3.876103
186.2859,3.876103
186.0656,3.881103
185.8544,3.885751
185.7089,3.890730
185.7089,3.890730
185.5098,3.892988
185.3111,3.895245
185.1128,3.897503
185.1128,3.897503
184.9541,3.907704
184.8904,3.912776
184.8670,3.917069
184.8670,3.917069
184.7477,3.926501
184.6430,3.934252
184.5240,3.944523
184.5240,3.944523
184.3780,3.944565
184.2346,3.944607
184.0927,3.944648
184.0927,3.944648
184.0164,3.941537
183.9414,3.938496
183.8689,3.935594
183.8689,3.935594
183.7238,3.934704
183.5814,3.933883
183.4404,3.933202
183.4404,3.933202
183.3115,3.940693
183.1840,3.948044
183.0591,3.955324
183.0591,3.955324
182.8630,3.959143
182.7183,3.960571
180.9492,3.946567
180.2630,3.946944
179.6451,3.946939
179.2300,3.946089
179.2300,3.946089
179.0765,3.942677
178.9255,3.939264
178.7759,3.935851
178.7759,3.935851
178.3669,3.938015
177.9575,3.941926
177.6333,3.944064
177.6333,3.944064
177.5624,3.942211
177.4926,3.940428
177.4252,3.938783
177.4252,3.938783
176.8249,3.935512
176.2286,3.932240
175.6364,3.928968
175.6364,3.928968
175.3708,3.922391
175.2475,3.918354
175.1605,3.913398
175.1605,3.913398
174.9692,3.906960
174.8153,3.900301
174.7067,3.896563
174.7067,3.896563
174.5748,3.888837
174.4270,3.882515
174.2793,3.875633
174.2793,3.875633
173.9352,3.864109
173.6735,3.855914
173.4900,3.848532
173.4900,3.848532
173.2513,3.843497
173.0838,3.838369
172.9102,3.833313
172.9102,3.833313
172.7705,3.826220
172.6309,3.819267
172.4916,3.812383
172.4916,3.812383
172.2286,3.808871
171.9717,3.807244
171.5022,3.806107
171.5022,3.806107
171.3331,3.800154
171.1005,3.793803
170.9731,3.789304
170.9731,3.789304
170.7204,3.781143
170.5318,3.774428
170.3303,3.768766
170.3303,3.768766
170.1680,3.757315
169.9469,3.743298
169.8256,3.733720
169.8256,3.733720
169.7153,3.730788
169.5713,3.729125
169.2707,3.727305
169.2707,3.727305
169.1122,3.722201
168.9164,3.717807
168.8106,3.714571
168.8106,3.714571
168.5668,3.705629
168.3928,3.699109
168.2021,3.693713
168.2021,3.693713
167.9672,3.685246
167.7744,3.679350
167.6523,3.674408
167.6523,3.674408
167.5633,3.673496
167.4763,3.672583
167.3905,3.671670
167.3905,3.671670
167.3515,3.674828
167.3146,3.677985
167.2787,3.681142
167.2787,3.681142
167.2614,3.690803
167.2441,3.700323
167.2268,3.709774
167.2268,3.709774
167.1714,3.724794
167.1336,3.732959
167.0808,3.741269
167.0808,3.741269
167.0047,3.741296
166.9297,3.741322
166.8568,3.741348
166.8568,3.741348
166.8093,3.735647
166.7480,3.730230
166.6856,3.722856
166.6856,3.722856
166.6422,3.721078
166.6007,3.719439
166.5603,3.717869
166.5603,3.717869
166.2990,3.717962
166.0404,3.718053
165.7837,3.718144
165.7837,3.718144
165.6593,3.712249
165.4420,3.702405
165.0863,3.684434
165.0863,3.684434
164.9518,3.682607
164.8195,3.680850
164.6883,3.679232
164.6883,3.679232
164.6196,3.674866
164.5529,3.670569
164.4872,3.666412
164.4872,3.666412
164.2605,3.646964
164.1011,3.632103
163.8724,3.609093
163.8724,3.609093
163.7945,3.605662
163.7167,3.602232
163.6389,3.598801
163.6389,3.598801
163.5314,3.598841
163.4240,3.598880
163.3168,3.598919
163.3168,3.598919
163.0452,3.596282
162.6564,3.593829
162.3616,3.591411
162.3616,3.591411
162.1858,3.584826
161.9372,3.577151
161.7650,3.570565
161.7650,3.570565
161.5421,3.565536
160.7724,3.541067
160.7724,3.541067
160.7309,3.538346
160.6903,3.535764
160.6515,3.533252
160.6515,3.533252
160.3247,3.523011
160.1287,3.518031
159.8947,3.514044
159.8947,3.514044
159.7593,3.514096
159.6240,3.514148
159.4890,3.514200
159.4890,3.514200
159.3463,3.516444
159.2048,3.518619
159.0654,3.520652
159.0654,3.520652
158.9161,3.530248
158.8155,3.535423
158.6772,3.540612
158.6772,3.540612
158.6369,3.540011
158.5974,3.539479
158.5598,3.539086
158.5598,3.539086
158.4353,3.534150
158.2196,3.528271
157.9428,3.519832
157.9428,3.519832
157.7466,3.518651
157.5519,3.517470
157.3594,3.516288
157.3594,3.516288
157.2475,3.505338
157.1366,3.494458
157.0277,3.483717
157.0277,3.483717
156.8156,3.470677
156.7220,3.463948
156.6662,3.457763
156.6662,3.457763
156.5633,3.453099
156.4674,3.447663
156.3542,3.442165
156.2874,3.440934
156.1898,3.444025
156.1098,3.447807
155.9788,3.455522
155.9788,3.455522
155.7919,3.474825
155.6795,3.487669
155.5451,3.505064
155.5451,3.505064
155.5091,3.506348
155.4713,3.507703
155.4330,3.514228
155.4329,3.512435
155.4328,3.510781
155.4327,3.509198
155.4327,3.509198
155.4015,3.506380
155.3677,3.505858
155.3356,3.505475
155.3044,3.505162
155.3044,3.505162
155.2811,3.502656
155.2587,3.500149
155.2381,3.497642
155.2381,3.497642
155.1799,3.495791
155.1217,3.494009
155.0637,3.492367
155.0134,3.491130
154.8167,3.491536
154.6205,3.492012
154.4248,3.492628
154.4248,3.492628
154.2235,3.497917
154.0660,3.502768
##END=
