##TITLE=2-Hydroxypyridine
##JCAMP-DX=4.24
##DATA TYPE=UV/VIS SPECTRUM
##ORIGIN=INSTITUTE OF ENERGY PROBLEMS OF CHEMICAL PHYSICS, RAS
##OWNER=INEP CP RAS, NIST OSRD
Collection (C) 2007 copyright by the U.S. Secretary of Commerce
on behalf of the United States of America. All rights reserved.
##CAS REGISTRY NO=142-08-5
##MOLFORM=C5H5NO
##MP=107-108
##SOURCE REFERENCE=RAS UV No. 16234
##$NIST SQUIB=1972BUR/1953
##$NIST SOURCE=TYUGLMTE
##SPECTROMETER/DATA SYSTEM=unknown
##XUNITS=Wavelength (nm)
##YUNITS=Logarithm epsilon
##XFACTOR=1.0
##YFACTOR=1.0
##FIRSTX=200.32
##LASTX=332.36
##FIRSTY=3.44
##MAXX=332.36
##MINX=200.32
##MAXY=3.892
##MINY=2.638
##NPOINTS=130
##$REF AUTHOR=Burton, A.G.; et al.
##$REF JOURNAL=J. Chem. Soc., Perkin Trans. II
##$REF PAGE=1953
##$REF DATE=1972
##XYPOINTS=(XY..XY)
200.32,3.440
203.19,3.561
204.15,3.610
205.10,3.642
206.06,3.675
207.02,3.715
207.97,3.745
208.93,3.773
209.89,3.800
210.84,3.819
211.80,3.837
212.76,3.855
213.71,3.867
214.67,3.884
215.63,3.892
216.59,3.882
217.54,3.855
218.50,3.828
219.46,3.797
220.41,3.740
221.37,3.661
222.33,3.581
223.28,3.474
224.24,3.402
225.20,3.303
226.15,3.214
227.11,3.112
228.07,3.027
229.02,2.977
229.98,2.891
230.94,2.822
231.89,2.761
233.00,2.715
234.50,2.665
236.68,2.638
237.64,2.638
238.59,2.638
240.55,2.655
243.38,2.716
244.33,2.739
245.29,2.761
246.25,2.802
247.20,2.822
249.12,2.891
251.03,2.950
251.99,2.977
252.95,3.015
253.90,3.038
254.86,3.071
255.82,3.112
256.77,3.139
257.73,3.166
258.69,3.191
259.64,3.229
260.60,3.264
261.56,3.290
262.51,3.309
263.47,3.333
264.43,3.355
265.38,3.382
266.34,3.402
267.30,3.426
268.26,3.449
269.21,3.470
270.17,3.491
271.13,3.510
272.08,3.529
273.04,3.551
274.00,3.571
274.95,3.588
275.91,3.603
276.87,3.625
277.82,3.639
278.78,3.645
279.74,3.659
280.69,3.675
281.65,3.685
282.61,3.698
283.56,3.705
284.52,3.715
285.48,3.729
286.44,3.738
287.39,3.747
288.35,3.754
289.31,3.760
290.26,3.767
291.22,3.771
292.18,3.777
293.13,3.781
294.09,3.785
295.05,3.789
296.00,3.789
296.96,3.789
297.92,3.789
298.87,3.783
299.83,3.777
300.79,3.769
301.74,3.763
302.70,3.756
303.66,3.745
304.62,3.734
305.57,3.722
306.53,3.708
307.49,3.693
308.44,3.677
309.40,3.659
310.36,3.630
311.31,3.607
312.27,3.581
313.23,3.561
314.18,3.533
315.14,3.507
316.10,3.479
317.05,3.458
318.01,3.431
318.97,3.402
319.92,3.372
320.88,3.344
321.84,3.315
322.80,3.271
323.75,3.229
324.71,3.191
325.67,3.139
326.62,3.092
327.58,3.038
328.54,2.990
329.49,2.936
330.45,2.840
331.41,2.761
332.36,2.665
##END=
