##TITLE=Oxazole, 2-methyl-4,5-diphenyl-
##JCAMP-DX=4.24
##DATA TYPE=UV/VIS SPECTRUM
##ORIGIN=INSTITUTE OF ENERGY PROBLEMS OF CHEMICAL PHYSICS, RAS
##OWNER=INEP CP RAS, NIST OSRD
Collection (C) 2007 copyright by the U.S. Secretary of Commerce
on behalf of the United States of America. All rights reserved.
##CAS REGISTRY NO=14224-99-8
##MOLFORM=C16H13NO
##SOURCE REFERENCE=RAS UV No. 12794
##$NIST SQUIB=1956GOM/HER2816
##$NIST SOURCE=TYUGLMTE
##SPECTROMETER/DATA SYSTEM=Beckman DU
##XUNITS=Wavelength (nm)
##YUNITS=Logarithm epsilon
##XFACTOR=1.0
##YFACTOR=1.0
##FIRSTX=200
##LASTX=310.34
##FIRSTY=4.292
##MAXX=310.34
##MINX=200
##MAXY=4.292
##MINY=3.356
##NPOINTS=108
##$REF AUTHOR=Gompper, R.; Herlinger, H.
##$REF JOURNAL=Chem. Ber.
##$REF VOLUME=89
##$REF PAGE=2816
##$REF DATE=1956
##XYPOINTS=(XY..XY)
200.00,4.292
200.22,4.288
200.43,4.286
200.65,4.282
201.72,4.259
202.59,4.255
203.45,4.242
204.31,4.230
206.03,4.230
206.90,4.230
207.76,4.236
210.34,4.246
211.21,4.248
212.07,4.246
212.93,4.246
213.79,4.242
214.66,4.238
215.52,4.234
217.24,4.217
218.10,4.207
219.83,4.182
220.69,4.173
221.55,4.153
222.41,4.142
223.28,4.113
224.14,4.101
225.00,4.067
225.86,4.045
226.72,4.024
227.59,3.986
228.45,3.955
229.31,3.922
230.17,3.899
231.03,3.874
231.90,3.857
232.76,3.841
233.62,3.834
234.48,3.830
235.34,3.824
236.21,3.820
237.07,3.814
238.79,3.814
240.52,3.814
241.38,3.814
242.24,3.816
243.10,3.820
243.97,3.824
245.69,3.834
246.55,3.843
247.41,3.847
248.28,3.855
250.00,3.872
250.86,3.882
251.72,3.891
252.59,3.905
253.45,3.909
254.31,3.920
256.03,3.945
256.90,3.951
257.76,3.963
258.62,3.972
259.48,3.990
260.34,3.997
261.21,4.005
262.93,4.026
263.79,4.032
264.66,4.036
266.38,4.055
267.24,4.057
268.10,4.063
268.97,4.067
269.83,4.074
271.55,4.078
272.41,4.080
273.28,4.080
274.14,4.080
278.45,4.076
279.31,4.069
280.17,4.067
281.03,4.061
282.76,4.049
283.62,4.045
284.48,4.036
285.34,4.026
287.93,3.997
288.79,3.984
289.66,3.972
290.52,3.953
291.38,3.938
292.24,3.922
293.97,3.886
294.83,3.866
296.55,3.826
297.41,3.807
298.28,3.782
299.14,3.757
300.00,3.726
300.86,3.699
302.59,3.649
303.45,3.631
304.31,3.589
305.17,3.568
306.03,3.525
306.90,3.487
307.76,3.448
308.62,3.416
309.48,3.385
310.34,3.356
##END=
