##TITLE=Propane, 2-(ethylthio)-2-methyl-
##JCAMP-DX=4.24
##DATA TYPE=UV/VIS SPECTRUM
##ORIGIN=INSTITUTE OF ENERGY PROBLEMS OF CHEMICAL PHYSICS, RAS
##OWNER=INEP CP RAS, NIST OSRD
Collection (C) 2007 copyright by the U.S. Secretary of Commerce
on behalf of the United States of America. All rights reserved.
##CAS REGISTRY NO=14290-92-7
##MOLFORM=C6H14S
##SOURCE REFERENCE=RAS UV No. 20112
##$NIST SQUIB=1969BOL/102
##$NIST SOURCE=TYUGLMTE
##SPECTROMETER/DATA SYSTEM=unknown
##XUNITS=Wavelength (nm)
##YUNITS=Logarithm epsilon
##XFACTOR=1.0
##YFACTOR=1.0
##FIRSTX=206.35
##LASTX=284.95
##FIRSTY=3.073
##MAXX=284.95
##MINX=206.35
##MAXY=3.345
##MINY=0.156
##NPOINTS=99
##$REF AUTHOR=Bol'shakov, G.F.; et al.
##$REF JOURNAL=Ultraviolet spectra of heteroorganic compounds
##$REF PAGE=102
##$REF DATE=1969
##XYPOINTS=(XY..XY)
206.35,3.073
206.52,3.077
206.69,3.086
206.86,3.090
207.02,3.099
207.19,3.107
208.03,3.163
208.86,3.207
209.70,3.250
210.54,3.284
211.37,3.310
212.21,3.336
213.04,3.345
213.88,3.340
214.72,3.332
215.55,3.314
216.39,3.289
217.22,3.228
218.06,3.168
218.90,3.099
219.73,3.043
220.57,2.982
221.41,2.943
222.24,2.879
223.08,2.818
223.91,2.753
224.75,2.693
225.59,2.650
226.42,2.607
227.26,2.559
228.09,2.499
228.93,2.447
229.77,2.387
230.60,2.326
231.44,2.279
232.27,2.236
233.11,2.175
233.95,2.115
234.78,2.054
235.62,1.994
236.46,1.925
237.29,1.882
238.13,1.817
238.96,1.757
239.80,1.696
240.64,1.644
241.47,1.593
242.31,1.536
243.14,1.493
243.98,1.442
244.82,1.394
245.65,1.347
246.49,1.291
247.33,1.243
248.16,1.196
249.00,1.157
249.83,1.114
250.67,1.070
251.51,1.027
252.34,0.980
253.18,0.937
254.01,0.898
254.85,0.859
255.69,0.820
256.52,0.790
257.36,0.751
258.19,0.721
259.03,0.686
259.87,0.656
260.70,0.622
261.54,0.600
262.38,0.574
263.21,0.548
264.05,0.527
264.88,0.501
265.72,0.475
266.56,0.462
267.39,0.445
268.23,0.423
269.06,0.402
269.90,0.384
270.74,0.363
271.57,0.345
272.41,0.332
273.25,0.315
274.08,0.298
274.92,0.281
275.74,0.264
276.59,0.251
277.43,0.242
278.26,0.233
279.10,0.220
279.84,0.210
280.77,0.199
281.61,0.194
282.43,0.186
283.28,0.177
284.12,0.169
284.95,0.156
##END=
