##TITLE=2,4-Hexadienal, (E,E)-
##JCAMP-DX=4.24
##DATA TYPE=UV/VIS SPECTRUM
##ORIGIN=INSTITUTE OF ENERGY PROBLEMS OF CHEMICAL PHYSICS, RAS
##OWNER=INEP CP RAS, NIST OSRD
Collection (C) 2007 copyright by the U.S. Secretary of Commerce
on behalf of the United States of America. All rights reserved.
##CAS REGISTRY NO=142-83-6
##MOLFORM=C6H8O
##BP=173-174
##SOURCE REFERENCE=RAS UV No. 19942
##$NIST SQUIB=1966TIMb4/1
##$NIST SOURCE=TYUGLMTE
##SPECTROMETER/DATA SYSTEM=Unicam SP 700
##XUNITS=Wavelength (nm)
##YUNITS=Logarithm epsilon
##XFACTOR=1.0
##YFACTOR=1.0
##FIRSTX=205.63
##LASTX=388.36
##FIRSTY=3.251
##MAXX=388.36
##MINX=205.63
##MAXY=4.407
##MINY=1.218
##NPOINTS=207
##$REF AUTHOR=Timmons, C.J.
##$REF JOURNAL=UV atlas of organic compounds
##$REF VOLUME=1
##$REF PAGE=B4/1
##$REF DATE=1966
##XYPOINTS=(XY..XY)
205.63,3.251
206.45,3.251
207.28,3.257
208.11,3.259
208.95,3.261
209.70,3.268
210.55,3.272
211.41,3.274
212.18,3.281
213.05,3.285
213.83,3.291
214.72,3.296
215.61,3.302
216.41,3.311
217.22,3.317
218.03,3.323
218.85,3.332
219.57,3.343
220.40,3.353
221.14,3.364
221.87,3.377
222.51,3.392
223.15,3.405
223.79,3.420
224.44,3.435
224.98,3.450
225.52,3.465
226.18,3.478
226.73,3.495
227.28,3.512
227.83,3.527
228.39,3.544
228.95,3.561
229.40,3.578
229.86,3.595
230.42,3.612
230.88,3.630
231.45,3.647
231.91,3.664
232.26,3.681
232.96,3.696
233.31,3.713
233.77,3.730
234.36,3.747
234.72,3.764
235.19,3.782
235.66,3.799
236.14,3.816
236.62,3.833
237.10,3.850
237.46,3.867
237.95,3.884
238.44,3.902
238.80,3.919
239.41,3.936
239.91,3.953
240.28,3.970
240.77,3.987
241.02,4.006
241.65,4.024
242.15,4.041
242.65,4.058
243.03,4.075
243.67,4.092
244.18,4.109
244.56,4.126
245.21,4.143
245.72,4.161
246.24,4.178
246.89,4.193
247.42,4.210
248.08,4.225
248.61,4.242
249.27,4.257
249.94,4.274
250.74,4.289
251.42,4.306
252.24,4.319
253.19,4.332
254.16,4.345
255.13,4.358
256.11,4.368
257.25,4.375
258.10,4.390
259.10,4.403
260.41,4.407
261.72,4.407
263.05,4.403
264.24,4.394
265.45,4.385
266.81,4.381
268.04,4.370
271.00,4.310
271.16,4.306
271.31,4.302
271.47,4.298
271.63,4.293
271.79,4.289
271.95,4.287
272.11,4.283
272.26,4.278
272.42,4.274
272.58,4.270
272.74,4.266
272.90,4.261
273.38,4.251
274.19,4.221
274.99,4.186
275.81,4.135
276.63,4.092
277.45,4.049
278.28,3.998
279.11,3.914
279.95,3.822
280.79,3.739
281.64,3.636
282.49,3.563
283.35,3.495
284.21,3.415
285.08,3.345
285.96,3.278
286.84,3.210
287.72,3.126
288.61,3.060
289.51,2.983
290.41,2.899
291.32,2.829
292.23,2.756
293.15,2.677
294.07,2.610
295.00,2.542
295.94,2.458
296.88,2.394
297.83,2.323
298.78,2.263
299.74,2.188
300.71,2.120
301.68,2.064
302.66,2.004
303.65,1.955
304.64,1.912
305.64,1.872
306.64,1.831
307.65,1.792
308.67,1.749
309.70,1.722
310.73,1.692
311.77,1.664
312.81,1.642
313.86,1.627
314.92,1.612
315.99,1.606
317.07,1.600
318.15,1.593
319.24,1.591
320.33,1.591
321.44,1.593
322.55,1.600
323.67,1.602
324.79,1.606
325.93,1.610
327.07,1.612
328.22,1.612
329.38,1.612
330.55,1.610
331.73,1.610
332.91,1.610
334.10,1.612
335.30,1.617
336.51,1.619
337.73,1.623
338.96,1.630
340.20,1.632
341.44,1.632
342.70,1.630
343.96,1.621
345.23,1.615
346.52,1.608
347.81,1.600
349.11,1.595
350.42,1.591
351.74,1.591
353.08,1.589
354.42,1.589
355.77,1.587
357.13,1.578
358.50,1.572
359.89,1.565
361.28,1.546
362.69,1.525
364.10,1.505
365.53,1.484
366.97,1.467
368.42,1.452
369.88,1.437
371.35,1.422
372.84,1.409
374.33,1.396
375.84,1.381
377.36,1.368
378.90,1.353
380.44,1.336
382.00,1.315
383.57,1.291
385.15,1.270
386.75,1.242
388.36,1.218
##END=
