##TITLE=2,2-Bis(phenylthio)propane
##JCAMP-DX=4.24
##DATA TYPE=UV/VIS SPECTRUM
##ORIGIN=INSTITUTE OF ENERGY PROBLEMS OF CHEMICAL PHYSICS, RAS
##OWNER=INEP CP RAS, NIST OSRD
Collection (C) 2007 copyright by the U.S. Secretary of Commerce
on behalf of the United States of America. All rights reserved.
##CAS REGISTRY NO=14252-46-1
##MOLFORM=C15H16S2
##MP=oil
##BP=dec
##SOURCE REFERENCE=RAS UV No. 10023
##$NIST SQUIB=1949FEH/CAR84
##$NIST SOURCE=TYUGLMTE
##SPECTROMETER/DATA SYSTEM=Beckman DU
##XUNITS=Wavelength (nm)
##YUNITS=Logarithm epsilon
##XFACTOR=1.0
##YFACTOR=1.0
##FIRSTX=223.47
##LASTX=325.78
##FIRSTY=4.268
##MAXX=325.78
##MINX=223.47
##MAXY=4.372
##MINY=0.488
##NPOINTS=101
##$REF AUTHOR=Fehnel, E.A.; Carmack, M.
##$REF JOURNAL=J. Am. Chem. Soc.
##$REF VOLUME=71
##$REF PAGE=84
##$REF DATE=1949
##XYPOINTS=(XY..XY)
223.47,4.268
224.40,4.286
225.34,4.311
227.22,4.341
228.16,4.347
229.10,4.360
230.04,4.366
230.97,4.372
231.91,4.372
232.85,4.372
233.79,4.366
234.73,4.347
236.61,4.317
237.55,4.311
238.48,4.280
239.42,4.256
240.36,4.225
241.30,4.182
243.18,4.103
244.12,4.042
245.05,3.969
245.99,3.877
246.93,3.786
247.87,3.712
248.81,3.657
249.75,3.621
250.69,3.584
252.56,3.529
253.50,3.511
254.44,3.499
255.38,3.499
256.32,3.505
257.26,3.517
259.13,3.541
260.07,3.560
261.01,3.560
261.95,3.584
262.89,3.590
263.83,3.596
264.77,3.615
267.58,3.627
268.52,3.627
269.46,3.627
270.40,3.621
271.34,3.621
272.27,3.621
273.21,3.615
274.15,3.602
276.03,3.584
276.97,3.566
277.91,3.560
278.84,3.535
279.78,3.511
280.72,3.499
281.66,3.480
282.60,3.450
285.42,3.383
286.35,3.352
287.29,3.322
288.23,3.291
289.17,3.242
290.11,3.206
291.05,3.181
291.99,3.114
292.92,3.065
293.86,3.004
294.80,2.967
295.74,2.919
297.62,2.760
298.56,2.680
299.49,2.607
300.43,2.485
301.37,2.381
302.31,2.296
303.25,2.198
304.19,2.113
305.13,1.991
306.06,1.899
308.88,1.649
309.82,1.569
311.70,1.417
312.64,1.331
313.57,1.270
314.51,1.178
315.45,1.117
316.39,1.050
317.33,0.989
318.27,0.904
319.21,0.843
320.14,0.782
321.08,0.727
322.02,0.659
322.96,0.617
323.90,0.562
324.37,0.543
324.60,0.537
324.84,0.525
325.07,0.519
325.31,0.507
325.54,0.501
325.78,0.488
##END=
