##TITLE=Bis(diethyldithiocarbamate)zinc complex
##JCAMP-DX=4.24
##DATA TYPE=UV/VIS SPECTRUM
##ORIGIN=INSTITUTE OF ENERGY PROBLEMS OF CHEMICAL PHYSICS, RAS
##OWNER=INEP CP RAS, NIST OSRD
Collection (C) 2007 copyright by the U.S. Secretary of Commerce
on behalf of the United States of America. All rights reserved.
##CAS REGISTRY NO=14324-55-1
##MOLFORM=C10H20N2S4Zn
##MP=179-181
##SOURCE REFERENCE=RAS UV No. 20163
##$NIST SQUIB=1969FIH/151
##$NIST SOURCE=TYUGLMTE
##SPECTROMETER/DATA SYSTEM=SF-4
##XUNITS=Wavelength (nm)
##YUNITS=Logarithm epsilon
##XFACTOR=1.0
##YFACTOR=1.0
##FIRSTX=214.94
##LASTX=318.58
##FIRSTY=4.307
##MAXX=318.58
##MINX=214.94
##MAXY=4.524
##MINY=2.57
##NPOINTS=137
##$REF AUTHOR=Fihtengolts, V.S.; et al.
##$REF JOURNAL=Atlas of UV Absorption Spectra of Substances Used in Synthetic Rubber Manufacture
##$REF PAGE=151
##$REF DATE=1969
##XYPOINTS=(XY..XY)
214.94,4.307
215.80,4.297
216.65,4.288
217.50,4.278
218.35,4.268
219.37,4.258
220.23,4.246
221.08,4.235
221.93,4.223
222.95,4.213
223.81,4.200
224.66,4.188
225.51,4.174
226.53,4.161
227.56,4.148
228.58,4.137
229.77,4.125
230.97,4.113
232.33,4.106
233.86,4.100
235.23,4.106
236.42,4.117
237.78,4.127
238.81,4.140
239.49,4.156
240.34,4.168
241.02,4.183
241.87,4.196
242.73,4.210
243.24,4.224
243.75,4.238
244.26,4.251
244.77,4.264
245.28,4.277
245.62,4.289
246.14,4.301
246.65,4.313
247.16,4.325
247.67,4.336
248.18,4.347
248.52,4.358
249.20,4.367
249.89,4.376
250.40,4.386
250.91,4.396
251.59,4.404
252.10,4.413
252.78,4.422
253.29,4.430
253.98,4.437
254.66,4.445
255.17,4.453
255.85,4.460
256.36,4.468
256.87,4.475
257.56,4.482
258.41,4.489
258.92,4.496
259.60,4.502
260.45,4.509
261.14,4.516
261.99,4.521
263.35,4.524
264.89,4.524
266.25,4.520
267.10,4.514
267.61,4.507
267.95,4.499
268.29,4.491
268.81,4.485
269.32,4.477
269.66,4.469
270.00,4.461
270.51,4.453
271.02,4.445
271.53,4.437
271.87,4.428
272.39,4.419
272.90,4.409
273.24,4.400
273.58,4.390
274.09,4.381
274.43,4.371
274.94,4.362
275.45,4.353
276.31,4.343
276.99,4.333
277.84,4.325
279.03,4.317
280.23,4.311
281.42,4.304
282.61,4.297
283.64,4.288
284.49,4.277
285.02,4.268
285.68,4.254
286.12,4.241
286.53,4.228
286.96,4.214
287.39,4.200
287.76,4.187
288.24,4.170
288.61,4.156
289.09,4.138
289.57,4.119
289.92,4.103
290.34,4.087
290.79,4.067
291.31,4.048
291.78,4.026
292.22,4.002
292.67,3.979
293.07,3.955
293.52,3.928
294.03,3.899
294.54,3.871
295.06,3.841
295.74,3.810
296.42,3.775
297.27,3.738
297.95,3.697
298.81,3.658
299.83,3.615
300.85,3.574
302.04,3.529
303.07,3.479
304.26,3.422
305.45,3.357
306.82,3.294
308.18,3.236
309.61,3.167
311.03,3.096
312.61,3.009
313.98,2.936
315.51,2.832
316.85,2.723
318.58,2.570
##END=
