##TITLE=4-Hydroxy-4'-nitroazobenzene
##JCAMP-DX=4.24
##DATA TYPE=UV/VIS SPECTRUM
##ORIGIN=INSTITUTE OF ENERGY PROBLEMS OF CHEMICAL PHYSICS, RAS
##OWNER=INEP CP RAS, NIST OSRD
Collection (C) 2007 copyright by the U.S. Secretary of Commerce
on behalf of the United States of America. All rights reserved.
##CAS REGISTRY NO=1435-60-5
##MOLFORM=C12H9N3O3
##MP=219-219.5
##SOURCE REFERENCE=RAS UV No. 23249
##$NIST SQUIB=1975GRA/187
##$NIST SOURCE=TYUGLMTE
##SPECTROMETER/DATA SYSTEM=Pye Unicam SP1800
##XUNITS=Wavelength (nm)
##YUNITS=Logarithm epsilon
##XFACTOR=1.0
##YFACTOR=1.0
##FIRSTX=209.036
##LASTX=493.591
##FIRSTY=4.063
##MAXX=493.591
##MINX=209.036
##MAXY=4.415
##MINY=2.794
##NPOINTS=127
##$REF AUTHOR=Grasso, D.; et al.
##$REF JOURNAL=Spectrohim. Acta
##$REF VOLUME=31A
##$REF PAGE=187
##$REF DATE=1975
##XYPOINTS=(XY..XY)
209.036,4.063
211.036,4.049
213.036,4.037
215.036,4.027
217.036,4.016
219.036,4.004
221.036,3.992
223.036,3.981
225.036,3.972
227.036,3.964
229.036,3.959
231.036,3.956
233.036,3.953
235.036,3.951
237.036,3.949
239.036,3.946
243.036,3.945
246.051,3.956
249.753,3.956
253.917,3.947
257.619,3.923
259.932,3.900
262.395,3.878
264.395,3.864
266.395,3.847
268.395,3.829
270.395,3.809
272.395,3.788
274.395,3.767
276.395,3.745
278.395,3.724
280.395,3.704
282.395,3.685
284.395,3.668
286.395,3.654
288.395,3.642
290.395,3.635
292.395,3.631
294.395,3.631
296.395,3.635
298.395,3.643
300.395,3.655
302.395,3.670
304.395,3.688
306.395,3.709
308.395,3.732
310.828,3.764
312.828,3.798
314.828,3.832
316.828,3.867
318.828,3.903
320.828,3.938
322.828,3.973
324.828,4.007
326.828,4.041
328.828,4.074
330.828,4.105
332.828,4.136
334.828,4.166
336.828,4.194
338.828,4.220
340.828,4.246
342.828,4.269
344.828,4.291
346.828,4.312
348.828,4.330
350.828,4.347
352.828,4.363
354.828,4.376
356.828,4.387
358.828,4.397
360.828,4.405
362.828,4.410
364.828,4.414
366.828,4.415
368.828,4.414
370.828,4.411
372.828,4.405
374.828,4.397
376.828,4.386
378.828,4.373
380.828,4.357
382.828,4.338
384.828,4.317
386.828,4.292
388.828,4.264
390.828,4.233
392.828,4.199
394.828,4.162
396.828,4.121
398.828,4.077
400.828,4.030
402.828,3.978
404.828,3.923
406.828,3.864
409.068,3.784
411.068,3.719
413.068,3.660
415.068,3.606
417.068,3.554
419.068,3.504
421.068,3.456
423.068,3.408
425.068,3.363
427.068,3.322
429.068,3.283
431.068,3.250
433.068,3.221
435.068,3.197
437.068,3.179
439.068,3.166
441.068,3.156
443.068,3.149
445.068,3.143
447.447,3.135
451.292,3.122
455.138,3.109
458.983,3.096
462.828,3.083
466.674,3.064
470.519,3.045
474.364,3.013
478.210,2.974
482.055,2.935
485.900,2.890
489.746,2.845
493.591,2.794
##END=
