##TITLE=2,2-dimethyl-3-phenyl-2H-azirine
##JCAMP-DX=4.24
##DATA TYPE=UV/VIS SPECTRUM
##ORIGIN=INSTITUTE OF ENERGY PROBLEMS OF CHEMICAL PHYSICS, RAS
##OWNER=INEP CP RAS, NIST OSRD
Collection (C) 2007 copyright by the U.S. Secretary of Commerce
on behalf of the United States of America. All rights reserved.
##CAS REGISTRY NO=14491-02-2
##MOLFORM=C10H11N
##BP=96/17 mm
##SOURCE REFERENCE=RAS UV No. 22728
##$NIST SQUIB=1977GER/687
##$NIST SOURCE=TYUGLMTE
##SPECTROMETER/DATA SYSTEM=unknown
##XUNITS=Wavelength (nm)
##YUNITS=Logarithm epsilon
##XFACTOR=1.0
##YFACTOR=1.0
##FIRSTX=213.234
##LASTX=300.556
##FIRSTY=3.99
##MAXX=300.556
##MINX=213.234
##MAXY=4.2
##MINY=1.891
##NPOINTS=91
##$REF AUTHOR=Gerber, U.; et al.
##$REF JOURNAL=Helv. Chim. Acta
##$REF VOLUME=60
##$REF PAGE=687
##$REF DATE=1977
##XYPOINTS=(XY..XY)
213.234,3.990
214.234,3.950
215.234,3.915
216.234,3.887
217.234,3.867
218.234,3.854
219.234,3.850
220.234,3.852
221.234,3.860
222.234,3.873
223.234,3.890
224.234,3.908
225.234,3.928
226.234,3.948
227.234,3.969
228.234,3.989
229.234,4.008
230.234,4.027
231.234,4.047
232.122,4.064
233.122,4.084
234.122,4.103
235.122,4.122
236.122,4.139
237.122,4.154
238.122,4.168
239.122,4.179
240.122,4.187
241.122,4.194
242.122,4.198
243.122,4.200
244.122,4.200
245.122,4.198
246.122,4.194
247.122,4.188
248.122,4.179
249.122,4.170
250.122,4.158
251.009,4.146
252.009,4.131
253.009,4.111
254.009,4.087
255.009,4.062
256.009,4.034
257.009,4.004
258.009,3.972
259.009,3.938
260.009,3.901
261.009,3.861
262.009,3.819
263.009,3.774
264.009,3.727
264.062,3.725
265.062,3.669
266.062,3.613
267.062,3.555
268.062,3.495
269.062,3.433
270.062,3.373
271.062,3.321
272.062,3.286
273.062,3.270
274.062,3.273
274.921,3.278
275.811,3.254
276.811,3.230
277.811,3.243
278.623,3.271
279.308,3.285
280.131,3.258
280.593,3.198
281.646,3.157
282.646,3.133
283.646,3.126
284.646,3.136
285.646,3.150
286.646,3.147
287.556,3.101
288.556,3.022
289.556,2.953
290.556,2.893
291.556,2.841
292.556,2.794
293.556,2.749
294.556,2.701
295.556,2.644
296.556,2.573
297.556,2.480
298.556,2.355
299.556,2.175
300.556,1.891
##END=
