##TITLE=Carbamodithioic acid, diethyl-, (Na-salt)
##JCAMP-DX=4.24
##DATA TYPE=UV/VIS SPECTRUM
##ORIGIN=INSTITUTE OF ENERGY PROBLEMS OF CHEMICAL PHYSICS, RAS
##OWNER=INEP CP RAS, NIST OSRD
Collection (C) 2007 copyright by the U.S. Secretary of Commerce
on behalf of the United States of America. All rights reserved.
##CAS REGISTRY NO=147-84-2
##MOLFORM=C5H11NS2
##SOURCE REFERENCE=RAS UV No. 20159
##$NIST SQUIB=1969FIH/140
##$NIST SOURCE=TYUGLMTE
##SPECTROMETER/DATA SYSTEM=SF-4
##XUNITS=Wavelength (nm)
##YUNITS=Logarithm epsilon
##XFACTOR=1.0
##YFACTOR=1.0
##FIRSTX=209.59
##LASTX=314.86
##FIRSTY=4.048
##MAXX=314.86
##MINX=209.59
##MAXY=4.161
##MINY=2.785
##NPOINTS=104
##$REF AUTHOR=Fihtengolts, V.S.; et al.
##$REF JOURNAL=Atlas of UV Absorption Spectra of Substances Used in Synthetic Rubber Manufacture
##$REF PAGE=140
##$REF DATE=1969
##XYPOINTS=(XY..XY)
209.59,4.048
209.76,4.046
210.06,4.042
210.57,4.037
211.33,4.027
211.96,4.018
212.75,4.005
213.69,3.991
214.72,3.976
215.75,3.960
216.78,3.942
217.80,3.918
218.83,3.901
219.86,3.888
220.88,3.882
221.91,3.877
222.94,3.873
223.97,3.872
224.99,3.873
226.02,3.875
227.05,3.877
228.07,3.883
229.10,3.890
230.13,3.899
231.16,3.907
232.18,3.917
233.21,3.929
234.24,3.942
235.26,3.956
236.29,3.970
237.32,3.982
238.34,3.992
239.37,4.005
240.40,4.016
241.43,4.029
242.45,4.041
243.48,4.050
244.51,4.062
245.53,4.073
246.56,4.085
247.59,4.097
248.62,4.106
249.64,4.115
250.67,4.121
251.70,4.127
252.72,4.132
253.75,4.132
254.78,4.129
255.81,4.117
256.83,4.101
257.86,4.085
258.89,4.066
259.91,4.045
260.94,4.026
261.97,4.001
263.00,3.978
264.02,3.960
265.05,3.946
266.08,3.936
267.10,3.927
268.13,3.921
269.16,3.918
270.18,3.918
271.21,3.920
272.24,3.924
273.27,3.933
274.29,3.940
275.32,3.953
276.35,3.968
277.37,3.990
278.40,4.006
279.43,4.028
280.46,4.045
281.48,4.071
282.51,4.097
283.54,4.122
284.56,4.143
285.59,4.157
286.62,4.161
287.65,4.161
288.67,4.158
289.70,4.148
290.73,4.107
291.75,4.054
292.78,3.995
293.81,3.926
294.98,3.841
295.91,3.774
296.89,3.700
297.79,3.629
298.85,3.559
300.02,3.492
301.19,3.433
303.05,3.350
303.91,3.302
304.76,3.249
305.79,3.196
306.82,3.144
307.84,3.076
309.04,3.007
310.09,2.948
311.78,2.878
313.30,2.832
314.86,2.785
##END=
