##TITLE=9-Methylcarbazole
##JCAMP-DX=4.24
##DATA TYPE=UV/VIS SPECTRUM
##ORIGIN=INSTITUTE OF ENERGY PROBLEMS OF CHEMICAL PHYSICS, RAS
##OWNER=INEP CP RAS, NIST OSRD
Collection (C) 2007 copyright by the U.S. Secretary of Commerce
on behalf of the United States of America. All rights reserved.
##CAS REGISTRY NO=1484-12-4
##MOLFORM=C13H11N
##MP=89.34
##BP=195(12)
##SOURCE REFERENCE=RAS UV No. 5683
##$NIST SQUIB=1951SCH/WIL1740-1747
##$NIST SOURCE=TSGMTE
##SPECTROMETER/DATA SYSTEM=Beckman DU
##XUNITS=Wavelength (nm)
##YUNITS=Logarithm epsilon
##XFACTOR=1.000000
##YFACTOR=1.000000
##FIRSTX=217.7439
##LASTX=350.2029
##FIRSTY=4.36195
##MAXX=350.203
##MINX=217.744
##MAXY=4.61607
##MINY=2.87729
##NPOINTS=314
##$REF AUTHOR=Schroeder, W.A.; Wilcox, P.E.; Trueblood, K.N.; Dekker, A.O.
##$REF TITLE=Ultraviolet and visible absorption spectra in ethyl alcohol. Data for certain nitric esters, nitramines, nitroalkylbenzenes, and derivatives of phenol, aniline, urea, carbamic acid, diphenylamine, carbazole, and triphenylamine
##$REF JOURNAL=Anal. Chem.
##$REF VOLUME=23
##$REF NUMBER=12
##$REF PAGE=1740-1747
##$REF DATE=1951
##XYPOINTS=(XY..XY)
217.7439,4.361953
218.6979,4.379403
219.6117,4.395510
220.4862,4.410410
221.3226,4.424219
222.1217,4.437039
222.8847,4.448956
223.6126,4.460048
224.3063,4.470382
224.9670,4.480018
225.5956,4.489008
226.1931,4.497401
226.7606,4.505241
227.2991,4.512565
227.8095,4.519410
228.2930,4.525807
228.7505,4.531788
229.1832,4.537378
229.5919,4.542603
229.9777,4.547488
230.3417,4.552052
230.6848,4.556319
231.0080,4.560305
231.3125,4.564031
231.5992,4.567512
231.8691,4.570766
232.1233,4.573807
232.3628,4.576651
232.5885,4.579311
232.8016,4.581802
233.0030,4.584138
233.1938,4.586329
233.3750,4.588389
233.5476,4.590331
233.7125,4.592165
233.8710,4.593904
234.0239,4.595558
234.1722,4.597138
234.3171,4.598657
234.4595,4.600123
234.6005,4.601548
234.7411,4.602941
234.8822,4.604314
235.0249,4.605676
235.1703,4.607038
235.3193,4.608408
235.4730,4.609798
235.6324,4.611215
235.6324,4.611215
236.1152,4.611207
236.3586,4.612787
236.3625,4.613932
236.3663,4.615015
236.3699,4.616067
236.6113,4.611199
237.1341,4.611190
237.1341,4.611190
237.2580,4.607015
237.3827,4.602801
237.5084,4.598546
237.6349,4.594250
237.7624,4.589912
237.8910,4.585532
238.0207,4.581107
238.1516,4.576638
238.2837,4.572124
238.4170,4.567563
238.5518,4.562954
238.6879,4.558297
238.8254,4.553590
238.9645,4.548832
239.1051,4.544022
239.2474,4.539160
239.3913,4.534242
239.5369,4.529269
239.6844,4.524239
239.8337,4.519151
239.9849,4.514003
240.1381,4.508794
240.2932,4.503521
240.4505,4.498185
240.6099,4.492783
240.7715,4.487313
240.9353,4.481773
241.1015,4.476163
241.2700,4.470479
241.4409,4.464720
241.6143,4.458884
241.7903,4.452968
241.9687,4.446971
242.1499,4.440890
242.3338,4.434723
242.5204,4.428466
242.7098,4.422119
242.9021,4.415677
243.0974,4.409137
243.2955,4.402498
243.4969,4.395755
243.7012,4.388906
243.9087,4.381946
244.1195,4.374873
244.3335,4.367682
244.5508,4.360369
244.7715,4.352931
244.9957,4.345362
245.2234,4.337658
245.4546,4.329814
245.6894,4.321825
245.9279,4.313685
246.1701,4.305389
246.4161,4.296930
246.6659,4.288301
246.9197,4.279497
247.1774,4.270508
247.4391,4.261329
247.7048,4.251949
247.9747,4.242360
248.2488,4.232553
248.5271,4.222518
248.8097,4.212243
249.0967,4.201717
249.3880,4.190927
249.6839,4.179859
249.9843,4.168500
250.2891,4.156832
250.5987,4.144839
250.9130,4.132502
251.2320,4.119802
251.5558,4.106715
251.5558,4.106715
251.8729,4.105727
252.2165,4.104547
252.5734,4.103268
252.5734,4.103268
253.0545,4.108057
253.5056,4.115242
253.9282,4.124446
254.3243,4.135285
254.6956,4.147391
255.0440,4.160413
255.3713,4.174030
255.6792,4.187949
255.9697,4.201913
256.2444,4.215692
256.5054,4.229087
256.7542,4.241920
256.9928,4.254035
257.2230,4.265294
257.4465,4.275568
257.6653,4.284741
257.8810,4.292700
258.0956,4.299332
258.3108,4.304525
258.3108,4.304525
258.9511,4.309476
259.7360,4.313142
261.3386,4.318657
261.3386,4.318657
261.4307,4.316726
261.5275,4.314287
261.6291,4.311340
261.7356,4.307883
261.8473,4.303913
261.9644,4.299424
262.0869,4.294410
262.2153,4.288861
262.3494,4.282767
262.4897,4.276115
262.6363,4.268889
262.7893,4.261071
262.9490,4.252642
263.1155,4.243577
263.2890,4.233849
263.4697,4.223429
263.6577,4.212280
263.8534,4.200364
264.0567,4.187635
264.2681,4.174042
264.4875,4.159525
264.7153,4.144016
264.9515,4.127437
265.1965,4.109697
265.4502,4.090691
265.7131,4.070293
265.9852,4.048357
266.2666,4.024708
266.5577,3.999135
266.8586,3.971382
267.1694,3.941132
267.4904,3.907988
267.8218,3.871443
267.8218,3.871443
268.4841,3.844466
269.1336,3.816550
269.8769,3.787490
270.8208,3.757030
272.0720,3.724855
273.7372,3.690567
273.7372,3.690567
274.6422,3.694827
275.5606,3.699043
276.5057,3.703215
276.5057,3.703215
277.2194,3.739080
277.8725,3.771671
278.4821,3.801520
279.0650,3.829047
279.6382,3.854588
280.2188,3.878413
280.8236,3.900748
281.4696,3.921779
282.1739,3.941664
282.9533,3.960537
283.8248,3.978513
284.8054,3.995692
285.9120,4.012161
287.1617,4.027995
287.1617,4.027995
287.7687,4.044707
288.3156,4.060827
288.8086,4.076385
289.2536,4.091410
289.6569,4.105927
290.0243,4.119961
290.3620,4.133534
290.6761,4.146664
290.9725,4.159372
291.2575,4.171673
291.5369,4.183583
291.8169,4.195117
292.1036,4.206287
292.1036,4.206287
292.5259,4.207611
292.9481,4.208931
293.6863,4.208554
294.0288,4.206779
294.3844,4.204846
294.3844,4.204846
294.4578,4.194141
294.5218,4.183109
294.5776,4.171734
294.6264,4.160001
294.6694,4.147891
294.7079,4.135386
294.7430,4.122464
294.7760,4.109103
294.8082,4.095277
294.8406,4.080960
294.8747,4.066120
294.9115,4.050724
294.9524,4.034735
294.9984,4.018112
295.0510,4.000808
295.1112,3.982772
295.1803,3.963945
295.2596,3.944260
295.3501,3.923644
295.4533,3.902008
295.5703,3.879255
295.7023,3.855267
295.8505,3.829910
296.0162,3.803024
296.2006,3.774419
296.4049,3.743865
296.6303,3.711084
296.8781,3.675726
297.1495,3.637357
297.4457,3.595417
297.7679,3.549172
298.1174,3.497629
298.4953,3.439409
298.9030,3.372497
299.3415,3.293796
299.3415,3.293796
300.8081,3.240460
302.3912,3.203068
304.0712,3.183592
305.8286,3.181657
307.6439,3.194653
309.4974,3.218614
311.3696,3.249308
313.2409,3.283001
315.0918,3.316739
316.9026,3.348332
318.6540,3.376181
320.3262,3.399053
320.3262,3.399053
323.2563,3.448705
325.1961,3.484126
327.8085,3.534972
327.8085,3.534972
330.1555,3.522125
331.8859,3.499811
333.3183,3.472026
334.7710,3.443635
336.5625,3.420862
339.0111,3.411096
339.0111,3.411096
340.3384,3.491603
341.3779,3.534345
343.0207,3.581405
343.0207,3.581405
343.5035,3.581320
343.9996,3.581232
344.5224,3.581139
344.5224,3.581139
345.2752,3.539302
345.8806,3.489072
346.4062,3.429268
346.9196,3.358145
347.4884,3.273099
348.1801,3.170081
349.0625,3.042335
350.2029,2.877287
##END=
