##TITLE=3-Pyridinecarbonitrile, 1-oxide
##JCAMP-DX=4.24
##DATA TYPE=UV/VIS SPECTRUM
##ORIGIN=INSTITUTE OF ENERGY PROBLEMS OF CHEMICAL PHYSICS, RAS
##OWNER=INEP CP RAS, NIST OSRD
Collection (C) 2007 copyright by the U.S. Secretary of Commerce
on behalf of the United States of America. All rights reserved.
##CAS REGISTRY NO=14906-64-0
##MOLFORM=C6H4N2O
##MP=176
##SOURCE REFERENCE=RAS UV No. 20001
##$NIST SQUIB=1965LAN265
##$NIST SOURCE=TYUGLMTE
##SPECTROMETER/DATA SYSTEM=Beckman DU
##XUNITS=Wavelength (nm)
##YUNITS=Logarithm epsilon
##XFACTOR=1.0
##YFACTOR=1.0
##FIRSTX=202.88
##LASTX=360.4
##FIRSTY=4.012
##MAXX=360.4
##MINX=202.88
##MAXY=4.449
##MINY=0.763
##NPOINTS=195
##$REF AUTHOR=Lang (editor), L.
##$REF JOURNAL=Absorption Spectra in the Ultraviolet and Visible Region
##$REF VOLUME=6
##$REF PAGE=265
##$REF DATE=1965
##XYPOINTS=(XY..XY)
202.88,4.012
203.05,4.016
203.22,4.019
203.39,4.023
203.56,4.023
203.73,4.026
203.90,4.029
204.07,4.029
204.23,4.033
204.40,4.036
204.57,4.040
205.42,4.050
206.27,4.067
207.11,4.084
207.96,4.100
208.81,4.121
209.65,4.138
210.50,4.155
211.35,4.175
212.20,4.195
213.04,4.219
213.89,4.242
214.74,4.263
215.58,4.290
216.43,4.310
217.28,4.334
218.12,4.357
218.97,4.374
219.82,4.401
220.66,4.422
221.51,4.439
222.36,4.445
223.21,4.449
224.05,4.442
224.90,4.425
225.75,4.391
226.59,4.341
227.44,4.239
228.29,4.114
229.13,3.948
229.98,3.820
230.83,3.617
231.67,3.478
232.52,3.390
233.37,3.343
234.21,3.326
235.06,3.319
235.91,3.312
236.76,3.319
237.60,3.326
238.45,3.340
239.30,3.360
240.14,3.380
240.99,3.411
241.84,3.438
242.68,3.465
243.53,3.495
244.38,3.526
245.22,3.553
246.07,3.583
246.92,3.617
247.77,3.647
248.61,3.681
249.46,3.708
250.31,3.739
251.15,3.769
252.00,3.789
252.85,3.820
253.69,3.840
254.54,3.867
255.39,3.891
256.23,3.911
257.08,3.928
257.93,3.948
258.78,3.969
259.62,3.982
260.47,3.996
261.32,4.009
262.16,4.016
263.01,4.029
263.86,4.029
264.70,4.029
265.55,4.029
266.40,4.026
267.24,4.016
268.09,4.012
268.94,3.999
269.79,3.982
270.63,3.965
271.48,3.941
272.33,3.914
273.17,3.891
274.02,3.854
274.87,3.820
275.71,3.772
276.56,3.732
277.41,3.688
278.25,3.647
279.10,3.600
279.95,3.556
280.79,3.512
281.64,3.468
282.49,3.424
283.34,3.373
284.18,3.333
285.03,3.268
285.88,3.231
286.72,3.184
287.57,3.147
288.42,3.113
289.26,3.079
290.11,3.045
290.96,3.015
291.80,2.995
292.65,2.974
293.50,2.954
294.35,2.940
295.19,2.927
296.04,2.913
296.89,2.907
297.73,2.896
298.58,2.893
299.43,2.893
300.27,2.893
301.12,2.893
301.97,2.893
302.81,2.893
303.66,2.893
304.51,2.893
305.36,2.893
306.20,2.893
307.05,2.893
307.90,2.890
308.74,2.890
309.59,2.886
310.44,2.880
311.28,2.880
312.13,2.876
312.98,2.876
313.82,2.869
314.67,2.863
315.52,2.859
316.36,2.849
317.21,2.842
318.06,2.839
318.91,2.822
319.75,2.812
320.60,2.802
321.45,2.788
322.29,2.775
323.14,2.758
323.99,2.741
324.83,2.721
325.68,2.700
326.53,2.677
327.37,2.656
328.22,2.629
329.07,2.595
329.92,2.572
330.76,2.541
331.61,2.504
332.46,2.464
333.30,2.430
334.15,2.396
335.00,2.359
335.84,2.318
336.69,2.281
337.54,2.240
338.38,2.200
339.23,2.163
340.08,2.112
340.93,2.068
341.77,2.021
342.62,1.994
343.47,1.963
344.31,1.902
345.16,1.851
346.01,1.801
346.85,1.750
347.70,1.693
348.55,1.635
349.39,1.581
350.24,1.523
351.09,1.459
351.93,1.405
352.78,1.337
353.63,1.277
354.48,1.209
355.32,1.148
356.17,1.084
357.02,1.030
357.86,0.969
358.71,0.908
359.56,0.854
360.40,0.763
##END=
