##TITLE=Pyridine, 3-methoxy-, 1-oxide
##JCAMP-DX=4.24
##DATA TYPE=UV/VIS SPECTRUM
##ORIGIN=INSTITUTE OF ENERGY PROBLEMS OF CHEMICAL PHYSICS, RAS
##OWNER=INEP CP RAS, NIST OSRD
Collection (C) 2007 copyright by the U.S. Secretary of Commerce
on behalf of the United States of America. All rights reserved.
##CAS REGISTRY NO=14906-61-7
##MOLFORM=C6H7NO2
##MP=101-102
##SOURCE REFERENCE=RAS UV No. 22193
##$NIST SQUIB=1985CIG/1287
##$NIST SOURCE=TYUGLMTE
##SPECTROMETER/DATA SYSTEM=Varian 2000
##XUNITS=Wavelength (nm)
##YUNITS=Logarithm epsilon
##XFACTOR=1.0
##YFACTOR=1.0
##FIRSTX=222.054
##LASTX=328.908
##FIRSTY=3.97
##MAXX=328.908
##MINX=222.054
##MAXY=4.155
##MINY=2.119
##NPOINTS=93
##$REF AUTHOR=Cignitti, M.; et al.
##$REF JOURNAL=Spectrochim. Acta
##$REF VOLUME=41A
##$REF PAGE=1287
##$REF DATE=1985
##XYPOINTS=(XY..XY)
222.054,3.970
223.254,4.015
224.454,4.055
225.654,4.089
226.854,4.117
228.054,4.138
229.254,4.151
230.454,4.155
231.654,4.149
232.854,4.132
234.054,4.102
235.254,4.059
236.454,4.000
237.654,3.925
238.854,3.832
239.824,3.707
241.193,3.485
242.393,3.329
243.593,3.240
244.793,3.202
245.993,3.201
247.193,3.224
248.393,3.262
249.593,3.309
250.793,3.359
251.993,3.410
253.193,3.459
254.393,3.507
255.481,3.552
256.681,3.589
257.881,3.636
259.081,3.688
260.281,3.743
261.481,3.794
262.681,3.842
263.881,3.885
265.081,3.927
266.281,3.969
267.481,4.011
268.681,4.053
269.881,4.089
271.081,4.115
272.281,4.125
273.481,4.118
274.681,4.093
275.881,4.055
277.081,4.009
278.281,3.961
279.481,3.914
279.596,3.913
280.796,3.857
281.996,3.799
283.196,3.741
284.396,3.685
285.596,3.631
286.796,3.581
287.996,3.536
289.196,3.496
290.396,3.460
291.596,3.430
292.796,3.405
293.996,3.386
295.196,3.372
296.396,3.363
297.596,3.359
298.796,3.360
299.996,3.366
301.196,3.374
302.396,3.386
302.412,3.386
303.612,3.401
304.812,3.412
306.012,3.425
307.212,3.436
308.412,3.438
309.612,3.425
310.812,3.395
312.012,3.355
313.212,3.311
314.412,3.273
315.612,3.246
316.812,3.231
318.012,3.223
319.212,3.215
320.412,3.195
321.612,3.156
322.262,3.126
322.908,3.088
324.108,3.023
325.308,2.957
326.508,2.848
327.708,2.612
328.908,2.119
##END=
