##TITLE=Benzyldisulfide
##JCAMP-DX=4.24
##DATA TYPE=UV/VIS SPECTRUM
##ORIGIN=INSTITUTE OF ENERGY PROBLEMS OF CHEMICAL PHYSICS, RAS
##OWNER=INEP CP RAS, NIST OSRD
Collection (C) 2007 copyright by the U.S. Secretary of Commerce
on behalf of the United States of America. All rights reserved.
##CAS REGISTRY NO=150-60-7
##MOLFORM=C14H14S2
##MP=71.5
##SOURCE REFERENCE=RAS UV No. 695
##$NIST SQUIB=1951BON464-465
##$NIST SOURCE=TSGMTE
##SPECTROMETER/DATA SYSTEM=Beckman DU
##XUNITS=Wavelength (nm)
##YUNITS=Logarithm epsilon
##XFACTOR=1.000000
##YFACTOR=1.000000
##FIRSTX=232.8790
##LASTX=306.2053
##FIRSTY=3.98448
##MAXX=306.205
##MINX=232.879
##MAXY=3.98448
##MINY=1.51604
##NPOINTS=183
##$REF AUTHOR=Bonner, W.A.
##$REF TITLE=The action of direct current on aqueous solutions of S-benzyl- and S-1-naphthylmethylthiuronium chlorides
##$REF JOURNAL=J. Am. Chem. Soc.
##$REF VOLUME=73
##$REF PAGE=464-465
##$REF DATE=1951
##XYPOINTS=(XY..XY)
232.8790,3.984478
232.8790,3.984478
233.4552,3.967620
234.0330,3.950755
234.6124,3.933876
235.1928,3.916975
235.7740,3.900045
236.3555,3.883079
236.3555,3.883079
237.2249,3.858629
238.0644,3.833781
238.8258,3.810528
239.4610,3.790861
239.9216,3.776774
240.1596,3.770257
240.4350,3.760390
240.9285,3.744803
241.4202,3.729079
241.9100,3.713227
242.3980,3.697259
242.8843,3.681183
243.3688,3.665009
243.8518,3.648746
244.3333,3.632406
244.8133,3.615997
245.2918,3.599529
245.7690,3.583013
246.2450,3.566457
246.7197,3.549871
247.1932,3.533266
247.6656,3.516651
247.6656,3.516651
247.7197,3.512474
247.7767,3.508240
247.8394,3.503891
247.8394,3.503891
247.9043,3.503904
247.9720,3.503917
248.0455,3.503932
248.0455,3.503932
248.3048,3.497524
248.6002,3.487700
249.1848,3.466038
249.7853,3.449969
250.0049,3.447702
250.2135,3.444620
250.5876,3.442559
251.0818,3.432997
252.3895,3.397235
252.9869,3.379667
253.2499,3.372592
253.4731,3.364020
253.6766,3.360001
253.9476,3.353908
254.3182,3.345105
254.8200,3.332957
255.4851,3.316827
256.3451,3.296079
257.4321,3.270077
258.7778,3.238185
258.7778,3.238185
259.2389,3.227243
259.7284,3.216423
260.1216,3.203726
260.1216,3.203726
260.2119,3.203474
260.3022,3.203163
260.3926,3.202737
260.3926,3.202737
261.4977,3.181179
262.3340,3.164966
262.9960,3.152355
263.5780,3.141599
264.1743,3.130957
264.8793,3.118683
265.7875,3.103033
265.7875,3.103033
266.3066,3.091362
267.1044,3.073772
268.0197,3.053086
268.8911,3.032130
269.5573,3.013730
269.8569,3.000710
269.8569,3.000710
270.6198,2.983895
271.2262,2.963547
271.8115,2.941873
272.5111,2.921079
272.5111,2.921079
272.8766,2.904354
273.2370,2.887524
273.5927,2.870597
273.9440,2.853577
274.2914,2.836473
274.6350,2.819290
274.9752,2.802035
275.3124,2.784715
275.6470,2.767337
275.9792,2.749906
276.3093,2.732430
276.6378,2.714914
276.9650,2.697367
277.2911,2.679793
277.6166,2.662200
277.9417,2.644595
277.9417,2.644595
278.4780,2.624857
279.0438,2.603951
279.5521,2.582053
279.7459,2.590645
279.7477,2.586989
279.7495,2.583334
279.7513,2.579678
279.9160,2.559343
279.9160,2.559343
280.4807,2.543672
281.0300,2.528016
281.5662,2.512331
282.0916,2.496570
282.6088,2.480689
283.1201,2.464642
283.6278,2.448384
284.1345,2.431869
284.6425,2.415051
285.1542,2.397886
285.6720,2.380328
285.6720,2.380328
285.9142,2.368766
286.1244,2.358605
286.3238,2.348718
286.5336,2.337977
286.7748,2.325256
287.0685,2.309428
287.4359,2.289365
287.8980,2.263941
288.4760,2.232029
289.1911,2.192502
289.1911,2.192502
289.6747,2.176279
290.1748,2.153597
290.7009,2.131997
291.2626,2.119021
291.2626,2.119021
291.6546,2.099360
292.1289,2.080433
292.6482,2.061820
293.1750,2.043100
293.6720,2.023851
294.1018,2.003653
294.1018,2.003653
294.5924,1.987718
295.0600,1.971468
295.5092,1.954956
295.9446,1.938231
296.3710,1.921345
296.7931,1.904348
297.2154,1.887291
297.6427,1.870225
298.0797,1.853202
298.5309,1.836271
299.0012,1.819483
299.4951,1.802890
299.4951,1.802890
299.5209,1.795912
299.5951,1.789698
299.8781,1.783643
299.8781,1.783643
300.2580,1.767227
300.6524,1.750815
301.0586,1.734397
301.4739,1.717966
301.8957,1.701508
302.3214,1.685016
302.7482,1.668480
303.1736,1.651889
303.5948,1.635234
304.0093,1.618507
304.4144,1.601695
304.8073,1.584790
305.1856,1.567781
305.5464,1.550660
305.8872,1.533416
306.2053,1.516041
##END=
