##TITLE=p-Aminobenzoic acid
##JCAMP-DX=4.24
##DATA TYPE=UV/VIS SPECTRUM
##ORIGIN=INSTITUTE OF ENERGY PROBLEMS OF CHEMICAL PHYSICS, RAS
##OWNER=INEP CP RAS, NIST OSRD
Collection (C) 2007 copyright by the U.S. Secretary of Commerce
on behalf of the United States of America. All rights reserved.
##CAS REGISTRY NO=150-13-0
##MOLFORM=C7H7NO2
##MP=188.5
##SOURCE REFERENCE=RAS UV No. 409
##$NIST SQUIB=1951GRA220-226
##$NIST SOURCE=TSGMTE
##SPECTROMETER/DATA SYSTEM=n.i.g.
##XUNITS=Wavelength (nm)
##YUNITS=Logarithm epsilon
##XFACTOR=1.000000
##YFACTOR=1.000000
##FIRSTX=356.0222
##LASTX=244.3919
##FIRSTY=0.93225
##MAXX=356.022
##MINX=244.392
##MAXY=4.30241
##MINY=0.93225
##NPOINTS=760
##$REF AUTHOR=Grammaticakis, P.
##$REF TITLE=Contribution a l'etude de l'absorption dans l'ultraviolet moyen et le visible des arylamines isomeres et de leurs derives N substitues (Premier memoire)
##$REF JOURNAL=Bull. Soc. Chim. Fr.
##$REF VOLUME=18
##$REF PAGE=220-226
##$REF DATE=1951
##XYPOINTS=(XY..XY)
356.0222,0.932250
355.8133,1.007581
355.6887,1.037275
355.6277,0.953832
355.6022,0.981293
355.5664,1.019839
355.5414,1.046772
355.3901,0.980213
355.3662,0.953784
355.3049,1.019793
355.1946,0.979257
355.1050,0.953736
355.0439,1.019743
355.0075,0.978541
355.0075,0.978541
355.0002,0.986463
354.9422,0.970096
354.9416,0.997539
354.8850,0.961772
354.8665,1.008617
354.8443,0.953687
354.8443,0.953687
354.7832,1.019694
354.7832,1.019694
354.7783,1.024974
354.1490,1.095501
353.7830,1.138347
353.5381,1.170916
353.2731,1.210610
353.2731,1.210610
353.2372,1.233412
353.1145,1.252562
352.8001,1.284467
352.8001,1.284467
352.6810,1.292522
352.5536,1.300813
352.4099,1.309217
352.4099,1.309217
352.3276,1.347248
352.2289,1.385395
352.1219,1.423775
352.1219,1.423775
351.9996,1.425493
351.8608,1.427442
351.7139,1.429508
351.7139,1.429508
350.9402,1.556651
350.7853,1.596762
350.6144,1.636871
350.6144,1.636871
350.3511,1.646855
350.0882,1.656841
349.9844,1.691680
349.8578,1.690736
349.8257,1.666826
349.8257,1.666826
349.8167,1.684293
349.4012,1.696850
349.1633,1.765873
349.0147,1.812627
348.9280,1.848416
348.8755,1.884542
348.8299,1.932305
348.8299,1.932305
348.5378,1.959733
348.3290,1.974619
348.0248,1.989720
348.0248,1.989720
348.0103,2.006091
347.9778,1.990396
347.9615,2.008722
347.9147,1.991303
347.8969,2.011350
347.8435,1.992326
347.8243,2.013977
347.8046,2.036157
347.7999,2.041457
347.7950,2.046875
347.7900,2.052527
347.1631,2.115258
346.8643,2.154950
346.6605,2.176819
346.5255,2.232916
346.3774,2.199612
346.3774,2.199612
346.3241,2.231840
346.1385,2.230884
346.0906,2.213719
345.9827,2.221640
345.9608,2.230165
345.9608,2.230165
345.9515,2.240726
345.9427,2.250760
345.9338,2.260793
345.9250,2.270827
345.9250,2.270827
345.7436,2.274489
345.7218,2.300893
345.7218,2.300893
345.6030,2.303530
345.5873,2.294529
345.5546,2.278149
345.4685,2.306281
345.4609,2.288166
345.3502,2.281806
345.3502,2.281806
345.3261,2.309266
345.3261,2.309266
345.2494,2.344658
345.1570,2.380164
345.0565,2.415904
345.0565,2.415904
344.3936,2.479075
343.8971,2.523500
343.4865,2.568763
343.4865,2.568763
343.4265,2.585809
343.3508,2.603087
343.2674,2.620480
343.2674,2.620480
343.1511,2.622198
343.0192,2.624148
342.8796,2.626213
342.8796,2.626213
342.8198,2.643259
342.7444,2.660537
342.6612,2.677930
342.6612,2.677930
342.1862,2.721236
341.8220,2.757582
341.3831,2.806689
340.6858,2.888274
340.6858,2.888274
340.5802,2.889857
340.4670,2.891555
340.4212,2.997552
340.3385,2.893486
340.3385,2.893486
340.3039,2.993675
340.2825,2.966695
340.0402,3.002757
339.8848,3.029310
339.7363,3.047766
339.4678,3.073944
339.4678,3.073944
339.3599,3.079223
339.2444,3.084618
339.1136,3.090245
339.1136,3.090245
339.0944,3.112972
339.0751,3.135816
338.3665,3.131290
338.1738,3.199541
338.0695,3.243201
337.9514,3.242277
337.9210,3.218875
337.9210,3.218875
337.9129,3.235970
337.7271,3.248941
337.5742,3.274927
337.4290,3.291877
337.1673,3.314319
337.1673,3.314319
336.8914,3.318487
336.7047,3.323378
336.5987,3.352230
336.4815,3.351502
336.4472,3.333184
336.4472,3.333184
336.4422,3.346564
336.0922,3.357935
335.9603,3.384316
335.8136,3.410694
335.6597,3.437071
335.6597,3.437071
335.5580,3.437734
335.4488,3.438631
335.3247,3.439642
335.3247,3.439642
334.4223,3.488573
334.4192,3.492270
334.4162,3.495966
334.4131,3.499663
334.1671,3.535527
333.5098,3.591375
333.0961,3.619809
333.0961,3.619809
333.0536,3.619800
332.9965,3.619788
332.9322,3.619774
332.4079,3.660861
332.4079,3.660861
332.2752,3.654494
332.2284,3.649555
332.2274,3.641808
332.1023,3.718621
331.9487,3.741319
329.6440,3.848885
329.4135,3.866500
329.0200,3.892530
329.0200,3.892530
328.6400,3.902816
328.4182,3.911257
328.1641,3.925091
328.1641,3.925091
328.0587,3.936160
327.9462,3.947227
327.8197,3.958291
327.8197,3.958291
327.7130,3.960908
327.5922,3.963523
327.4644,3.966136
327.4644,3.966136
327.1284,3.987580
326.8251,4.003985
326.6016,4.017707
326.6016,4.017707
326.2178,4.025017
325.8350,4.032327
325.4530,4.039637
325.4530,4.039637
325.1880,4.065909
324.9220,4.085020
324.4279,4.113354
324.4279,4.113354
323.2536,4.148264
322.7368,4.165127
322.4292,4.178399
322.4292,4.178399
322.0778,4.182897
321.7881,4.187761
321.3121,4.197160
321.3121,4.197160
321.3081,4.202461
321.3040,4.207878
321.2997,4.213531
321.2997,4.213531
321.0854,4.214539
320.8714,4.215546
320.6577,4.216554
320.6577,4.216554
320.4198,4.224598
320.2116,4.229480
319.8549,4.235385
319.8549,4.235385
319.8130,4.239072
319.7576,4.242757
319.6955,4.246440
318.4153,4.267800
317.5180,4.271348
316.4198,4.277312
314.7274,4.285951
314.7274,4.285951
314.3439,4.290360
313.8643,4.294628
312.8811,4.302413
312.8811,4.302413
311.7287,4.302136
310.5912,4.301861
309.4745,4.301588
309.4745,4.301588
308.5455,4.297663
307.6220,4.293738
306.7041,4.289812
306.7041,4.289812
306.6025,4.287694
306.5134,4.285696
306.4302,4.283934
306.4302,4.283934
305.3750,4.276021
304.6719,4.271599
303.7174,4.266877
303.7174,4.266877
303.4065,4.262573
303.1208,4.257571
302.6162,4.247582
302.6162,4.247582
302.5645,4.243872
302.5129,4.240162
302.4613,4.236451
302.4613,4.236451
302.1836,4.247471
302.0848,4.235318
301.9955,4.246386
301.8074,4.245418
301.7151,4.234303
301.6195,4.244686
301.3582,4.233526
301.3582,4.233526
301.2554,4.231133
301.1539,4.226862
300.9669,4.217052
300.9669,4.217052
300.7972,4.230741
300.6530,4.228649
300.6284,4.215008
300.3023,4.213202
300.2599,4.226493
299.9828,4.211515
299.9828,4.211515
299.8867,4.207792
299.8025,4.204073
299.7243,4.200356
299.7243,4.200356
299.5825,4.214051
299.4933,4.216688
299.3923,4.219440
299.3549,4.197247
299.2853,4.222424
299.2853,4.222424
298.9863,4.194372
298.6185,4.191615
298.6185,4.191615
298.5691,4.187925
298.5256,4.184353
298.4936,4.181019
298.4936,4.181019
298.2601,4.177260
298.0328,4.173503
297.8175,4.169749
297.8175,4.169749
297.6341,4.169701
297.4509,4.169652
297.2679,4.169604
297.2679,4.169604
297.1753,4.163241
297.0943,4.156881
297.0192,4.150523
297.0192,4.150523
296.7035,4.146155
296.4222,4.143204
295.9349,4.139142
295.9349,4.139142
295.7568,4.134361
295.5789,4.129696
295.4010,4.125267
295.4010,4.125267
295.2221,4.124182
295.0491,4.123216
294.8876,4.122488
294.8876,4.122488
294.7881,4.118764
294.6944,4.115041
294.6121,4.111322
294.6121,4.111322
294.0799,4.103803
293.5551,4.096403
293.0434,4.089241
293.0434,4.089241
292.8195,4.083526
292.6015,4.078048
292.3950,4.072690
292.3950,4.072690
292.3484,4.067943
292.3073,4.063315
292.2773,4.058925
292.2773,4.058925
291.8322,4.056710
291.3995,4.054615
290.9801,4.042194
290.9801,4.042194
290.9780,4.045519
290.9758,4.049079
290.9735,4.052756
290.9735,4.052756
290.5415,4.035735
290.1154,4.029278
289.6959,4.022823
289.6959,4.022823
289.5259,4.016985
289.3560,4.011264
289.1862,4.005779
289.1862,4.005779
288.9670,4.002040
288.7536,3.998419
288.5513,3.995037
288.5513,3.995037
288.3734,3.986380
288.2448,3.977854
288.0552,3.962150
288.0552,3.962150
287.9339,3.960023
287.8126,3.958013
287.6912,3.956238
287.6912,3.956238
287.4302,3.955127
287.1804,3.954136
286.9363,3.953382
286.9363,3.953382
286.8919,3.947716
286.8528,3.942286
286.8245,3.936977
286.8245,3.936977
286.0460,3.918190
285.6053,3.905720
285.3234,3.897990
285.3234,3.897990
285.0516,3.887877
284.7481,3.878106
284.4775,3.867640
284.4775,3.867640
284.3107,3.866555
284.1441,3.865587
283.9775,3.864854
283.9775,3.864854
283.8930,3.858492
283.8191,3.852132
283.7505,3.845774
283.7505,3.845774
283.5395,3.842015
283.3341,3.838258
283.1395,3.834504
283.1395,3.834504
282.7837,3.820707
282.5613,3.813521
282.4259,3.801548
282.4259,3.801548
282.3778,3.803138
282.3296,3.804845
282.2814,3.806788
282.2814,3.806788
282.0994,3.795799
281.7736,3.790284
281.4484,3.784887
281.4484,3.784887
281.2895,3.776408
281.1307,3.768047
280.9719,3.759921
280.9719,3.759921
280.6073,3.755685
280.3264,3.751357
279.8950,3.732135
279.8950,3.732135
279.8928,3.735832
279.8907,3.739528
279.8886,3.743225
279.8886,3.743225
279.5656,3.722334
279.3836,3.715980
279.1927,3.707629
278.4910,3.688403
278.3983,3.685597
278.2777,3.678440
278.0259,3.660797
278.0259,3.660797
277.2900,3.640836
276.9601,3.630739
276.7511,3.621852
276.7511,3.621852
276.4210,3.612792
276.0729,3.601730
275.5968,3.588751
275.5968,3.588751
275.3778,3.577552
275.1563,3.562597
274.9251,3.547874
274.9251,3.547874
274.7704,3.544813
274.6158,3.541987
274.4613,3.539279
274.4613,3.539279
274.3814,3.534520
274.3115,3.529881
274.2463,3.525479
274.2463,3.525479
274.1646,3.524417
274.0927,3.523475
274.0256,3.522770
274.0256,3.522770
273.8544,3.506812
273.7380,3.498971
273.5768,3.492523
273.5768,3.492523
273.3791,3.491425
273.1866,3.490445
273.0102,3.478613
273.0102,3.478613
273.0081,3.482310
273.0061,3.486006
273.0041,3.489703
273.0041,3.489703
272.8866,3.474877
272.7728,3.471144
272.6641,3.467412
272.6641,3.467412
272.5862,3.461050
272.5181,3.454690
272.4549,3.448332
272.4549,3.448332
271.7763,3.419616
271.1107,3.391019
270.4531,3.362660
270.4531,3.362660
270.3775,3.354341
270.3114,3.346260
270.2501,3.338299
270.2501,3.338299
270.1707,3.337217
270.1009,3.336138
270.0360,3.335061
270.0360,3.335061
269.9165,3.328684
269.8067,3.322311
269.7017,3.315939
269.7017,3.315939
269.4054,3.307549
269.1096,3.299394
268.8144,3.291356
268.8144,3.291356
268.7758,3.285005
268.7420,3.278656
268.7177,3.272310
268.7177,3.272310
268.4943,3.262887
268.2807,3.253702
268.0720,3.244635
268.0720,3.244635
267.9233,3.234317
267.8394,3.226484
267.7484,3.214424
267.7484,3.214424
267.6028,3.210679
267.4621,3.206936
267.3310,3.203196
267.3310,3.203196
267.2523,3.195071
267.1673,3.190113
267.0033,3.184074
267.0033,3.184074
266.9655,3.177351
266.9322,3.170866
266.9082,3.164500
266.9082,3.164500
266.7201,3.163401
266.5369,3.162421
266.3631,3.161679
266.3631,3.161679
266.2739,3.131544
266.2739,3.131544
266.2464,3.155987
266.1914,3.139420
266.1391,3.150533
266.1298,3.142960
266.1273,3.131496
266.0364,3.145198
266.0364,3.145198
265.9808,3.131447
265.8345,3.131399
265.8345,3.131399
265.7987,3.121351
265.7675,3.111306
265.7457,3.101263
265.7457,3.101263
265.4932,3.088953
265.2442,3.079696
264.7862,3.065556
264.7862,3.065556
264.6600,3.048338
264.4831,3.031573
264.2765,3.010455
264.2765,3.010455
264.1240,3.008233
264.0133,3.005320
263.8493,2.999220
263.8493,2.999220
263.8118,2.993554
263.7788,2.988124
263.7548,2.982815
263.7548,2.982815
263.5711,2.981716
263.3922,2.980736
263.2225,2.979994
263.2225,2.979994
263.1495,2.974316
263.0856,2.968876
263.0261,2.963555
263.0261,2.963555
262.8557,2.957706
262.6934,2.954091
262.4005,2.949610
262.4005,2.949610
262.3228,2.943930
262.2494,2.938486
262.1851,2.933163
262.1851,2.933163
262.0049,2.929404
261.8295,2.925647
261.6633,2.921893
261.6633,2.921893
261.5222,2.920808
261.3812,2.919840
261.2403,2.919107
261.2403,2.919107
261.2016,2.917137
261.1674,2.915404
261.1421,2.913792
261.1421,2.913792
260.9620,2.912693
260.7866,2.911713
260.6202,2.910971
260.6202,2.910971
260.4078,2.906163
260.2046,2.901476
260.0060,2.897026
259.8076,2.894316
259.6418,2.894943
259.4673,2.895802
259.2885,2.896776
259.2885,2.896776
259.1481,2.899368
259.0079,2.901960
258.8679,2.904552
258.8679,2.904552
258.5814,2.916130
258.2211,2.927682
257.9238,2.937495
257.9238,2.937495
257.8443,2.951043
257.7903,2.957323
257.7154,2.961718
257.7154,2.961718
257.5777,2.962354
257.4400,2.963224
257.3024,2.964213
257.3024,2.964213
257.0740,2.985493
256.9067,3.006796
256.6572,3.046378
256.6572,3.046378
256.5731,3.018883
256.5209,3.046330
256.4124,3.032305
256.3848,3.046281
256.3291,3.037889
256.2517,3.040424
256.2489,3.046233
256.2489,3.046233
256.2318,3.081614
256.2318,3.081614
256.1730,3.069348
256.1686,3.078520
256.0939,3.085947
255.9560,3.090514
255.8182,3.095199
255.8182,3.095199
255.7353,3.111229
255.6546,3.122566
255.5073,3.138926
255.5073,3.138926
255.1534,3.162292
254.8919,3.181936
254.6718,3.196195
254.6718,3.196195
254.5686,3.211494
254.4655,3.226911
254.3624,3.242562
254.3624,3.242562
254.2265,3.246895
254.1404,3.267306
254.1404,3.267306
254.0906,3.251462
254.0714,3.263584
254.0639,3.271895
254.0110,3.259865
253.9861,3.279535
253.9548,3.256147
253.9548,3.256147
253.8403,3.296775
253.8403,3.296775
253.5473,3.306742
253.3916,3.313121
253.2394,3.321379
253.2394,3.321379
253.1985,3.327703
253.1576,3.334026
253.1167,3.340349
253.1167,3.340349
252.9825,3.343997
252.8484,3.347645
252.7144,3.351293
252.7144,3.351293
252.7102,3.360290
252.7059,3.369404
252.7015,3.378753
252.7015,3.378753
252.5827,3.378710
252.4556,3.378663
252.3245,3.378615
252.3245,3.378615
252.3229,3.381939
252.3212,3.385499
252.3195,3.389176
252.3195,3.389176
252.2567,3.390894
252.1854,3.392843
252.1099,3.394909
252.1099,3.394909
252.0814,3.403897
252.0444,3.412999
252.0032,3.422334
252.0032,3.422334
251.3813,3.475195
251.0476,3.501636
250.8945,3.514882
250.8945,3.514882
250.6305,3.522862
250.3670,3.531077
250.1039,3.539410
250.1039,3.539410
249.9510,3.549016
249.7940,3.558856
249.6289,3.568809
249.6289,3.568809
249.4992,3.570502
249.3696,3.572429
249.2400,3.574473
249.2400,3.574473
249.1779,3.577775
249.1077,3.581309
249.0333,3.584958
249.0333,3.584958
248.8472,3.589641
248.6574,3.594323
248.4597,3.599001
248.4597,3.599001
248.3117,3.611074
248.1614,3.619506
247.8805,3.631528
247.8805,3.631528
247.7526,3.633083
247.6249,3.634755
247.4972,3.636663
247.4972,3.636663
247.4718,3.641035
247.4382,3.645639
247.4005,3.650358
247.4005,3.650358
247.2481,3.655601
247.0878,3.660958
246.9236,3.666549
246.9236,3.666549
246.6137,3.673452
246.3005,3.680589
245.9801,3.687840
245.9801,3.687840
245.5761,3.705249
245.3836,3.712295
245.2368,3.715016
245.2368,3.715016
245.0874,3.719339
244.9303,3.723894
244.7693,3.728565
244.7693,3.728565
244.6451,3.729201
244.5209,3.730072
244.3967,3.731060
244.3967,3.731060
244.3951,3.734757
244.3935,3.738453
244.3919,3.742150
##END=
