##TITLE=Anisole, p-nitroso-
##JCAMP-DX=4.24
##DATA TYPE=UV/VIS SPECTRUM
##ORIGIN=INSTITUTE OF ENERGY PROBLEMS OF CHEMICAL PHYSICS, RAS
##OWNER=INEP CP RAS, NIST OSRD
Collection (C) 2007 copyright by the U.S. Secretary of Commerce
on behalf of the United States of America. All rights reserved.
##CAS REGISTRY NO=1516-21-8
##MOLFORM=C7H7NO2
##MP=32-34
##SOURCE REFERENCE=RAS UV No. 9740
##$NIST SQUIB=1949RAM/MAR53
##$NIST SOURCE=TYUGLMTE
##SPECTROMETER/DATA SYSTEM=n.i.g.
##XUNITS=Wavelength (nm)
##YUNITS=Logarithm epsilon
##XFACTOR=1.0
##YFACTOR=1.0
##FIRSTX=240.51
##LASTX=414.29
##FIRSTY=3.754
##MAXX=414.29
##MINX=240.51
##MAXY=4.232
##MINY=1.498
##NPOINTS=336
##$REF AUTHOR=Ramart-Lucas, P.; Martynoff, M.
##$REF JOURNAL=Bull. soc. chim. France
##$REF VOLUME=[5] 16
##$REF PAGE=53
##$REF DATE=1949
##XYPOINTS=(XY..XY)
240.51,3.754
240.81,3.758
241.11,3.766
241.42,3.778
241.73,3.786
242.03,3.790
242.34,3.798
242.65,3.806
242.96,3.814
243.27,3.826
243.58,3.834
243.89,3.846
244.20,3.850
244.51,3.854
244.83,3.870
245.14,3.874
245.45,3.882
245.77,3.886
246.09,3.886
246.40,3.886
246.72,3.886
247.04,3.886
247.36,3.882
247.68,3.874
248.01,3.866
248.33,3.862
248.65,3.858
248.98,3.850
249.30,3.842
249.63,3.834
249.95,3.822
250.28,3.810
250.61,3.794
250.94,3.778
251.27,3.762
251.60,3.746
251.93,3.730
252.27,3.714
252.60,3.697
252.93,3.673
253.27,3.661
253.61,3.637
253.94,3.613
254.28,3.589
254.62,3.561
254.96,3.537
255.30,3.521
255.64,3.464
255.99,3.440
256.33,3.424
256.67,3.392
257.02,3.324
257.37,3.279
257.71,3.255
258.06,3.207
258.41,3.155
258.76,3.098
259.11,3.066
259.46,3.030
259.82,2.958
260.17,2.910
260.53,2.865
260.88,2.805
261.24,2.757
261.60,2.713
261.96,2.696
262.32,2.676
262.68,2.668
263.04,2.652
263.40,2.628
263.77,2.632
264.13,2.624
264.50,2.620
264.86,2.620
265.23,2.624
265.60,2.624
265.97,2.628
266.34,2.628
266.71,2.636
267.09,2.640
267.46,2.648
267.84,2.656
268.21,2.668
268.59,2.680
268.97,2.692
269.35,2.701
269.73,2.709
270.11,2.717
270.49,2.729
270.88,2.741
271.26,2.749
271.65,2.757
272.03,2.773
272.42,2.777
272.81,2.789
273.20,2.809
273.59,2.825
273.99,2.833
274.38,2.845
274.77,2.853
275.17,2.869
275.57,2.881
275.97,2.897
276.36,2.914
276.77,2.922
277.17,2.938
277.57,2.954
277.97,2.962
278.38,2.978
278.79,3.002
279.19,3.010
279.60,3.022
280.01,3.038
280.42,3.054
280.84,3.074
281.25,3.090
281.66,3.098
282.08,3.119
282.50,3.127
282.92,3.151
283.34,3.167
283.76,3.179
284.18,3.199
284.60,3.207
285.03,3.223
285.45,3.235
285.88,3.247
286.31,3.263
286.74,3.295
287.17,3.308
287.60,3.316
288.04,3.320
288.47,3.324
288.91,3.328
289.35,3.336
289.79,3.344
290.23,3.356
290.67,3.356
291.11,3.356
291.56,3.356
292.00,3.356
292.45,3.356
292.90,3.356
293.35,3.360
293.80,3.360
294.25,3.364
294.71,3.368
295.16,3.372
295.62,3.376
296.08,3.376
296.54,3.376
297.00,3.384
297.46,3.392
297.93,3.400
298.39,3.400
298.86,3.412
299.33,3.416
299.80,3.420
300.27,3.424
300.74,3.424
301.22,3.432
301.69,3.444
302.17,3.452
302.65,3.468
303.13,3.472
303.61,3.480
304.10,3.488
304.58,3.496
305.07,3.505
305.56,3.513
306.05,3.517
306.54,3.525
307.03,3.533
307.52,3.537
308.02,3.541
308.52,3.561
309.02,3.577
309.52,3.589
310.02,3.601
310.53,3.609
311.03,3.617
311.54,3.641
312.05,3.653
312.56,3.665
313.07,3.689
313.59,3.702
314.10,3.710
314.62,3.722
315.14,3.734
315.66,3.750
316.18,3.762
316.71,3.774
317.23,3.786
317.76,3.798
318.29,3.806
318.82,3.822
319.35,3.838
319.89,3.842
320.43,3.858
320.97,3.866
321.51,3.890
322.05,3.898
322.59,3.911
323.14,3.919
323.69,3.931
324.24,3.939
324.79,3.955
325.34,3.963
325.90,3.971
326.45,3.987
327.01,3.995
327.57,4.007
328.14,4.015
328.70,4.019
329.27,4.027
329.84,4.047
330.41,4.051
330.98,4.063
331.56,4.071
332.13,4.087
332.71,4.095
333.29,4.104
333.87,4.112
334.46,4.120
335.05,4.128
335.64,4.140
336.23,4.152
336.82,4.160
337.41,4.164
338.01,4.176
338.61,4.172
339.21,4.180
339.82,4.200
340.42,4.200
341.03,4.212
341.64,4.212
342.25,4.220
342.87,4.228
343.48,4.232
344.10,4.232
344.73,4.232
345.35,4.232
345.97,4.232
346.60,4.232
347.23,4.224
347.87,4.220
348.50,4.216
349.14,4.204
349.78,4.196
350.42,4.180
351.06,4.172
351.71,4.172
352.36,4.160
353.01,4.148
353.66,4.136
354.32,4.128
354.98,4.116
355.64,4.099
356.30,4.091
356.97,4.083
357.64,4.071
358.31,4.063
358.98,4.047
359.66,4.039
360.34,4.031
361.02,3.987
361.71,3.975
362.39,3.959
363.08,3.943
363.77,3.919
364.47,3.903
365.16,3.886
365.86,3.878
366.57,3.866
367.27,3.854
367.98,3.806
368.69,3.782
369.40,3.742
370.12,3.714
370.84,3.689
371.56,3.677
372.28,3.649
373.01,3.617
373.74,3.593
374.47,3.577
375.21,3.553
375.95,3.480
376.69,3.460
377.44,3.436
378.18,3.368
378.93,3.328
379.69,3.283
380.44,3.255
381.20,3.171
381.97,3.111
382.73,3.082
383.50,3.046
384.27,3.030
385.05,2.954
385.83,2.902
386.61,2.873
387.39,2.857
388.18,2.781
388.97,2.692
389.76,2.684
390.56,2.668
391.36,2.624
392.17,2.604
392.97,2.536
393.78,2.483
394.60,2.435
395.41,2.403
396.23,2.351
397.06,2.290
397.89,2.266
398.72,2.222
399.55,2.146
400.39,2.114
401.23,2.077
402.08,2.045
402.92,1.929
403.78,1.901
404.63,1.892
405.49,1.876
406.35,1.796
407.22,1.768
408.09,1.744
408.97,1.691
409.84,1.671
410.73,1.631
411.61,1.595
412.50,1.539
412.95,1.511
413.39,1.507
413.84,1.503
414.29,1.498
##END=
