##TITLE=1,1,2-Triphenylethane
##JCAMP-DX=4.24
##DATA TYPE=UV/VIS SPECTRUM
##ORIGIN=INSTITUTE OF ENERGY PROBLEMS OF CHEMICAL PHYSICS, RAS
##OWNER=INEP CP RAS, NIST OSRD
Collection (C) 2007 copyright by the U.S. Secretary of Commerce
on behalf of the United States of America. All rights reserved.
##CAS REGISTRY NO=1520-42-9
##MOLFORM=C20H18
##MP=57
##SOURCE REFERENCE=RAS UV No. 4804
##$NIST SQUIB=1957GRO4985-4990
##$NIST SOURCE=TSGMTE
##SPECTROMETER/DATA SYSTEM=Beckman DU
##XUNITS=Wavelength (nm)
##YUNITS=Logarithm epsilon
##XFACTOR=1.000000
##YFACTOR=1.000000
##FIRSTX=206.1895
##LASTX=273.3432
##FIRSTY=4.39106
##MAXX=273.343
##MINX=206.19
##MAXY=4.40793
##MINY=2.08386
##NPOINTS=548
##$REF AUTHOR=Grovenstein, E., Jr.
##$REF TITLE=Preparation of 2-chloro-1,1,1-triphenylethane and rearrangement in its reaction with sodium
##$REF JOURNAL=J. Am. Chem. Soc.
##$REF VOLUME=79
##$REF PAGE=4985-4990
##$REF DATE=1957
##XYPOINTS=(XY..XY)
206.1895,4.391060
206.1932,4.394178
206.5783,4.399626
206.7911,4.399572
206.7948,4.402690
206.9840,4.402642
207.1766,4.405366
207.7678,4.405214
207.9840,4.407932
208.5753,4.407780
208.7612,4.404959
209.7545,4.404705
209.9404,4.401884
210.5279,4.398613
210.5317,4.401732
210.7172,4.398565
210.9030,4.395744
211.1126,4.392917
211.1159,4.395689
211.3018,4.392868
211.4873,4.389701
211.7001,4.389646
213.6255,4.357607
213.6288,4.360380
213.8110,4.354440
213.8147,4.357559
214.0205,4.351613
214.0238,4.354385
214.3886,4.342852
214.3919,4.345625
214.5981,4.340025
214.7836,4.336858
214.7873,4.339977
215.1753,4.328091
215.1790,4.331210
215.3645,4.328043
215.7562,4.319276
215.7600,4.322395
215.9421,4.316455
215.9455,4.319227
216.3339,4.307688
216.3372,4.310461
216.7019,4.298928
216.7052,4.301700
216.9115,4.296101
216.9148,4.298873
217.2795,4.287340
217.2828,4.290112
217.4617,4.281400
217.4650,4.284173
217.6708,4.278227
217.6746,4.281346
217.8534,4.272634
217.8600,4.278178
218.0356,4.266694
218.0426,4.272585
218.2451,4.263867
218.2484,4.266639
218.4306,4.260699
218.4343,4.263818
218.6132,4.255106
218.6198,4.260651
218.8190,4.249160
218.8261,4.255052
219.0049,4.246339
219.0082,4.249112
219.1941,4.246291
219.5891,4.240296
219.7713,4.234357
219.7784,4.240248
219.9776,4.228757
219.9809,4.231530
220.1630,4.225590
220.1668,4.228709
220.3419,4.216878
220.3489,4.222769
220.5481,4.211278
220.5547,4.216823
220.7303,4.205339
220.7336,4.208111
220.9092,4.196627
220.9162,4.202518
221.1117,4.187908
221.1187,4.193800
221.2938,4.181969
221.2976,4.185087
221.4764,4.176375
221.4830,4.181920
221.6822,4.170429
221.6855,4.173202
221.8611,4.161717
221.8681,4.167609
222.0470,4.158896
222.0503,4.161669
222.2528,4.152951
222.2561,4.155723
222.4279,4.141120
222.4383,4.149783
222.6068,4.132407
222.6138,4.138299
222.9985,4.123641
223.0022,4.126760
223.1708,4.109384
223.1844,4.120820
223.3695,4.097547
223.3799,4.106210
223.5484,4.088834
223.5587,4.097498
223.7239,4.077350
223.7343,4.086014
223.8958,4.062747
223.9098,4.074529
224.0950,4.051256
224.1086,4.062692
224.2738,4.042544
224.2809,4.048435
224.4456,4.027940
224.4630,4.042495
224.6481,4.019222
224.6585,4.027886
224.8200,4.004619
224.8340,4.016401
224.9922,3.990362
225.0059,4.001798
225.1877,3.975752
225.2013,3.987188
225.3595,3.961149
225.3736,3.972932
225.5247,3.941001
225.5454,3.958328
225.7305,3.935055
225.7376,3.940946
225.9094,3.926343
225.9164,3.932234
226.0468,3.882976
226.0953,3.923522
226.2183,3.848267
226.2564,3.880149
226.3732,3.819455
226.4042,3.845446
226.5379,3.798961
226.5586,3.816288
226.7231,3.775687
226.7475,3.796134
226.8953,3.761431
226.9090,3.772867
227.0568,3.738164
227.0808,3.758263
227.2456,3.718009
227.2663,3.735337
227.4104,3.697515
227.4311,3.714842
227.5789,3.680139
227.5963,3.694694
227.7640,3.656866
227.7885,3.677312
227.9259,3.633945
227.9499,3.654045
228.0841,3.607906
228.1114,3.630778
228.2725,3.587405
228.2932,3.604732
228.4410,3.570029
228.4584,3.584584
228.6062,3.549881
228.6269,3.567208
228.7880,3.523836
228.8158,3.547054
228.9528,3.503341
228.9735,3.520668
229.1251,3.489084
229.1387,3.500520
229.3069,3.463039
229.3342,3.485911
229.4650,3.436999
229.4924,3.459871
229.6298,3.416505
229.6505,3.433832
229.7950,3.396356
229.8157,3.413684
229.9731,3.367192
230.0042,3.393183
230.1416,3.349816
230.1590,3.364371
230.2965,3.321005
230.3275,3.346995
230.4886,3.303623
230.5060,3.318178
230.6468,3.277583
230.6745,3.300802
230.8083,3.254316
230.8323,3.274416
230.9901,3.228271
231.0178,3.251489
231.1515,3.205004
231.1760,3.225450
231.3097,3.178964
231.3374,3.202183
231.4986,3.158810
231.5193,3.176137
231.6600,3.135543
231.6840,3.155643
231.8285,3.118167
231.8459,3.132722
232.0104,3.092122
232.0381,3.115340
232.1756,3.071974
232.1963,3.089301
232.3370,3.048707
232.3610,3.068806
232.5255,3.028206
232.5466,3.045880
232.6940,3.010830
232.7114,3.025385
232.8559,2.987910
232.8799,3.008009
233.0443,2.967409
233.0650,2.984736
233.2095,2.947261
233.2302,2.964588
233.3747,2.927112
233.3954,2.944440
233.5702,2.912503
233.5838,2.923939
233.7316,2.889236
233.7556,2.909336
233.8968,2.869088
233.9208,2.889187
234.0853,2.848587
234.1060,2.865914
234.2538,2.831211
234.2712,2.845766
234.4157,2.808291
234.4397,2.828390
234.6078,2.790909
234.6248,2.805117
234.7759,2.773187
234.7970,2.790860
234.9444,2.755811
234.9618,2.770366
235.1366,2.738429
235.1540,2.752984
235.3018,2.718281
235.3225,2.735608
235.4703,2.700905
235.4877,2.715460
235.6388,2.683529
235.6562,2.698084
235.8272,2.663029
235.8484,2.680702
235.9958,2.645653
236.0165,2.662980
236.1680,2.631396
236.1850,2.645604
236.3602,2.614014
236.3771,2.628222
236.5320,2.599411
236.5494,2.613966
236.7005,2.582035
236.7179,2.596590
236.8960,2.567425
236.9133,2.581980
237.0645,2.550050
237.0819,2.564605
237.2400,2.538565
237.2504,2.547229
237.4355,2.523956
237.4491,2.535392
237.6110,2.512471
237.6214,2.521135
237.7795,2.495095
237.7965,2.509304
237.9821,2.486377
237.9924,2.495041
238.1539,2.471774
238.1675,2.483210
238.3257,2.457170
238.3398,2.468953
238.5249,2.445680
238.5352,2.454343
238.7038,2.436967
238.7108,2.442859
238.8793,2.425483
238.8896,2.434147
239.0781,2.413646
239.0884,2.422310
239.2536,2.402161
239.2640,2.410825
239.4255,2.387558
239.4391,2.398994
239.6280,2.378840
239.6350,2.384731
239.8068,2.370128
239.8139,2.376019
239.9857,2.361415
239.9927,2.367307
240.1915,2.355470
240.1952,2.358588
240.3741,2.349876
240.3807,2.355421
240.5596,2.346709
240.5633,2.349828
240.7691,2.343882
241.1475,2.343785
241.3571,2.340958
241.5496,2.343682
242.1409,2.343530
242.1442,2.346302
242.3371,2.349373
242.3404,2.352145
242.5296,2.352097
242.5329,2.354869
242.7495,2.357934
242.7561,2.363478
242.9453,2.363430
242.9491,2.366548
243.1416,2.369272
243.1449,2.372045
243.3615,2.375109
243.3681,2.380654
243.5573,2.380605
243.5643,2.386496
243.7535,2.386448
243.7606,2.392339
243.9734,2.392285
243.9801,2.397830
244.1693,2.397781
244.1763,2.403672
244.3655,2.403624
244.3726,2.409515
244.5887,2.412233
244.5958,2.418124
244.7850,2.418075
244.7920,2.423967
244.9845,2.426690
244.9878,2.429463
245.2007,2.429408
245.2110,2.438072
245.4002,2.438023
245.4073,2.443915
245.5965,2.443866
245.6035,2.449757
245.8164,2.449703
245.8230,2.455248
246.0122,2.455199
246.0192,2.461090
246.2118,2.463814
246.2155,2.466933
246.4317,2.469651
246.4387,2.475542
246.6312,2.478266
246.6345,2.481038
246.8275,2.484109
246.8308,2.486881
247.0469,2.489599
247.0540,2.495490
247.2432,2.495442
247.2502,2.501333
247.4394,2.501284
247.4460,2.506829
247.6626,2.509893
247.6659,2.512666
247.8585,2.515390
247.8622,2.518509
248.0547,2.521232
248.0617,2.527124
248.2779,2.529841
248.2812,2.532614
248.4742,2.535684
248.4775,2.538456
248.8629,2.544251
248.8662,2.547023
249.0828,2.550087
249.0894,2.555632
249.2786,2.555584
249.2824,2.558702
249.4749,2.561426
249.4819,2.567318
249.8906,2.572759
249.8976,2.578650
250.0868,2.578602
250.0902,2.581374
250.3067,2.584439
250.3101,2.587211
250.5026,2.589935
250.5063,2.593054
250.6988,2.595778
250.7021,2.598550
250.9187,2.601614
250.9220,2.604387
251.1145,2.607110
251.1183,2.610229
251.3108,2.612953
251.3141,2.615726
251.5307,2.618790
251.5373,2.624335
251.7265,2.624286
251.7302,2.627405
251.9227,2.630129
251.9298,2.636020
252.1426,2.635966
252.1460,2.638738
252.3385,2.641462
252.3422,2.644581
252.5347,2.647305
252.5380,2.650077
252.7546,2.653141
252.7612,2.658686
252.9504,2.658637
252.9542,2.661756
253.1467,2.664480
253.1504,2.667599
253.3633,2.667544
253.3736,2.676208
253.5628,2.676160
253.5661,2.678932
253.7586,2.681656
253.7624,2.684775
253.9785,2.687492
253.9819,2.690265
254.1748,2.693335
254.1781,2.696108
254.3706,2.698831
254.3743,2.701950
254.5905,2.704668
254.5938,2.707440
254.7868,2.710511
254.7901,2.713283
255.3917,2.721795
255.3950,2.724568
256.1895,2.736150
256.3788,2.736101
256.5949,2.738819
258.3687,2.738364
258.3720,2.741137
258.5613,2.741088
258.5650,2.744207
258.7575,2.746931
258.7678,2.755595
258.9807,2.755540
258.9944,2.766976
259.3798,2.772770
259.3902,2.781434
259.6030,2.781379
259.6067,2.784498
259.7959,2.784450
259.8026,2.789994
259.9918,2.789946
259.9955,2.793065
260.2084,2.793010
260.5934,2.798458
262.9585,2.797851
263.1444,2.795030
263.3572,2.794976
263.7286,2.788987
263.9382,2.786161
263.9415,2.788933
264.1240,2.783340
264.3095,2.780172
264.3133,2.783291
264.5191,2.777345
264.5224,2.780118
264.7012,2.771405
264.7046,2.774178
264.8871,2.768585
264.8904,2.771357
265.0930,2.762639
265.1000,2.768530
265.2751,2.756699
265.2789,2.759818
265.4577,2.751106
265.4610,2.753878
265.6602,2.742387
265.6668,2.747932
265.8391,2.733675
265.8457,2.739220
266.0212,2.727736
266.0246,2.730508
266.2238,2.719017
266.2308,2.724909
266.3993,2.707533
266.4097,2.716196
266.5744,2.695702
266.5848,2.704365
266.7769,2.686984
266.7840,2.692875
266.9558,2.678271
266.9628,2.684163
267.1314,2.666787
267.1417,2.675450
267.3301,2.654950
267.3409,2.663960
267.5090,2.646238
267.5160,2.652129
267.6982,2.646189
267.9077,2.643362
268.2862,2.643265
268.2895,2.646037
268.4787,2.645989
268.6953,2.649053
268.6986,2.651826
268.8911,2.654549
268.8981,2.660441
269.0911,2.663511
269.0944,2.666283
269.3072,2.666229
269.3143,2.672120
269.6927,2.672023
269.6960,2.674795
269.9088,2.674741
270.2802,2.668753
270.4794,2.657262
270.4931,2.668698
270.6272,2.622559
270.6649,2.654095
270.7920,2.602064
270.8127,2.619391
270.9809,2.581910
271.0016,2.599237
271.1494,2.564534
271.1668,2.579089
271.3075,2.538495
271.3353,2.561713
271.4960,2.517994
271.5171,2.535668
271.6508,2.489182
271.6819,2.515173
271.7986,2.454479
271.8367,2.486361
271.9734,2.422543
272.0082,2.451652
272.1212,2.387840
272.1593,2.419722
272.2690,2.353137
272.3071,2.385019
272.4438,2.321200
272.4786,2.350309
272.5846,2.280605
272.6297,2.318379
272.7361,2.249021
272.7705,2.277785
272.8935,2.202530
272.9453,2.245848
273.0173,2.147727
273.0794,2.199709
273.1341,2.087033
273.2028,2.144560
273.3432,2.083860
##END=
