##TITLE=4,4'-Dinitrobiphenyl
##JCAMP-DX=4.24
##DATA TYPE=UV/VIS SPECTRUM
##ORIGIN=INSTITUTE OF ENERGY PROBLEMS OF CHEMICAL PHYSICS, RAS
##OWNER=INEP CP RAS, NIST OSRD
Collection (C) 2007 copyright by the U.S. Secretary of Commerce
on behalf of the United States of America. All rights reserved.
##CAS REGISTRY NO=1528-74-1
##MOLFORM=C12H8N2O4
##MP=240
##SOURCE REFERENCE=RAS UV No. 19674
##$NIST SQUIB=1966DOR/GAZd10/6
##$NIST SOURCE=TYUGLMTE
##SPECTROMETER/DATA SYSTEM=Zeiss PMQ II
##XUNITS=Wavelength (nm)
##YUNITS=Logarithm epsilon
##XFACTOR=1.0
##YFACTOR=1.0
##FIRSTX=204.9
##LASTX=400.91
##FIRSTY=4.424
##MAXX=400.91
##MINX=204.9
##MAXY=4.424
##MINY=1.964
##NPOINTS=194
##$REF AUTHOR=Dorr, F.; Gazis, E.
##$REF JOURNAL=UV atlas of organic compounds
##$REF VOLUME=1
##$REF PAGE=D10/6
##$REF DATE=1966
##$REF PUBLISHER=Plenum Press
##$REF LOCATION=New York
##XYPOINTS=(XY..XY)
204.90,4.424
204.99,4.422
205.08,4.420
205.17,4.418
205.26,4.418
205.36,4.416
205.45,4.414
205.54,4.414
205.63,4.411
205.72,4.409
205.90,4.401
206.45,4.380
207.00,4.363
207.56,4.346
208.11,4.327
208.67,4.312
209.24,4.295
209.81,4.284
210.37,4.273
210.95,4.263
211.52,4.252
212.10,4.244
212.69,4.233
213.27,4.222
213.86,4.218
214.45,4.210
215.05,4.201
215.65,4.191
216.25,4.180
216.85,4.169
217.46,4.159
218.07,4.148
218.69,4.133
219.31,4.116
219.93,4.099
220.56,4.082
221.19,4.063
221.82,4.042
222.46,4.021
223.10,3.997
223.74,3.972
224.39,3.950
225.04,3.927
225.70,3.899
226.36,3.878
227.02,3.855
227.69,3.829
228.36,3.808
229.04,3.787
229.71,3.766
230.40,3.744
231.08,3.723
231.78,3.704
232.47,3.685
233.17,3.664
233.88,3.651
234.58,3.632
235.30,3.621
236.01,3.608
236.73,3.598
237.46,3.589
238.19,3.579
238.93,3.572
239.66,3.568
240.41,3.564
241.16,3.560
241.91,3.560
242.67,3.560
243.43,3.562
244.20,3.562
244.97,3.564
245.75,3.566
246.53,3.570
247.32,3.572
248.11,3.577
248.91,3.583
249.71,3.587
250.52,3.594
251.33,3.598
252.15,3.602
252.97,3.611
253.80,3.621
254.63,3.630
255.47,3.640
256.32,3.651
257.17,3.664
258.03,3.674
258.89,3.691
259.76,3.706
260.63,3.723
261.51,3.742
262.40,3.757
263.29,3.776
264.18,3.795
265.09,3.817
266.00,3.836
266.92,3.857
267.84,3.876
268.77,3.897
269.70,3.919
270.65,3.940
271.60,3.961
272.55,3.982
273.51,4.008
274.48,4.029
275.46,4.048
276.44,4.067
277.43,4.086
278.43,4.106
279.43,4.125
280.44,4.146
281.46,4.165
282.49,4.186
283.52,4.199
284.57,4.218
285.61,4.237
286.67,4.250
287.74,4.269
288.81,4.282
289.89,4.299
290.98,4.312
292.08,4.324
293.18,4.339
294.30,4.352
295.42,4.360
296.55,4.371
297.69,4.377
298.84,4.384
299.99,4.394
301.16,4.401
302.34,4.407
303.52,4.414
304.71,4.418
305.92,4.420
307.13,4.424
308.35,4.424
309.59,4.422
310.83,4.420
312.08,4.416
313.34,4.411
314.61,4.401
315.90,4.392
317.19,4.382
318.50,4.369
319.81,4.352
321.14,4.335
322.47,4.316
323.82,4.297
325.18,4.271
326.55,4.248
327.93,4.225
329.33,4.195
330.73,4.165
332.15,4.133
333.58,4.101
335.02,4.069
336.48,4.029
337.95,3.993
339.43,3.948
340.92,3.906
342.43,3.861
343.95,3.810
345.48,3.761
347.03,3.710
348.59,3.649
350.17,3.598
351.76,3.551
353.36,3.500
354.98,3.451
356.67,3.408
358.28,3.368
359.93,3.324
361.52,3.291
363.25,3.243
365.02,3.196
366.75,3.145
368.49,3.081
370.25,3.030
372.03,2.980
373.83,2.922
375.64,2.871
377.47,2.820
379.32,2.765
381.19,2.705
383.07,2.652
384.97,2.593
386.90,2.533
388.84,2.461
390.80,2.399
392.78,2.327
394.78,2.251
396.81,2.157
398.85,2.045
400.91,1.964
##END=
