##TITLE=2-Propylthiophene
##JCAMP-DX=4.24
##DATA TYPE=UV/VIS SPECTRUM
##ORIGIN=INSTITUTE OF ENERGY PROBLEMS OF CHEMICAL PHYSICS, RAS
##OWNER=INEP CP RAS, NIST OSRD
Collection (C) 2007 copyright by the U.S. Secretary of Commerce
on behalf of the United States of America. All rights reserved.
##CAS REGISTRY NO=1551-27-5
##MOLFORM=C7H10S
##BP=158
##SOURCE REFERENCE=RAS UV No. 20132
##$NIST SQUIB=1969BOL/130
##$NIST SOURCE=TYUGLMTE
##SPECTROMETER/DATA SYSTEM=unknown
##XUNITS=Wavelength (nm)
##YUNITS=Logarithm epsilon
##XFACTOR=1.0
##YFACTOR=1.0
##FIRSTX=215.23
##LASTX=274.64
##FIRSTY=3.589
##MAXX=274.64
##MINX=215.23
##MAXY=3.966
##MINY=0.053
##NPOINTS=133
##$REF AUTHOR=Bol'shakov, G.F.; et al.
##$REF JOURNAL=Ultraviolet spectra of heteroorganic compounds
##$REF PAGE=130
##$REF DATE=1969
##XYPOINTS=(XY..XY)
215.23,3.589
216.57,3.623
217.74,3.657
218.91,3.692
220.08,3.733
221.42,3.760
222.76,3.788
223.93,3.822
225.27,3.849
226.61,3.877
227.95,3.904
229.46,3.918
231.30,3.931
231.46,3.931
231.63,3.931
231.80,3.931
231.97,3.938
232.13,3.938
232.30,3.938
232.47,3.938
232.64,3.945
232.80,3.938
232.97,3.938
233.14,3.945
233.31,3.945
233.47,3.945
233.64,3.945
233.81,3.945
233.97,3.952
234.14,3.952
234.31,3.952
234.48,3.952
234.64,3.952
234.81,3.952
234.98,3.959
235.15,3.959
235.31,3.959
235.48,3.959
235.65,3.966
235.82,3.966
235.98,3.966
236.15,3.966
236.32,3.966
236.49,3.966
236.65,3.959
236.82,3.959
236.99,3.959
237.15,3.959
237.32,3.952
237.49,3.952
237.66,3.952
237.82,3.952
237.99,3.945
238.16,3.945
238.33,3.945
238.49,3.945
238.66,3.945
238.83,3.945
239.00,3.945
239.16,3.945
239.33,3.945
239.50,3.945
239.67,3.945
239.83,3.945
240.00,3.945
240.17,3.938
240.33,3.938
240.50,3.938
240.67,3.931
242.51,3.897
243.85,3.863
246.53,3.726
246.69,3.719
246.86,3.712
247.03,3.705
247.20,3.699
247.36,3.692
247.53,3.685
247.70,3.678
248.03,3.664
248.54,3.637
249.04,3.603
249.54,3.568
250.04,3.534
250.54,3.500
251.05,3.466
251.55,3.424
252.05,3.370
252.55,3.308
253.05,3.267
253.56,3.205
254.06,3.143
254.56,3.082
255.06,3.013
255.53,2.940
256.07,2.842
256.57,2.773
257.07,2.691
257.57,2.582
258.04,2.479
258.58,2.349
259.08,2.205
259.58,2.061
260.08,1.855
260.49,1.641
260.88,1.449
261.48,1.216
262.09,1.012
262.59,0.896
263.10,0.793
263.60,0.690
264.10,0.601
264.60,0.540
265.10,0.485
265.61,0.430
266.11,0.396
266.61,0.361
267.11,0.320
267.62,0.279
268.12,0.252
268.62,0.218
269.12,0.204
269.62,0.176
270.13,0.149
270.63,0.142
271.13,0.122
271.63,0.115
272.13,0.101
272.64,0.081
273.14,0.074
273.64,0.067
274.14,0.060
274.64,0.053
##END=
