##TITLE=Propane, 2-(methylthio)-
##JCAMP-DX=4.24
##DATA TYPE=UV/VIS SPECTRUM
##ORIGIN=INSTITUTE OF ENERGY PROBLEMS OF CHEMICAL PHYSICS, RAS
##OWNER=INEP CP RAS, NIST OSRD
Collection (C) 2007 copyright by the U.S. Secretary of Commerce
on behalf of the United States of America. All rights reserved.
##CAS REGISTRY NO=1551-21-9
##MOLFORM=C4H10S
##BP=84.8
##SOURCE REFERENCE=RAS UV No. 20106
##$NIST SQUIB=1969BOL/99
##$NIST SOURCE=TYUGLMTE
##SPECTROMETER/DATA SYSTEM=unknown
##XUNITS=Wavelength (nm)
##YUNITS=Logarithm epsilon
##XFACTOR=1.0
##YFACTOR=1.0
##FIRSTX=211.99
##LASTX=292.56
##FIRSTY=2.75
##MAXX=292.56
##MINX=211.99
##MAXY=2.942
##MINY=0.288
##NPOINTS=100
##$REF AUTHOR=Bol'shakov, G.F.; et al.
##$REF JOURNAL=Ultraviolet spectra of heteroorganic compounds
##$REF PAGE=99
##$REF DATE=1969
##XYPOINTS=(XY..XY)
211.99,2.750
212.50,2.787
213.01,2.825
213.51,2.862
214.02,2.900
214.34,2.917
214.82,2.931
215.61,2.942
216.31,2.935
216.89,2.917
217.40,2.883
217.77,2.852
218.24,2.812
218.58,2.775
218.92,2.737
219.26,2.700
219.59,2.662
219.93,2.624
220.10,2.587
220.44,2.549
220.78,2.512
221.11,2.474
221.62,2.437
221.96,2.399
222.30,2.362
222.63,2.324
222.97,2.287
223.48,2.253
223.82,2.216
224.32,2.182
224.66,2.145
225.17,2.111
225.67,2.078
226.18,2.045
226.69,2.011
227.19,1.978
227.70,1.944
228.21,1.911
229.05,1.878
229.73,1.844
230.23,1.811
231.08,1.782
231.75,1.748
232.60,1.719
233.27,1.686
234.12,1.656
234.96,1.623
235.81,1.590
236.65,1.561
237.50,1.527
238.51,1.498
239.36,1.465
240.37,1.435
241.21,1.402
242.23,1.373
243.24,1.344
244.08,1.314
244.93,1.285
245.94,1.260
246.79,1.231
247.80,1.202
248.65,1.172
249.66,1.147
250.67,1.122
251.52,1.093
252.53,1.064
253.54,1.039
254.56,1.014
255.40,0.985
256.42,0.960
257.43,0.935
258.44,0.905
259.46,0.876
260.64,0.855
261.65,0.830
262.66,0.805
263.85,0.780
265.03,0.755
266.04,0.730
267.06,0.701
268.24,0.676
269.59,0.655
270.77,0.630
271.79,0.605
272.80,0.580
273.98,0.559
275.16,0.538
276.35,0.517
277.53,0.492
278.88,0.471
280.23,0.451
281.58,0.430
282.93,0.409
284.28,0.388
285.64,0.367
286.99,0.350
288.34,0.334
289.69,0.317
291.04,0.300
292.56,0.288
##END=
