##TITLE=1-Phenylcyclohexanol
##JCAMP-DX=4.24
##DATA TYPE=UV/VIS SPECTRUM
##ORIGIN=INSTITUTE OF ENERGY PROBLEMS OF CHEMICAL PHYSICS, RAS
##OWNER=INEP CP RAS, NIST OSRD
Collection (C) 2007 copyright by the U.S. Secretary of Commerce
on behalf of the United States of America. All rights reserved.
##CAS REGISTRY NO=1589-60-2
##MOLFORM=C12H16O
##MP=63.5
##BP=157(28); 112(5)
##SOURCE REFERENCE=RAS UV No. 3861
##$NIST SQUIB=1955LAV/VER723-726
##$NIST SOURCE=TSGMTE
##SPECTROMETER/DATA SYSTEM=n.i.g.
##XUNITS=Wavelength (nm)
##YUNITS=Logarithm epsilon
##XFACTOR=1.000000
##YFACTOR=1.000000
##FIRSTX=232.6694
##LASTX=340.3530
##FIRSTY=2.11426
##MAXX=340.353
##MINX=232.669
##MAXY=2.11426
##MINY=-0.117362
##NPOINTS=82
##$REF AUTHOR=Lavruchin, V.F.; Verkhovod, N.N.; Movchan, P.K.
##$REF TITLE=Halochromism of tertiary alicyclic and aliphatic carbinols
##$REF JOURNAL=Dokl. Akad. Nauk SSSR
##$REF VOLUME=105
##$REF NUMBER=4
##$REF PAGE=723-726
##$REF DATE=1955
##XYPOINTS=(XY..XY)
232.6694,2.114264
234.2064,2.070833
235.8971,2.024811
238.0280,1.979522
240.8853,1.938286
240.8853,1.938286
242.1078,1.938350
243.3571,1.938416
244.6198,1.938482
244.6198,1.938482
247.2162,1.980642
249.0215,2.023529
251.0306,2.065599
254.2380,2.105311
254.2380,2.105311
255.9874,2.104586
257.7503,2.103581
259.5401,2.102438
259.5401,2.102438
262.3940,2.071257
264.8691,2.035294
267.0241,1.995638
268.9177,1.953376
270.6088,1.909598
272.1560,1.865391
273.6182,1.821845
275.0542,1.780047
275.0542,1.780047
276.2299,1.736136
277.4106,1.692173
278.5955,1.648167
279.7840,1.604123
280.9753,1.560050
282.1687,1.515956
283.3636,1.471846
284.5591,1.427729
284.5591,1.427729
285.9446,1.388437
287.4336,1.349165
289.0117,1.309903
290.6645,1.270637
292.3775,1.231355
294.1363,1.192051
295.9265,1.152707
297.7337,1.113311
299.5434,1.073858
301.3412,1.034332
303.1128,0.994722
304.8435,0.955014
304.8435,0.955014
305.2237,0.953117
305.6307,0.951085
306.0512,0.948775
306.0512,0.948775
307.5305,0.900121
309.1165,0.852541
311.0753,0.804977
313.6726,0.756385
313.6726,0.756385
315.1799,0.717163
316.6539,0.677707
318.0965,0.638030
319.5097,0.598134
320.8953,0.558024
322.2553,0.517724
323.5917,0.477208
324.9063,0.436512
326.2011,0.395641
327.4779,0.354589
328.7388,0.313361
329.9856,0.271981
331.2203,0.230449
332.4447,0.188760
333.6610,0.146934
333.6610,0.146934
334.2122,0.137132
334.9636,0.100750
336.5591,0.006594
336.5591,0.006594
337.5513,-0.015608
338.5349,-0.047740
340.3530,-0.117362
##END=
