##TITLE=N-Chlorodimethylamine
##JCAMP-DX=4.24
##DATA TYPE=UV/VIS SPECTRUM
##ORIGIN=INSTITUTE OF ENERGY PROBLEMS OF CHEMICAL PHYSICS, RAS
##OWNER=INEP CP RAS, NIST OSRD
Collection (C) 2007 copyright by the U.S. Secretary of Commerce
on behalf of the United States of America. All rights reserved.
##CAS REGISTRY NO=1585-74-6
##MOLFORM=C2H6ClN
##BP=46
##SOURCE REFERENCE=RAS UV No. 10213
##$NIST SQUIB=1949WEL/MOR3123
##$NIST SOURCE=TYUGLMTE
##SPECTROMETER/DATA SYSTEM=Beckman DU
##XUNITS=Wavelength (nm)
##YUNITS=Logarithm epsilon
##XFACTOR=1.0
##YFACTOR=1.0
##FIRSTX=205.29
##LASTX=305.67
##FIRSTY=2.074
##MAXX=305.67
##MINX=205.29
##MAXY=2.567
##MINY=1.833
##NPOINTS=180
##$REF AUTHOR=Well, I.; Morris, J.C.
##$REF JOURNAL=J. Am. Chem. Soc.
##$REF VOLUME=71
##$REF PAGE=3123
##$REF DATE=1949
##XYPOINTS=(XY..XY)
205.29,2.074
205.44,2.073
205.58,2.073
205.73,2.071
205.87,2.069
206.02,2.069
206.16,2.067
206.31,2.066
206.45,2.062
207.03,2.059
207.61,2.055
208.19,2.049
208.77,2.046
209.35,2.044
209.93,2.040
210.51,2.036
211.09,2.035
211.67,2.033
212.25,2.033
212.83,2.031
213.41,2.031
213.99,2.029
214.57,2.029
215.15,2.031
215.73,2.033
216.31,2.035
216.89,2.040
217.47,2.044
218.06,2.051
218.64,2.060
219.22,2.071
219.80,2.083
220.38,2.093
220.96,2.106
221.54,2.119
222.12,2.130
222.70,2.143
223.28,2.156
223.86,2.170
224.44,2.184
225.02,2.196
225.60,2.209
226.18,2.218
226.76,2.230
227.34,2.242
227.92,2.254
228.50,2.267
229.08,2.278
229.66,2.286
230.24,2.300
230.82,2.309
231.40,2.319
231.98,2.329
232.56,2.338
233.14,2.350
233.72,2.362
234.30,2.372
234.88,2.384
235.46,2.392
236.04,2.402
236.62,2.412
237.20,2.419
237.78,2.430
238.36,2.437
238.94,2.446
239.52,2.454
240.10,2.461
240.68,2.468
241.26,2.477
241.84,2.484
242.42,2.491
243.01,2.498
243.59,2.503
244.17,2.510
244.75,2.515
245.33,2.520
245.91,2.525
246.49,2.530
247.07,2.536
247.65,2.540
248.23,2.544
248.81,2.547
249.39,2.550
249.97,2.552
250.55,2.555
251.13,2.557
251.71,2.560
252.29,2.562
252.87,2.563
253.45,2.565
254.03,2.565
254.61,2.566
255.19,2.567
255.77,2.567
256.35,2.567
256.93,2.567
257.51,2.567
258.09,2.566
258.67,2.566
259.25,2.565
259.83,2.565
260.41,2.563
260.99,2.562
261.57,2.560
262.15,2.558
262.73,2.556
263.31,2.554
263.89,2.550
264.47,2.547
265.05,2.543
265.63,2.540
266.21,2.536
266.79,2.531
267.37,2.527
267.96,2.523
268.54,2.518
269.12,2.514
269.70,2.509
270.28,2.505
270.86,2.499
271.44,2.495
272.02,2.490
272.60,2.484
273.18,2.478
273.76,2.472
274.34,2.466
274.92,2.458
275.50,2.453
276.08,2.446
276.66,2.440
277.24,2.433
277.82,2.427
278.40,2.421
278.98,2.413
279.56,2.404
280.14,2.398
280.72,2.390
281.30,2.382
281.88,2.375
282.46,2.368
283.04,2.361
283.62,2.353
284.20,2.345
284.78,2.337
285.36,2.329
285.94,2.322
286.52,2.313
287.10,2.304
287.68,2.295
288.26,2.285
288.84,2.276
289.42,2.267
290.00,2.258
290.58,2.248
291.16,2.236
291.74,2.227
292.32,2.218
292.91,2.201
293.49,2.192
294.07,2.181
294.65,2.167
295.23,2.155
295.81,2.143
296.39,2.131
296.97,2.119
297.55,2.104
298.13,2.090
298.71,2.078
299.29,2.062
299.87,2.046
300.45,2.029
301.03,2.009
301.61,1.991
302.19,1.971
302.77,1.953
303.35,1.935
303.93,1.913
304.51,1.887
305.09,1.865
305.67,1.833
##END=
