##TITLE=1,4-dihydro-2,3-quinoxalinedione
##JCAMP-DX=4.24
##DATA TYPE=UV/VIS SPECTRUM
##ORIGIN=INSTITUTE OF ENERGY PROBLEMS OF CHEMICAL PHYSICS, RAS
##OWNER=INEP CP RAS, NIST OSRD
Collection (C) 2007 copyright by the U.S. Secretary of Commerce
on behalf of the United States of America. All rights reserved.
##CAS REGISTRY NO=15804-19-0
##MOLFORM=C8H6N2O2
##MP=410
##SOURCE REFERENCE=RAS UV No. 22279
##$NIST SQUIB=1978GOT/PFL1763
##$NIST SOURCE=TYUGLMTE
##SPECTROMETER/DATA SYSTEM=Cary 15
##XUNITS=Wavelength (nm)
##YUNITS=Logarithm epsilon
##XFACTOR=1.0
##YFACTOR=1.0
##FIRSTX=230.34
##LASTX=353.193
##FIRSTY=3.963
##MAXX=353.193
##MINX=230.34
##MAXY=4.052
##MINY=2.885
##NPOINTS=128
##$REF AUTHOR=Gottlieb, R.; Pfleiderer, W.
##$REF JOURNAL=Chem. Ber.
##$REF VOLUME=111
##$REF PAGE=1763
##$REF DATE=1978
##XYPOINTS=(XY..XY)
230.340,3.963
231.017,3.942
231.602,3.926
232.345,3.907
233.051,3.896
233.754,3.894
234.252,3.904
235.049,3.902
235.763,3.873
236.430,3.834
237.430,3.769
238.430,3.706
239.430,3.651
240.430,3.605
241.430,3.570
242.430,3.547
243.430,3.535
244.430,3.531
245.430,3.533
246.430,3.540
247.430,3.549
248.430,3.557
249.430,3.566
250.422,3.579
251.344,3.592
252.344,3.605
253.344,3.619
254.344,3.632
255.344,3.642
256.344,3.647
257.344,3.647
258.344,3.643
259.344,3.635
260.333,3.626
261.333,3.623
262.333,3.618
263.333,3.611
264.333,3.603
265.333,3.593
266.333,3.581
267.228,3.567
268.228,3.556
269.228,3.535
270.228,3.510
271.228,3.486
272.228,3.466
273.228,3.452
274.228,3.446
275.228,3.449
276.228,3.461
277.228,3.480
278.228,3.503
279.228,3.529
280.201,3.553
281.201,3.577
282.201,3.603
283.201,3.631
284.201,3.660
285.201,3.689
286.201,3.718
287.201,3.746
288.201,3.773
289.201,3.799
290.201,3.823
291.201,3.845
292.201,3.865
293.201,3.884
294.201,3.900
295.201,3.915
296.201,3.928
297.201,3.940
298.201,3.951
299.201,3.962
300.201,3.972
301.232,3.985
302.232,3.993
303.232,4.000
304.232,4.008
305.232,4.019
306.232,4.030
307.232,4.041
308.232,4.049
309.232,4.052
310.232,4.050
311.232,4.045
312.211,4.040
313.147,4.028
313.154,4.029
314.154,4.019
315.154,4.009
316.154,4.001
317.154,3.995
318.154,3.991
319.154,3.989
320.154,3.988
321.126,3.988
322.126,3.983
323.126,3.976
324.126,3.967
325.126,3.955
326.126,3.940
327.126,3.921
328.126,3.898
329.010,3.874
330.010,3.842
331.010,3.809
332.010,3.777
333.010,3.748
334.010,3.723
335.010,3.704
336.010,3.689
337.010,3.678
338.010,3.667
339.033,3.656
340.033,3.645
341.033,3.629
342.033,3.605
343.193,3.568
344.193,3.530
345.193,3.473
346.193,3.404
347.193,3.330
348.193,3.254
349.193,3.179
350.193,3.106
351.193,3.034
352.193,2.962
353.193,2.885
##END=
