##TITLE=2-Naphthalenemethanol
##JCAMP-DX=4.24
##DATA TYPE=UV/VIS SPECTRUM
##ORIGIN=INSTITUTE OF ENERGY PROBLEMS OF CHEMICAL PHYSICS, RAS
##OWNER=INEP CP RAS, NIST OSRD
Collection (C) 2007 copyright by the U.S. Secretary of Commerce
on behalf of the United States of America. All rights reserved.
##CAS REGISTRY NO=1592-38-7
##MOLFORM=C11H10O
##MP=81
##BP=178/ 12 mm
##SOURCE REFERENCE=RAS UV No. 20218
##$NIST SQUIB=1969BOL/245
##$NIST SOURCE=TYUGLMTE
##SPECTROMETER/DATA SYSTEM=unknown
##XUNITS=Wavelength (nm)
##YUNITS=Logarithm epsilon
##XFACTOR=1.0
##YFACTOR=1.0
##FIRSTX=213.92
##LASTX=340.02
##FIRSTY=4.529
##MAXX=340.02
##MINX=213.92
##MAXY=4.829
##MINY=2.063
##NPOINTS=191
##$REF AUTHOR=Bol'shakov, G.F.; et al.
##$REF JOURNAL=Ultraviolet spectra of heteroorganic compounds
##$REF PAGE=245
##$REF DATE=1969
##XYPOINTS=(XY..XY)
213.92,4.529
214.08,4.538
214.25,4.542
214.41,4.546
214.58,4.550
214.74,4.554
214.90,4.558
215.07,4.567
215.23,4.571
215.56,4.583
216.38,4.617
217.16,4.655
218.02,4.687
218.83,4.721
219.64,4.747
220.47,4.767
221.34,4.784
222.11,4.796
222.93,4.813
223.75,4.825
224.56,4.829
225.38,4.829
226.20,4.817
227.02,4.800
227.84,4.704
228.66,4.625
229.48,4.558
230.30,4.483
231.12,4.404
231.93,4.329
232.75,4.271
233.57,4.209
234.39,4.129
235.21,4.054
236.03,3.988
236.85,3.892
237.67,3.842
238.48,3.759
239.30,3.692
240.12,3.630
240.94,3.575
241.76,3.530
242.58,3.492
243.40,3.455
244.22,3.434
245.04,3.417
245.85,3.405
246.68,3.399
247.49,3.400
248.31,3.409
249.13,3.421
249.95,3.438
250.77,3.450
251.58,3.463
252.40,3.471
253.17,3.478
254.02,3.485
254.86,3.488
255.68,3.488
256.50,3.492
257.32,3.505
258.14,3.517
258.96,3.538
259.77,3.563
260.59,3.584
261.41,3.596
262.23,3.609
263.05,3.617
263.87,3.621
264.69,3.613
265.51,3.605
266.32,3.596
267.14,3.600
267.96,3.605
268.78,3.613
269.60,3.625
270.42,3.646
271.24,3.663
272.06,3.667
272.88,3.671
273.69,3.655
274.51,3.630
275.33,3.592
276.15,3.559
276.97,3.530
277.79,3.500
278.61,3.484
279.43,3.484
280.25,3.484
281.06,3.488
281.88,3.492
282.70,3.513
283.52,3.534
284.34,3.538
285.16,3.517
285.98,3.459
286.80,3.359
287.61,3.271
288.43,3.196
289.25,3.117
290.07,3.092
290.89,3.030
291.71,2.988
292.53,2.959
293.35,2.938
294.17,2.917
294.98,2.909
295.80,2.909
296.62,2.917
297.44,2.926
298.26,2.938
299.08,2.951
299.90,2.963
300.72,2.980
301.53,2.988
302.35,2.996
303.17,3.005
303.99,3.013
304.81,3.021
305.63,3.026
306.45,3.030
307.27,3.042
308.09,3.055
308.90,3.071
309.72,3.105
310.54,3.126
311.52,3.196
311.69,3.201
311.85,3.205
312.02,3.209
312.18,3.213
312.34,3.217
312.51,3.221
312.67,3.225
312.83,3.230
313.00,3.234
313.49,3.230
313.98,3.230
314.47,3.217
314.96,3.209
315.45,3.192
315.95,3.184
316.44,3.180
316.93,3.171
317.42,3.171
317.91,3.176
318.40,3.176
318.89,3.180
319.38,3.180
319.88,3.176
320.37,3.163
320.86,3.159
321.35,3.159
321.84,3.163
322.33,3.184
322.82,3.192
323.32,3.192
323.81,3.184
324.30,3.184
324.79,3.184
325.28,3.196
325.77,3.205
326.26,3.221
326.75,3.259
327.25,3.296
327.74,3.338
328.23,3.359
328.72,3.363
329.21,3.334
329.56,3.298
329.90,3.256
330.68,3.142
331.18,3.076
331.58,3.034
331.86,3.007
332.48,2.944
333.14,2.867
333.63,2.796
334.12,2.730
334.62,2.655
335.11,2.592
335.60,2.534
336.09,2.467
336.58,2.384
337.07,2.330
337.56,2.280
338.05,2.226
338.55,2.184
339.04,2.138
339.53,2.105
340.02,2.063
##END=
