##TITLE=m-Aminobenzanilide
##JCAMP-DX=4.24
##DATA TYPE=UV/VIS SPECTRUM
##ORIGIN=INSTITUTE OF ENERGY PROBLEMS OF CHEMICAL PHYSICS, RAS
##OWNER=INEP CP RAS, NIST OSRD
Collection (C) 2007 copyright by the U.S. Secretary of Commerce
on behalf of the United States of America. All rights reserved.
##CAS REGISTRY NO=16091-26-2
##MOLFORM=C13H12N2O
##SOURCE REFERENCE=RAS UV No. 5694
##$NIST SQUIB=1951GRA534-545
##$NIST SOURCE=TSGMTE
##SPECTROMETER/DATA SYSTEM=n.i.g.
##XUNITS=Wavelength (nm)
##YUNITS=Logarithm epsilon
##XFACTOR=1.000000
##YFACTOR=1.000000
##FIRSTX=385.9312
##LASTX=260.9723
##FIRSTY=0.998517
##MAXX=385.931
##MINX=260.972
##MAXY=4.05549
##MINY=0.959828
##NPOINTS=242
##$REF AUTHOR=Grammaticakis, P.
##$REF TITLE=Contribution a l'etude de l'absorption dans l'ultraviolet moyen et le visible des arylamines isomeres et de leurs derives N-substitues (2^e memoire)
##$REF JOURNAL=Bull. Soc. Chim. Fr.
##$REF VOLUME=18
##$REF PAGE=534-545
##$REF DATE=1951
##XYPOINTS=(XY..XY)
385.9312,0.998517
385.9146,0.993317
385.8685,0.978883
385.8076,0.959828
385.4922,1.003284
385.4462,0.988849
385.4314,0.984230
384.2639,1.061494
384.2327,1.051677
383.8286,1.066263
382.8761,1.066583
376.8964,1.500987
376.3899,1.476885
376.3758,1.472266
376.2880,1.443394
376.2582,1.433579
376.0459,1.505905
376.0318,1.501287
375.9723,1.481655
375.8129,1.429109
375.5892,1.515313
375.5752,1.510694
375.1751,1.520660
375.1594,1.515463
374.9432,1.443864
374.7741,1.530050
374.7463,1.520811
374.3223,1.540034
374.3084,1.535414
373.9249,1.550001
373.9093,1.544803
372.0502,1.651240
371.7179,1.699335
371.6888,1.689518
371.6186,1.665844
371.5895,1.656028
371.0048,1.742941
370.9622,1.728506
370.5603,1.752349
370.5467,1.747729
370.2422,1.786566
370.1420,1.752499
369.8652,1.800574
369.8381,1.791335
367.9105,1.878159
367.8971,1.873540
367.5399,1.892744
367.5131,1.883506
367.1568,1.902711
367.1284,1.892895
366.7364,1.917315
366.7081,1.907499
366.1104,1.984595
365.6643,1.989384
365.6378,1.980145
364.4597,1.995031
364.4449,1.989834
364.0455,2.009635
364.0176,1.999819
363.6548,2.014405
363.0299,2.096139
362.9221,2.058030
362.8943,2.048214
362.2017,2.087201
360.3655,2.178643
360.3253,2.164208
360.0775,2.217481
359.9843,2.183991
359.7081,2.226869
359.6953,2.222250
359.3190,2.246670
359.2790,2.232235
358.6112,2.275264
358.5586,2.256209
358.2373,2.299684
358.1848,2.280630
357.8590,2.304454
357.8463,2.299834
357.4688,2.304604
357.0577,2.314589
357.0450,2.309970
356.7607,2.348229
356.6692,2.314739
355.9895,2.367603
355.9643,2.358364
355.6425,2.382189
355.6175,2.372950
355.2838,2.392155
355.2572,2.382339
354.9241,2.401544
354.8992,2.392305
354.5064,2.406909
354.4924,2.401713
354.1359,2.411679
354.1235,2.407059
353.7802,2.421645
353.7662,2.416448
353.3760,2.431053
353.3636,2.426433
353.0465,2.450258
353.0094,2.436400
352.7053,2.464843
352.6806,2.455604
352.3312,2.484644
352.2927,2.470209
351.9775,2.494033
351.9530,2.484794
351.6139,2.499380
351.6001,2.494183
350.8265,2.504318
350.8143,2.499699
350.5277,2.533339
350.4637,2.509088
350.2415,2.566979
350.1533,2.533489
349.8332,2.571768
349.8210,2.567148
349.4860,2.581734
349.4603,2.571918
349.1516,2.596319
349.1259,2.586503
348.7579,2.605727
348.7459,2.601108
348.4249,2.620313
348.3873,2.605877
348.0670,2.625082
348.0550,2.620463
347.6893,2.639686
347.6518,2.625251
347.3463,2.649653
347.3344,2.645033
347.0160,2.664238
346.9907,2.654422
346.6744,2.674204
346.6610,2.669008
346.2863,2.683612
346.2744,2.678993
345.9462,2.693578
345.9209,2.683762
345.6304,2.712783
345.5933,2.698348
345.3317,2.756258
345.3066,2.746442
345.2460,2.722768
345.2209,2.712952
344.9433,2.746592
344.8946,2.727538
337.8603,3.009118
337.8249,2.994682
332.9384,3.193350
332.9041,3.178914
332.2448,3.203485
331.9084,3.203635
330.3182,3.256950
330.2736,3.237895
329.9442,3.257119
329.6462,3.271704
329.6246,3.262465
320.4516,3.501997
320.4198,3.487562
319.8292,3.521371
319.8076,3.511555
319.5276,3.526141
319.5175,3.521521
319.2266,3.530910
316.1169,3.571155
316.1070,3.566536
315.8053,3.585759
315.7843,3.575943
315.5113,3.590529
315.5014,3.585909
313.9835,3.601115
313.9628,3.591298
307.1481,3.695354
307.1294,3.686116
301.3408,3.741795
301.1012,3.761000
301.0742,3.747142
300.8249,3.761150
300.5592,3.766497
299.9748,3.766816
299.7095,3.771586
299.4016,3.771755
284.7736,3.905055
284.2878,3.909975
284.2798,3.905356
283.7739,3.915491
283.7649,3.910294
283.5285,3.915641
283.2914,3.920411
283.0163,3.920580
282.5453,3.930696
282.2796,3.935484
282.2717,3.930865
281.7943,3.935785
281.5602,3.940554
281.0473,3.940873
280.5528,3.951008
280.3207,3.955778
280.3129,3.951159
280.0890,3.960547
280.0812,3.955928
279.0844,3.966382
279.0757,3.961186
278.8470,3.966533
278.6255,3.975921
278.6178,3.971302
278.3975,3.981268
278.3889,3.976072
277.9037,3.986207
277.8961,3.981587
277.6683,3.986357
277.4117,3.991145
277.1771,3.991295
276.6962,4.001431
275.7362,4.002050
275.5120,4.006820
275.2882,4.011589
275.2807,4.006970
274.3093,4.012227
274.0725,4.007758
271.7159,4.009316
271.4982,4.014086
268.7165,4.015963
268.5045,4.021310
267.3913,4.045772
266.9558,4.046073
266.7044,4.041622
266.2712,4.041923
266.0352,4.046711
265.1476,4.047330
264.9264,4.042861
264.2591,4.043331
264.0532,4.048100
262.9413,4.048889
262.7238,4.044419
262.4871,4.044588
262.4803,4.039969
262.2703,4.040119
261.1994,4.040889
260.9866,4.055493
260.9723,4.045677
##END=
