##TITLE=Triphenylene, 1,2,3,4,5,6,7,8,9,10,11,12-dodecahydro-
##JCAMP-DX=4.24
##DATA TYPE=UV/VIS SPECTRUM
##ORIGIN=INSTITUTE OF ENERGY PROBLEMS OF CHEMICAL PHYSICS, RAS
##OWNER=INEP CP RAS, NIST OSRD
Collection (C) 2007 copyright by the U.S. Secretary of Commerce
on behalf of the United States of America. All rights reserved.
##CAS REGISTRY NO=1610-39-5
##MOLFORM=C18H24
##MP=232.0-233.0
##SOURCE REFERENCE=RAS UV No. 398
##$NIST SQUIB=1907MAN153-165
##$NIST SOURCE=TSGMTE
##SPECTROMETER/DATA SYSTEM=Spectrophotometer SF-16
##XUNITS=Wavelength (nm)
##YUNITS=Logarithm epsilon
##XFACTOR=1.000000
##YFACTOR=1.000000
##FIRSTX=210.0000
##LASTX=269.0000
##FIRSTY=4.43999
##MAXX=269
##MINX=210
##MAXY=4.43999
##MINY=2.1
##NPOINTS=60
##$REF AUTHOR=Mannich, C.
##$REF TITLE=Uber die kondensation des cyclohexanons
##$REF JOURNAL=Chem. Ber.
##$REF VOLUME=40
##$REF PAGE=153-165
##$REF DATE=1907
##XYPOINTS=(XY..XY)
210.0000,4.439995
211.0000,4.380000
212.0000,4.320000
213.0000,4.270000
214.0000,4.210000
215.0000,4.180000
216.0000,4.150000
217.0000,4.130000
218.0000,4.100000
219.0000,4.080000
220.0000,4.060018
221.0000,4.040000
222.0000,4.030000
223.0000,4.010000
224.0000,3.990000
225.0000,3.970000
226.0000,3.950000
227.0000,3.930000
228.0000,3.900000
229.0000,3.880000
230.0000,3.839999
231.0000,3.750000
232.0000,3.630000
233.0000,3.520000
234.0000,3.400000
235.0000,3.270000
236.0000,3.140000
237.0000,3.010000
238.0000,2.870000
239.0000,2.740000
240.0000,2.600003
241.0000,2.470000
242.0000,2.330000
243.0000,2.190000
244.0000,2.110000
245.0000,2.110000
246.0000,2.100000
247.0000,2.100000
248.0000,2.120000
249.0000,2.140000
250.0000,2.159988
251.0000,2.190000
252.0000,2.230000
253.0000,2.250000
254.0000,2.270000
255.0000,2.290000
256.0000,2.310000
257.0000,2.330000
258.0000,2.350000
259.0000,2.360000
260.0000,2.369995
261.0000,2.380000
262.0000,2.400000
263.0000,2.410000
264.0000,2.420000
265.0000,2.420000
266.0000,2.420000
267.0000,2.410000
268.0000,2.390000
269.0000,2.360000
##END=
