##TITLE=3-Pyridinethiol
##JCAMP-DX=4.24
##DATA TYPE=UV/VIS SPECTRUM
##ORIGIN=INSTITUTE OF ENERGY PROBLEMS OF CHEMICAL PHYSICS, RAS
##OWNER=INEP CP RAS, NIST OSRD
Collection (C) 2007 copyright by the U.S. Secretary of Commerce
on behalf of the United States of America. All rights reserved.
##CAS REGISTRY NO=16133-26-9
##MOLFORM=C5H5NS
##SOURCE REFERENCE=RAS UV No. 12947
##$NIST SQUIB=1959ALB/BAR2384
##$NIST SOURCE=TYUGLMTE
##SPECTROMETER/DATA SYSTEM=n.i.g.
##XUNITS=Wavelength (nm)
##YUNITS=Logarithm epsilon
##XFACTOR=1.0
##YFACTOR=1.0
##FIRSTX=220.65
##LASTX=422.84
##FIRSTY=4.038
##MAXX=422.84
##MINX=220.65
##MAXY=4.188
##MINY=2.284
##NPOINTS=107
##$REF AUTHOR=Albert, A.; Barlin, G.B.
##$REF JOURNAL=J. Chem. Soc.
##$REF PAGE=2384
##$REF DATE=1959
##XYPOINTS=(XY..XY)
220.65,4.038
222.69,4.081
224.73,4.124
226.76,4.159
229.09,4.188
231.71,4.180
234.04,4.145
235.20,4.088
236.36,4.031
237.53,3.974
238.40,3.911
239.27,3.854
240.15,3.790
241.02,3.733
241.89,3.676
242.76,3.619
243.35,3.555
244.51,3.499
245.67,3.442
247.13,3.392
249.16,3.349
251.78,3.335
253.82,3.371
255.85,3.413
257.31,3.463
258.76,3.513
260.22,3.570
261.96,3.612
263.42,3.669
264.87,3.726
266.33,3.776
267.78,3.832
269.53,3.882
270.98,3.932
273.02,3.974
275.05,4.017
277.09,4.060
279.13,4.095
281.75,4.109
284.07,4.131
286.69,4.131
289.31,4.109
291.64,4.074
293.67,4.038
295.42,3.989
296.87,3.932
298.62,3.889
300.07,3.839
301.82,3.790
303.27,3.733
304.73,3.683
306.18,3.634
307.35,3.577
308.80,3.520
309.67,3.463
310.84,3.406
312.58,3.357
314.33,3.307
316.95,3.286
319.56,3.278
322.18,3.286
324.80,3.300
327.13,3.328
329.45,3.349
331.78,3.371
334.11,3.399
336.73,3.413
339.35,3.428
341.96,3.442
344.58,3.463
347.20,3.463
349.82,3.477
352.44,3.477
355.05,3.484
357.67,3.484
360.29,3.470
362.91,3.456
365.53,3.442
368.15,3.428
370.47,3.399
373.09,3.378
375.42,3.349
377.75,3.321
380.07,3.286
382.11,3.250
384.44,3.222
386.47,3.179
388.80,3.143
390.84,3.101
393.16,3.065
395.20,3.023
396.95,2.980
398.69,2.938
400.73,2.895
402.76,2.852
404.51,2.803
406.25,2.760
408.29,2.717
410.04,2.668
411.49,2.618
413.53,2.575
414.98,2.526
416.44,2.476
418.18,2.433
419.93,2.384
421.38,2.334
422.84,2.284
##END=
