##TITLE=2-iodo-4-methylphenol
##JCAMP-DX=4.24
##DATA TYPE=UV/VIS SPECTRUM
##ORIGIN=INSTITUTE OF ENERGY PROBLEMS OF CHEMICAL PHYSICS, RAS
##OWNER=INEP CP RAS, NIST OSRD
Collection (C) 2007 copyright by the U.S. Secretary of Commerce
on behalf of the United States of America. All rights reserved.
##CAS REGISTRY NO=16188-57-1
##MP=36-37
##SOURCE REFERENCE=RAS UV No. 23301
##$NIST SQUIB=1975KAT/HSI1736
##$NIST SOURCE=TYUGLMTE
##SPECTROMETER/DATA SYSTEM=Cary 15
##XUNITS=Wavelength (nm)
##YUNITS=Logarithm epsilon
##XFACTOR=1.0
##YFACTOR=1.0
##FIRSTX=235.48
##LASTX=313.078
##FIRSTY=3.699
##MAXX=313.078
##MINX=235.48
##MAXY=3.699
##MINY=2.016
##NPOINTS=80
##$REF AUTHOR=Katzenellenbogen, J.A.; Hsiung, H.M.
##$REF JOURNAL=Biochemistry
##$REF VOLUME=14
##$REF PAGE=1736
##$REF DATE=1975
##XYPOINTS=(XY..XY)
235.480,3.699
236.480,3.554
237.480,3.424
238.480,3.310
239.480,3.212
240.480,3.130
241.480,3.065
242.480,3.016
243.480,2.983
244.328,2.969
245.328,2.964
246.328,2.961
247.328,2.959
248.328,2.959
249.328,2.960
250.328,2.964
251.328,2.968
252.328,2.975
253.328,2.982
254.328,2.992
255.328,3.003
256.328,3.015
257.328,3.029
258.328,3.043
259.328,3.059
260.328,3.076
261.328,3.093
262.328,3.112
263.328,3.130
264.328,3.149
265.328,3.169
266.328,3.189
267.328,3.209
268.328,3.229
269.328,3.250
270.328,3.272
271.328,3.295
272.328,3.319
272.345,3.322
273.345,3.342
274.345,3.366
275.345,3.394
276.345,3.421
277.345,3.449
278.345,3.474
279.345,3.497
280.345,3.516
281.345,3.533
282.345,3.545
283.345,3.555
284.345,3.561
285.345,3.564
286.345,3.565
287.345,3.564
288.345,3.562
289.345,3.559
290.345,3.555
291.345,3.551
292.345,3.546
293.345,3.540
295.028,3.527
295.078,3.525
296.078,3.517
297.078,3.479
298.078,3.418
299.078,3.340
300.078,3.252
301.078,3.156
302.078,3.057
303.078,2.957
304.078,2.856
305.078,2.756
306.078,2.657
307.078,2.559
308.078,2.462
309.078,2.367
310.078,2.273
311.078,2.182
312.078,2.095
313.078,2.016
##END=
