##TITLE=1-(2-benzothiazolyl)ethanone
##JCAMP-DX=4.24
##DATA TYPE=UV/VIS SPECTRUM
##ORIGIN=INSTITUTE OF ENERGY PROBLEMS OF CHEMICAL PHYSICS, RAS
##OWNER=INEP CP RAS, NIST OSRD
Collection (C) 2007 copyright by the U.S. Secretary of Commerce
on behalf of the United States of America. All rights reserved.
##CAS REGISTRY NO=1629-78-3
##MOLFORM=C9H7NOS
##MP=110-111
##SOURCE REFERENCE=RAS UV No. 23207
##$NIST SQUIB=1975RIE/538
##$NIST SOURCE=TYUGLMTE
##SPECTROMETER/DATA SYSTEM=unknown
##XUNITS=Wavelength (nm)
##YUNITS=Logarithm epsilon
##XFACTOR=1.0
##YFACTOR=1.0
##FIRSTX=258.089
##LASTX=350.547
##FIRSTY=3.572
##MAXX=350.547
##MINX=258.089
##MAXY=4.065
##MINY=3.089
##NPOINTS=95
##$REF AUTHOR=Ried, W.; et al.
##$REF JOURNAL=Chem. Ber.
##$REF VOLUME=108
##$REF PAGE=538
##$REF DATE=1975
##XYPOINTS=(XY..XY)
258.089,3.572
259.089,3.583
260.089,3.594
261.089,3.604
262.089,3.615
263.089,3.628
264.089,3.641
265.089,3.655
266.089,3.671
267.089,3.688
268.089,3.705
269.089,3.723
270.089,3.742
271.089,3.761
272.089,3.779
273.089,3.798
274.089,3.816
275.089,3.834
276.089,3.851
277.089,3.867
278.089,3.883
279.089,3.898
280.089,3.913
281.089,3.927
282.089,3.940
282.428,3.944
283.428,3.957
284.428,3.970
285.428,3.984
286.428,3.998
287.428,4.012
288.428,4.024
289.428,4.035
290.428,4.044
291.428,4.052
292.428,4.058
293.428,4.062
294.428,4.065
295.428,4.065
296.428,4.065
297.428,4.063
298.428,4.060
299.428,4.057
300.428,4.052
301.428,4.046
302.428,4.040
303.428,4.033
304.428,4.024
305.428,4.015
306.428,4.003
307.428,3.990
308.428,3.974
309.428,3.954
309.553,3.953
310.553,3.923
311.553,3.895
312.553,3.868
313.553,3.842
314.553,3.816
315.553,3.790
316.553,3.764
317.553,3.738
318.553,3.712
319.553,3.687
320.553,3.662
321.553,3.638
322.553,3.616
323.553,3.595
324.553,3.576
325.553,3.558
326.553,3.542
327.553,3.528
328.553,3.516
329.553,3.504
330.553,3.493
331.547,3.482
332.547,3.471
333.547,3.456
334.547,3.437
335.547,3.417
336.547,3.396
337.547,3.375
338.547,3.354
339.547,3.334
340.547,3.314
341.547,3.295
342.547,3.276
343.547,3.256
344.547,3.236
345.547,3.214
346.547,3.192
347.547,3.168
348.547,3.143
349.547,3.116
350.547,3.089
##END=
