##TITLE=[2.2]Paracyclophane
##JCAMP-DX=4.24
##DATA TYPE=UV/VIS SPECTRUM
##ORIGIN=INSTITUTE OF ENERGY PROBLEMS OF CHEMICAL PHYSICS, RAS
##OWNER=INEP CP RAS, NIST OSRD
Collection (C) 2007 copyright by the U.S. Secretary of Commerce
on behalf of the United States of America. All rights reserved.
##CAS REGISTRY NO=1633-22-3
##MOLFORM=C16H16
##SOURCE REFERENCE=RAS UV No. 386
##$NIST SQUIB=1963CRA/DAL1088-1093
##$NIST SOURCE=TSGMTE
##SPECTROMETER/DATA SYSTEM=Cary PMS 11
##XUNITS=Wavelength (nm)
##YUNITS=Logarithm epsilon
##XFACTOR=1.000000
##YFACTOR=1.000000
##FIRSTX=211.6318
##LASTX=310.1570
##FIRSTY=5.62617
##MAXX=310.157
##MINX=211.632
##MAXY=5.95449
##MINY=3.63934
##NPOINTS=208
##$REF AUTHOR=Cram, D.J.; Dalton, C.K.; Knox, G.R.
##$REF TITLE=Macro rings. XXIX. Stereochemistry of a 1,6-cycloaddition reaction
##$REF JOURNAL=J. Am. Chem. Soc.
##$REF VOLUME=85
##$REF PAGE=1088-1093
##$REF DATE=1963
##XYPOINTS=(XY..XY)
211.6318,5.626174
211.7225,5.625720
211.8182,5.625166
211.9239,5.624414
214.5252,5.630041
214.7328,5.633955
214.9504,5.637671
215.1731,5.641288
216.2860,5.676734
216.3982,5.679876
216.5155,5.683018
216.6426,5.686162
217.5752,5.725168
217.6926,5.730978
217.8200,5.736690
217.9524,5.742203
219.0411,5.784803
219.1588,5.789271
219.2865,5.793640
219.4193,5.797812
220.6201,5.840870
220.7095,5.845335
220.8040,5.849702
220.9085,5.853870
222.0878,5.892901
222.2435,5.898599
222.3991,5.904097
222.5549,5.909497
224.3180,5.946797
224.5932,5.949491
224.8784,5.952088
225.1687,5.954485
227.0337,5.943489
227.1760,5.939346
227.3283,5.935004
227.4857,5.930563
228.5275,5.891754
228.5809,5.884470
228.6442,5.876989
228.7126,5.869408
229.2828,5.832341
229.2844,5.826079
229.2860,5.819817
229.2876,5.813555
229.8615,5.761728
229.8627,5.756808
229.8639,5.751888
229.8652,5.746968
230.0540,5.709863
230.2905,5.671520
230.7989,5.622171
231.7656,5.594635
231.7656,5.594635
232.0876,5.556798
232.4424,5.527015
232.8233,5.492761
232.8233,5.492761
233.9997,5.444058
234.6166,5.419950
234.7962,5.409316
235.9265,5.375883
236.1081,5.370517
236.2948,5.365052
236.4915,5.359390
237.6213,5.327746
237.7639,5.322376
237.9165,5.316908
238.0742,5.311241
239.4974,5.272470
239.6795,5.265762
239.8665,5.258956
240.0635,5.251951
241.1942,5.216729
241.3986,5.210040
241.6081,5.203352
241.8275,5.196664
243.2517,5.153868
243.4337,5.147160
243.6207,5.140354
243.8178,5.133349
245.1298,5.090988
245.3786,5.082962
245.6274,5.074936
245.8762,5.066910
247.1874,5.027680
247.3461,5.020986
247.5049,5.014293
247.6636,5.007599
248.8859,4.964782
249.0676,4.959417
249.2543,4.953952
249.4510,4.948289
250.7640,4.901903
250.9224,4.896535
251.0808,4.891068
251.2393,4.885401
252.4616,4.842584
252.6440,4.834551
252.8313,4.826519
253.0286,4.818488
254.1602,4.779687
254.4095,4.769408
254.6590,4.759029
254.9084,4.748452
256.0419,4.702048
256.2242,4.694015
256.4116,4.685983
256.6089,4.677951
257.7199,4.631545
257.8408,4.623506
257.9716,4.615468
258.1074,4.607430
258.6800,4.560970
258.7327,4.556055
258.7954,4.551142
258.8632,4.546228
259.6391,4.493974
259.6920,4.488595
259.7549,4.483118
259.8228,4.477443
260.5841,4.393877
260.6085,4.389722
260.6378,4.385368
260.6771,4.380915
261.3404,4.330886
261.3419,4.324624
261.3435,4.318363
261.3451,4.312101
261.7386,4.263834
261.7914,4.258919
261.8541,4.254005
261.9218,4.249092
262.4957,4.197265
262.5491,4.189981
262.6124,4.182500
262.6808,4.174919
263.6353,4.126708
263.6883,4.120766
263.7513,4.114626
263.8194,4.108388
264.9524,4.063773
265.2222,4.058184
265.3220,4.054367
265.3375,4.049051
267.0081,4.008068
267.2570,4.003172
267.5108,3.998278
267.7747,3.993384
270.4693,3.984707
270.8062,3.986530
271.1481,3.988353
271.5000,3.990177
273.1753,4.019864
273.4211,4.023782
273.6670,4.027501
273.9129,4.031120
276.2122,4.077866
276.3026,4.078637
276.3980,4.079210
276.5034,4.079684
278.9153,4.124653
279.3409,4.130941
279.7714,4.137130
280.2120,4.143121
282.4547,4.147370
282.6362,4.142451
282.8228,4.137434
283.0194,4.132218
284.8927,4.088124
284.8933,4.085756
284.8939,4.083188
284.8946,4.080521
286.2071,4.035924
286.3891,4.029233
286.5761,4.022542
286.7731,4.015852
287.9047,3.977052
288.1533,3.969788
288.4020,3.962325
288.6507,3.954762
290.3409,3.924963
290.4823,3.924513
290.6337,3.923965
290.7901,3.923219
293.3296,3.906922
293.5765,3.906483
293.8234,3.905945
294.0704,3.905207
296.4987,3.884874
296.6796,3.882524
296.8656,3.879974
297.0615,3.877327
299.6715,3.848066
299.8524,3.845716
300.0384,3.843166
300.2343,3.840519
302.1031,3.814763
302.4026,3.809872
302.7122,3.804983
303.0267,3.800094
304.5374,3.770277
304.7473,3.764914
304.9673,3.759453
305.1922,3.753793
309.4106,3.663416
309.6594,3.655390
309.9082,3.647363
310.1570,3.639337
##END=
