##TITLE=1-Heptanethiol
##JCAMP-DX=4.24
##DATA TYPE=UV/VIS SPECTRUM
##ORIGIN=INSTITUTE OF ENERGY PROBLEMS OF CHEMICAL PHYSICS, RAS
##OWNER=INEP CP RAS, NIST OSRD
Collection (C) 2007 copyright by the U.S. Secretary of Commerce
on behalf of the United States of America. All rights reserved.
##CAS REGISTRY NO=1639-09-4
##MOLFORM=C7H16S
##BP=177
##SOURCE REFERENCE=RAS UV No. 20098
##$NIST SQUIB=1969BOL/89
##$NIST SOURCE=TYUGLMTE
##SPECTROMETER/DATA SYSTEM=unknown
##XUNITS=Wavelength (nm)
##YUNITS=Logarithm epsilon
##XFACTOR=1.0
##YFACTOR=1.0
##FIRSTX=205.75
##LASTX=313.54
##FIRSTY=2.431
##MAXX=313.54
##MINX=205.75
##MAXY=2.431
##MINY=0.07
##NPOINTS=140
##$REF AUTHOR=Bol'shakov, G.F.; et al.
##$REF JOURNAL=Ultraviolet spectra of heteroorganic compounds
##$REF PAGE=89
##$REF DATE=1969
##XYPOINTS=(XY..XY)
205.75,2.431
205.92,2.429
206.09,2.424
206.26,2.422
206.43,2.420
206.60,2.418
206.77,2.416
206.94,2.413
207.11,2.411
207.28,2.407
207.78,2.403
208.46,2.390
209.14,2.381
209.81,2.368
210.49,2.359
211.17,2.348
211.84,2.338
212.52,2.329
213.20,2.327
213.88,2.320
214.55,2.314
215.23,2.312
215.91,2.307
216.58,2.305
217.26,2.303
217.94,2.303
218.61,2.301
219.29,2.299
219.97,2.299
220.64,2.299
221.32,2.299
222.00,2.299
222.67,2.301
223.35,2.303
224.03,2.305
224.70,2.305
225.38,2.305
226.06,2.307
226.73,2.307
227.41,2.309
228.09,2.309
228.77,2.309
229.44,2.305
230.12,2.303
230.80,2.301
231.47,2.296
232.15,2.294
232.83,2.290
233.50,2.288
234.18,2.283
234.86,2.275
235.53,2.270
236.21,2.262
236.89,2.257
237.56,2.249
238.24,2.238
238.92,2.229
239.59,2.223
240.27,2.212
240.95,2.203
241.62,2.190
242.30,2.175
242.98,2.164
243.66,2.149
244.33,2.134
245.01,2.121
245.69,2.106
246.36,2.089
247.04,2.069
247.70,2.050
248.39,2.028
249.07,2.006
249.64,1.988
250.40,1.965
251.10,1.943
251.78,1.922
252.45,1.898
253.13,1.870
253.81,1.837
254.49,1.807
255.16,1.777
255.84,1.740
256.52,1.703
257.19,1.677
257.87,1.638
258.55,1.610
259.22,1.577
259.90,1.536
260.58,1.504
261.25,1.463
261.93,1.428
262.61,1.391
263.28,1.346
263.96,1.305
264.64,1.259
265.31,1.212
265.99,1.160
266.67,1.114
267.34,1.056
268.02,1.004
268.70,0.943
269.38,0.878
270.05,0.822
270.73,0.752
271.41,0.681
272.08,0.625
272.76,0.562
273.44,0.501
274.11,0.445
274.79,0.382
275.37,0.339
276.07,0.303
276.82,0.275
277.68,0.250
278.85,0.224
279.70,0.209
280.65,0.192
281.56,0.179
282.74,0.168
284.10,0.157
285.28,0.146
286.63,0.140
287.99,0.131
289.34,0.122
290.86,0.118
292.22,0.109
293.74,0.105
295.28,0.102
296.79,0.096
298.31,0.092
299.79,0.088
301.36,0.085
302.88,0.083
304.40,0.081
305.92,0.077
307.48,0.075
308.97,0.072
310.49,0.070
312.02,0.070
313.54,0.070
##END=
