##TITLE=1,3-dihydro-4-phenyl-2H-1,5-benzodiazepin-2-one
##JCAMP-DX=4.24
##DATA TYPE=UV/VIS SPECTRUM
##ORIGIN=INSTITUTE OF ENERGY PROBLEMS OF CHEMICAL PHYSICS, RAS
##OWNER=INEP CP RAS, NIST OSRD
Collection (C) 2007 copyright by the U.S. Secretary of Commerce
on behalf of the United States of America. All rights reserved.
##CAS REGISTRY NO=16439-95-5
##MOLFORM=C15H12N2O
##MP=205
##SOURCE REFERENCE=RAS UV No. 22608
##$NIST SQUIB=1977CHM/525
##$NIST SOURCE=TYUGLMTE
##SPECTROMETER/DATA SYSTEM=SF-16
##XUNITS=Wavelength (nm)
##YUNITS=Logarithm epsilon
##XFACTOR=1.0
##YFACTOR=1.0
##FIRSTX=198.627
##LASTX=385.18
##FIRSTY=4.506
##MAXX=385.18
##MINX=198.627
##MAXY=4.554
##MINY=3.214
##NPOINTS=127
##$REF AUTHOR=Chmilenko, T.S.; et al.
##$REF JOURNAL=Khim. Geterosikl. Soedin.
##$REF PAGE=525
##$REF DATE=1977
##XYPOINTS=(XY..XY)
198.627,4.506
200.127,4.525
201.627,4.539
203.127,4.548
204.627,4.553
206.127,4.554
207.627,4.552
209.127,4.547
210.627,4.541
212.127,4.533
213.627,4.522
215.127,4.508
216.627,4.490
218.127,4.466
219.627,4.437
221.127,4.403
222.627,4.366
222.692,4.367
224.192,4.327
225.692,4.304
227.192,4.293
228.692,4.292
230.192,4.297
231.692,4.306
233.192,4.317
234.692,4.326
236.192,4.334
237.692,4.339
239.192,4.340
240.692,4.336
242.192,4.329
243.692,4.318
245.192,4.304
246.692,4.287
248.192,4.270
249.692,4.248
251.192,4.235
252.692,4.218
254.192,4.198
255.692,4.177
257.192,4.157
258.692,4.138
260.192,4.120
261.692,4.104
263.192,4.089
264.692,4.075
266.192,4.061
267.692,4.048
269.192,4.034
270.692,4.019
272.192,4.003
273.692,3.986
275.192,3.969
276.692,3.951
278.192,3.933
279.692,3.915
281.192,3.899
282.692,3.885
284.192,3.875
285.692,3.868
287.192,3.865
288.692,3.868
290.192,3.875
291.659,3.884
293.159,3.899
294.659,3.910
296.159,3.919
297.659,3.927
299.159,3.934
300.659,3.941
302.159,3.948
303.659,3.955
305.159,3.962
306.659,3.969
308.159,3.976
309.659,3.982
311.159,3.987
312.659,3.991
314.159,3.994
315.659,3.996
317.159,3.996
318.659,3.994
320.159,3.990
321.659,3.985
323.159,3.978
324.659,3.970
326.159,3.960
327.659,3.950
329.159,3.939
330.659,3.927
332.159,3.914
333.659,3.902
335.159,3.890
335.680,3.887
337.180,3.873
338.680,3.859
340.180,3.845
341.680,3.830
343.180,3.815
344.680,3.800
346.180,3.785
347.680,3.770
349.180,3.755
350.680,3.739
352.180,3.723
353.680,3.706
355.180,3.689
356.680,3.672
358.180,3.654
359.680,3.635
361.180,3.616
362.680,3.596
364.180,3.576
365.680,3.555
367.180,3.534
368.680,3.512
370.180,3.491
371.680,3.468
373.180,3.446
374.680,3.423
376.180,3.399
377.680,3.374
379.180,3.348
380.680,3.320
382.180,3.288
383.680,3.253
385.180,3.214
##END=
