##TITLE=Ethanone, 1-(2-benzofuranyl)-
##JCAMP-DX=4.24
##DATA TYPE=UV/VIS SPECTRUM
##ORIGIN=INSTITUTE OF ENERGY PROBLEMS OF CHEMICAL PHYSICS, RAS
##OWNER=INEP CP RAS, NIST OSRD
Collection (C) 2007 copyright by the U.S. Secretary of Commerce
on behalf of the United States of America. All rights reserved.
##CAS REGISTRY NO=1646-26-0
##MOLFORM=C10H8O2
##MP=75
##SOURCE REFERENCE=RAS UV No. 19764
##$NIST SQUIB=1961LAN361
##$NIST SOURCE=TYUGLMTE
##SPECTROMETER/DATA SYSTEM=Beckman DU
##XUNITS=Wavelength (nm)
##YUNITS=Logarithm epsilon
##XFACTOR=1.0
##YFACTOR=1.0
##FIRSTX=205.1
##LASTX=378.42
##FIRSTY=4.075
##MAXX=378.42
##MINX=205.1
##MAXY=4.29
##MINY=0.207
##NPOINTS=251
##$REF AUTHOR=Lang (editor), L.
##$REF JOURNAL=Absorption Spectra in the Ultraviolet and Visible Region
##$REF VOLUME=2
##$REF PAGE=361
##$REF DATE=1961
##XYPOINTS=(XY..XY)
205.10,4.075
205.95,4.048
206.63,4.021
207.65,3.997
208.67,3.973
209.86,3.956
211.05,3.936
212.06,3.915
213.08,3.891
214.10,3.871
214.95,3.847
215.80,3.823
216.48,3.796
217.33,3.768
218.69,3.755
220.05,3.768
221.24,3.785
222.43,3.802
223.62,3.820
224.98,3.837
226.51,3.833
228.04,3.833
229.57,3.830
230.93,3.816
232.29,3.799
233.48,3.779
234.33,3.755
235.17,3.731
236.02,3.707
236.53,3.680
237.21,3.652
237.72,3.625
238.23,3.598
238.91,3.571
239.25,3.540
239.59,3.509
240.10,3.482
240.27,3.451
240.61,3.420
240.95,3.390
241.46,3.359
241.63,3.328
241.97,3.298
242.31,3.267
242.65,3.236
243.16,3.205
243.67,3.178
244.18,3.147
245.03,3.120
246.56,3.113
247.58,3.134
248.43,3.161
249.28,3.185
249.96,3.212
250.81,3.240
251.32,3.270
252.00,3.298
252.51,3.325
253.02,3.352
253.87,3.379
254.38,3.410
255.06,3.437
255.74,3.465
256.42,3.492
257.10,3.519
257.60,3.547
258.45,3.574
258.96,3.601
259.81,3.629
260.49,3.656
261.17,3.683
262.02,3.710
262.70,3.738
263.55,3.765
264.23,3.792
265.08,3.816
265.93,3.843
266.78,3.871
267.63,3.898
268.48,3.925
269.33,3.949
270.18,3.976
271.03,4.000
272.05,4.024
272.90,4.052
273.92,4.072
274.94,4.096
275.96,4.120
277.15,4.137
278.34,4.157
279.36,4.181
280.54,4.198
281.73,4.215
282.92,4.232
284.28,4.246
285.64,4.256
287.00,4.270
288.36,4.280
289.89,4.287
291.42,4.290
292.95,4.290
294.48,4.290
296.01,4.287
297.54,4.284
299.07,4.280
300.43,4.266
301.79,4.253
303.15,4.236
304.50,4.219
305.69,4.198
306.88,4.181
307.90,4.161
308.75,4.133
309.77,4.113
310.62,4.089
311.47,4.062
312.32,4.038
313.00,4.011
314.02,3.987
314.70,3.959
315.55,3.936
316.23,3.908
316.91,3.881
317.59,3.854
318.27,3.826
318.78,3.799
319.29,3.768
319.80,3.741
320.31,3.714
320.82,3.687
321.50,3.659
322.01,3.629
322.52,3.598
323.03,3.571
323.54,3.543
324.05,3.516
324.56,3.485
325.07,3.455
325.24,3.424
325.75,3.397
326.26,3.366
326.76,3.339
327.10,3.308
327.44,3.277
327.95,3.250
328.29,3.219
328.63,3.188
329.31,3.161
329.65,3.130
329.99,3.100
330.50,3.072
331.01,3.042
331.52,3.011
332.03,2.984
332.37,2.953
332.88,2.926
333.39,2.898
333.90,2.868
334.24,2.837
334.75,2.810
335.26,2.782
335.60,2.752
336.11,2.724
336.62,2.694
336.96,2.663
337.30,2.632
337.81,2.605
338.32,2.578
338.49,2.547
339.00,2.520
339.34,2.489
339.68,2.458
339.85,2.428
340.19,2.397
340.53,2.366
341.04,2.339
341.38,2.308
341.89,2.277
342.23,2.247
342.74,2.219
343.25,2.192
343.76,2.161
344.27,2.134
344.78,2.103
345.12,2.073
345.63,2.042
346.14,2.015
346.65,1.987
347.16,1.957
347.67,1.929
348.18,1.902
348.69,1.875
349.20,1.848
349.87,1.820
350.38,1.790
350.89,1.762
351.40,1.735
352.08,1.708
352.59,1.680
353.27,1.653
353.78,1.626
354.29,1.599
354.97,1.571
355.48,1.544
355.99,1.517
356.50,1.489
357.01,1.462
357.69,1.435
358.20,1.407
358.54,1.377
359.05,1.349
359.73,1.322
360.24,1.295
360.75,1.264
361.26,1.237
361.77,1.210
362.28,1.182
362.96,1.155
363.47,1.128
363.98,1.100
364.66,1.073
365.00,1.042
365.51,1.015
366.19,0.988
366.70,0.961
367.21,0.933
367.72,0.906
368.23,0.879
368.74,0.851
369.25,0.824
369.93,0.797
370.44,0.766
370.95,0.739
371.29,0.708
371.80,0.681
372.14,0.650
372.64,0.623
373.15,0.596
373.66,0.565
374.00,0.534
374.51,0.507
375.02,0.476
375.36,0.445
375.87,0.418
376.21,0.387
376.55,0.357
376.89,0.326
377.23,0.295
377.74,0.268
378.08,0.237
378.42,0.207
##END=
