##TITLE=5-bromo-2-hudroxy-3-nitrobenzaldehyde
##JCAMP-DX=4.24
##DATA TYPE=UV/VIS SPECTRUM
##ORIGIN=INSTITUTE OF ENERGY PROBLEMS OF CHEMICAL PHYSICS, RAS
##OWNER=INEP CP RAS, NIST OSRD
Collection (C) 2007 copyright by the U.S. Secretary of Commerce
on behalf of the United States of America. All rights reserved.
##CAS REGISTRY NO=16634-88-1
##MOLFORM=C7H4BrNO4
##MP=125-126
##SOURCE REFERENCE=RAS UV No. 23064
##$NIST SQUIB=1976BRA/GAL200
##$NIST SOURCE=TYUGLMTE
##SPECTROMETER/DATA SYSTEM=VSU-2
##XUNITS=Wavelength (nm)
##YUNITS=Logarithm epsilon
##XFACTOR=1.0
##YFACTOR=1.0
##FIRSTX=220.102
##LASTX=383.113
##FIRSTY=4.054
##MAXX=383.113
##MINX=220.102
##MAXY=4.09
##MINY=2.609
##NPOINTS=109
##$REF AUTHOR=Braude, Ye.V.; Gal'bershtam, M.A.
##$REF JOURNAL=Khim. Geterosikl. Soedin.
##$REF PAGE=200
##$REF DATE=1976
##XYPOINTS=(XY..XY)
220.102,4.054
221.602,4.079
223.102,4.087
224.602,4.088
226.102,4.088
227.602,4.089
229.102,4.090
230.602,4.087
232.130,4.065
233.769,4.023
235.269,3.968
236.769,3.915
238.269,3.869
239.769,3.832
241.269,3.805
242.769,3.785
244.269,3.771
245.471,3.764
246.971,3.758
248.471,3.758
249.971,3.759
251.471,3.760
252.971,3.758
254.471,3.756
255.971,3.753
257.471,3.749
258.971,3.745
260.471,3.737
262.070,3.712
263.350,3.687
264.629,3.657
266.165,3.615
267.444,3.576
268.980,3.534
270.771,3.483
272.182,3.437
273.627,3.404
275.127,3.371
276.627,3.337
278.127,3.300
279.627,3.260
281.127,3.219
282.627,3.177
284.127,3.135
285.595,3.098
287.095,3.068
288.595,3.043
290.095,3.023
291.595,3.009
293.095,3.001
294.595,2.998
296.095,2.999
297.595,3.003
299.095,3.009
300.595,3.016
302.095,3.024
303.527,3.046
305.318,3.067
306.854,3.084
308.389,3.101
310.181,3.126
311.972,3.152
313.812,3.178
315.312,3.204
316.812,3.235
318.312,3.267
319.812,3.300
321.312,3.333
322.812,3.364
324.312,3.393
325.812,3.420
327.312,3.443
328.812,3.464
330.312,3.481
331.812,3.496
333.312,3.507
334.812,3.516
336.312,3.523
337.812,3.527
339.312,3.530
340.812,3.530
342.312,3.530
343.812,3.528
345.312,3.525
346.907,3.520
348.407,3.515
349.907,3.507
351.407,3.497
352.907,3.484
354.407,3.467
355.907,3.445
357.407,3.416
358.907,3.380
360.613,3.326
362.113,3.273
363.613,3.218
365.113,3.161
366.613,3.104
368.113,3.049
369.613,2.996
371.113,2.947
372.613,2.901
374.113,2.859
375.613,2.820
377.113,2.784
378.613,2.747
380.113,2.708
381.613,2.663
383.113,2.609
##END=
