##TITLE=1,2-Ethanediamine, N-phenyl-
##JCAMP-DX=4.24
##DATA TYPE=UV/VIS SPECTRUM
##ORIGIN=INSTITUTE OF ENERGY PROBLEMS OF CHEMICAL PHYSICS, RAS
##OWNER=INEP CP RAS, NIST OSRD
Collection (C) 2007 copyright by the U.S. Secretary of Commerce
on behalf of the United States of America. All rights reserved.
##CAS REGISTRY NO=1664-40-0
##MOLFORM=C8H12N2
##SOURCE REFERENCE=RAS UV No. 16930
##$NIST SQUIB=1986DAR/1099
##$NIST SOURCE=TYUGLMTE
##SPECTROMETER/DATA SYSTEM=unknown
##XUNITS=Wavelength (nm)
##YUNITS=Logarithm epsilon
##XFACTOR=1.0
##YFACTOR=1.0
##FIRSTX=231.27
##LASTX=271.79
##FIRSTY=1.88
##MAXX=271.79
##MINX=231.27
##MAXY=2.355
##MINY=0.664
##NPOINTS=133
##$REF AUTHOR=Darry-Henaut, A.; et al.
##$REF JOURNAL=Spectroscopy Letters
##$REF VOLUME=19
##$REF PAGE=1099
##$REF DATE=1986
##XYPOINTS=(XY..XY)
231.27,1.880
231.35,1.883
231.43,1.883
231.51,1.883
231.59,1.883
231.68,1.883
231.76,1.883
231.84,1.886
231.92,1.886
232.00,1.886
232.08,1.886
232.25,1.883
232.57,1.889
232.90,1.897
233.23,1.903
233.56,1.906
233.88,1.914
234.21,1.919
234.54,1.925
234.86,1.930
235.19,1.940
235.52,1.946
235.84,1.956
236.17,1.960
236.50,1.970
236.82,1.980
237.15,1.989
237.48,1.998
237.80,2.002
238.13,2.007
238.46,2.015
238.78,2.022
239.11,2.030
239.44,2.034
239.76,2.042
240.09,2.050
240.42,2.060
240.74,2.066
241.07,2.075
241.40,2.081
241.72,2.088
242.05,2.096
242.38,2.103
242.70,2.108
243.03,2.113
243.36,2.116
243.68,2.120
244.01,2.123
244.34,2.130
244.67,2.138
244.99,2.149
245.32,2.163
245.65,2.187
245.97,2.207
246.30,2.224
246.63,2.245
246.95,2.256
247.28,2.260
247.61,2.259
247.93,2.250
248.26,2.241
248.59,2.235
248.91,2.230
249.24,2.226
249.57,2.228
249.89,2.234
250.22,2.244
250.55,2.259
250.87,2.277
251.20,2.293
251.53,2.308
251.85,2.325
252.18,2.339
252.51,2.351
252.83,2.355
253.16,2.353
253.49,2.346
253.81,2.333
254.14,2.311
254.47,2.292
254.79,2.270
255.12,2.260
255.45,2.258
255.78,2.261
256.10,2.266
256.43,2.270
256.76,2.266
257.08,2.264
257.41,2.259
257.74,2.252
258.06,2.248
258.39,2.247
258.72,2.244
259.04,2.236
259.37,2.211
259.70,2.183
260.02,2.141
260.35,2.106
260.68,2.056
261.00,2.026
261.33,2.013
261.66,2.011
261.98,2.028
262.31,2.052
262.64,2.056
262.96,2.044
263.29,1.998
263.62,1.948
263.94,1.892
264.27,1.840
264.60,1.771
264.92,1.701
265.25,1.624
265.58,1.561
265.90,1.516
266.23,1.450
266.56,1.409
266.89,1.373
267.21,1.312
267.54,1.266
267.87,1.228
268.19,1.187
268.52,1.108
268.85,1.072
269.17,1.032
269.50,0.965
269.83,0.886
270.15,0.856
270.48,0.824
270.81,0.789
271.13,0.751
271.46,0.664
271.79,0.664
##END=
