##TITLE=1-Octanone, 1-phenyl-
##JCAMP-DX=4.24
##DATA TYPE=UV/VIS SPECTRUM
##ORIGIN=INSTITUTE OF ENERGY PROBLEMS OF CHEMICAL PHYSICS, RAS
##OWNER=INEP CP RAS, NIST OSRD
Collection (C) 2007 copyright by the U.S. Secretary of Commerce
on behalf of the United States of America. All rights reserved.
##CAS REGISTRY NO=1674-37-9
##MOLFORM=C14H20O
##BP=136-138/ 0.1 mm
##SOURCE REFERENCE=RAS UV No. 19021
##$NIST SQUIB=1971LAN9
##$NIST SOURCE=TYUGLMTE
##SPECTROMETER/DATA SYSTEM=Beckman DU
##XUNITS=Wavelength (nm)
##YUNITS=Logarithm epsilon
##XFACTOR=1.0
##YFACTOR=1.0
##FIRSTX=207.46
##LASTX=369.36
##FIRSTY=4.195
##MAXX=369.36
##MINX=207.46
##MAXY=4.195
##MINY=0.651
##NPOINTS=169
##$REF AUTHOR=Lang (editor), L.
##$REF JOURNAL=Absorption Spectra in the Ultraviolet and Visible Region
##$REF VOLUME=15
##$REF PAGE=9
##$REF DATE=1971
##XYPOINTS=(XY..XY)
207.46,4.195
207.63,4.188
208.31,4.106
209.15,4.037
210.00,3.931
210.85,3.852
211.70,3.712
212.55,3.677
213.39,3.595
214.24,3.550
215.09,3.530
215.94,3.509
216.78,3.506
217.63,3.509
219.33,3.526
220.17,3.544
221.02,3.557
221.87,3.578
223.57,3.640
224.41,3.670
225.26,3.708
226.96,3.770
227.80,3.807
228.65,3.852
229.50,3.890
230.35,3.907
231.19,3.938
232.04,3.965
232.89,3.999
233.74,4.017
234.58,4.037
235.43,4.054
237.13,4.092
237.98,4.099
238.82,4.106
239.67,4.116
240.52,4.112
241.37,4.112
243.06,4.099
243.91,4.071
244.76,4.044
246.45,3.993
247.30,3.962
248.15,3.927
249.00,3.890
249.84,3.821
250.69,3.715
251.54,3.602
252.39,3.485
253.23,3.348
254.08,3.225
254.93,3.067
255.78,2.992
256.62,2.937
257.47,2.824
258.32,2.749
259.17,2.735
260.01,2.728
260.86,2.721
261.71,2.718
264.25,2.728
265.10,2.735
265.95,2.752
266.80,2.769
268.49,2.810
269.34,2.821
270.19,2.834
271.03,2.851
271.88,2.865
273.58,2.882
274.43,2.886
275.27,2.899
276.12,2.903
276.97,2.913
277.82,2.920
279.51,2.930
280.36,2.930
281.21,2.916
282.05,2.899
282.90,2.845
283.75,2.810
284.60,2.800
285.44,2.800
286.29,2.807
287.14,2.831
287.99,2.838
288.84,2.814
289.68,2.663
290.53,2.536
291.38,2.399
292.23,2.293
293.07,2.228
293.92,2.080
294.77,1.919
295.62,1.813
296.46,1.762
297.31,1.721
298.16,1.690
299.01,1.655
299.86,1.638
300.70,1.621
302.40,1.604
303.25,1.601
304.09,1.601
304.94,1.601
305.79,1.601
306.64,1.601
309.18,1.618
310.03,1.628
310.87,1.635
311.72,1.642
312.57,1.642
315.11,1.652
315.96,1.659
316.81,1.662
317.66,1.666
318.50,1.676
319.35,1.679
320.20,1.679
321.89,1.683
322.74,1.683
323.59,1.690
324.44,1.690
325.29,1.690
326.13,1.683
326.98,1.676
329.52,1.673
330.37,1.662
331.22,1.655
332.07,1.652
332.91,1.645
333.76,1.638
335.46,1.618
336.30,1.614
337.15,1.601
338.00,1.597
338.85,1.590
339.70,1.580
340.54,1.563
342.24,1.542
343.09,1.525
343.93,1.512
344.78,1.491
345.63,1.474
347.32,1.440
348.17,1.426
349.02,1.405
349.87,1.385
350.71,1.368
352.41,1.323
353.26,1.302
354.11,1.282
354.95,1.261
355.80,1.220
356.65,1.196
357.50,1.162
358.34,1.141
359.19,1.093
360.04,1.056
360.89,1.011
361.73,0.963
362.58,0.926
363.43,0.902
364.28,0.840
365.13,0.806
366.82,0.740
367.67,0.706
368.52,0.672
369.36,0.651
##END=
