##TITLE=1,2-Dimethylcyclohexene
##JCAMP-DX=4.24
##DATA TYPE=UV/VIS SPECTRUM
##ORIGIN=INSTITUTE OF ENERGY PROBLEMS OF CHEMICAL PHYSICS, RAS
##OWNER=INEP CP RAS, NIST OSRD
Collection (C) 2007 copyright by the U.S. Secretary of Commerce
on behalf of the United States of America. All rights reserved.
##CAS REGISTRY NO=1674-10-8
##MOLFORM=C8H14
##MP=-84.1
##BP=138
##SOURCE REFERENCE=RAS UV No. 4598
##$NIST SQUIB=1960WHE/MAT1110-1114
##$NIST SOURCE=TSGMTE
##SPECTROMETER/DATA SYSTEM=Beckman DU
##XUNITS=Wavelength (nm)
##YUNITS=Logarithm epsilon
##XFACTOR=1.000000
##YFACTOR=1.000000
##FIRSTX=202.1122
##LASTX=226.5250
##FIRSTY=2.99715
##MAXX=226.525
##MINX=202.112
##MAXY=3.37733
##MINY=2.54955
##NPOINTS=741
##$REF AUTHOR=Wheeler, O.H.; Mateos, J.L.
##$REF TITLE=Certain condensations at the terminal methyl group of 3-phenylpentane-2,4-dione through its dipotassio derivative cyclizations
##$REF JOURNAL=J. Org. Chem.
##$REF VOLUME=25
##$REF PAGE=1110-1114
##$REF DATE=1960
##XYPOINTS=(XY..XY)
202.1122,2.997148
202.1126,2.995513
202.1302,2.999698
202.1306,2.998073
202.1505,3.002235
202.1511,2.999707
202.1687,3.003953
202.1691,3.002243
202.1869,3.005664
202.1871,3.004763
202.3751,3.025297
202.3755,3.023669
202.3954,3.027688
202.3958,3.026069
202.4136,3.029309
202.4140,3.027696
202.4316,3.031677
202.4320,3.030073
202.4522,3.033190
202.4525,3.031686
202.4702,3.035538
202.4705,3.034042
202.4884,3.037129
202.4886,3.036385
202.5085,3.040196
202.5091,3.037881
202.5267,3.041771
202.5269,3.041034
202.5451,3.042514
202.7527,3.066454
202.7705,3.069407
202.7710,3.067243
202.7906,3.072255
202.7912,3.070105
202.8088,3.073718
202.8090,3.072948
202.8268,3.075857
202.8274,3.073725
202.8473,3.077223
202.8475,3.076544
202.8657,3.077993
203.0903,3.105387
203.0905,3.104750
203.1081,3.108087
203.1087,3.106108
203.1261,3.110064
203.1265,3.108725
203.1464,3.112032
203.1468,3.110699
203.1644,3.113991
203.1648,3.112664
203.1829,3.114620
203.3511,3.134375
203.3515,3.133110
203.3712,3.136829
203.3718,3.134976
203.3892,3.138679
203.3896,3.137426
203.4071,3.141108
203.4076,3.139273
203.5757,3.158525
203.5765,3.156198
203.5937,3.160285
203.5943,3.158530
203.6138,3.162666
203.6144,3.160921
203.6320,3.163785
203.6322,3.163229
203.8762,3.183686
203.8965,3.185348
203.8969,3.184289
203.9145,3.187003
203.9149,3.185948
203.9325,3.188652
203.9329,3.187601
203.9530,3.189772
203.9534,3.188658
203.9710,3.191411
203.9714,3.190301
203.9890,3.193043
203.9894,3.191937
204.0094,3.194669
204.0097,3.193633
204.0274,3.196289
204.0277,3.195257
204.1780,3.210101
204.1960,3.211665
204.1964,3.210606
204.2140,3.213223
204.2146,3.211670
204.2320,3.214775
204.2324,3.213723
204.2521,3.216876
204.2527,3.215336
204.2701,3.218416
204.2707,3.216881
204.2882,3.219950
204.2885,3.218910
204.3085,3.221479
204.3091,3.219955
204.4202,3.232976
204.4384,3.233987
204.4386,3.233514
204.4562,3.235938
204.4570,3.233992
204.4765,3.237471
204.4771,3.235943
204.4944,3.239406
204.4949,3.237944
204.5125,3.240402
204.5128,3.239878
204.5327,3.242325
204.5333,3.240873
204.7191,3.258033
204.7193,3.257585
204.7369,3.259934
204.7375,3.258540
204.7571,3.261773
204.7577,3.260385
204.7751,3.263162
204.7755,3.262221
204.7927,3.265481
204.7935,3.263608
204.8130,3.266858
204.8136,3.265486
204.8310,3.268231
204.8314,3.267301
205.0562,3.284792
205.0564,3.284371
205.0742,3.286109
205.0746,3.285269
205.0922,3.287421
205.0926,3.286584
205.1129,3.287896
205.1131,3.287426
205.1309,3.289204
205.1313,3.288318
205.1491,3.290040
205.1495,3.289208
205.1695,3.291342
205.1698,3.290512
205.1877,3.292226
205.1881,3.291346
205.4512,3.305470
205.4516,3.304617
205.4719,3.305876
205.4721,3.305475
205.4901,3.306730
205.4903,3.306280
205.5085,3.307134
205.5087,3.306734
205.5290,3.307987
205.5292,3.307538
205.5656,3.309240
205.5658,3.308792
205.5861,3.310039
205.5863,3.309641
205.6045,3.310489
205.7741,3.320327
205.7743,3.319939
205.7923,3.321154
205.7925,3.320718
205.8128,3.321931
205.8130,3.321545
205.8312,3.322369
205.8314,3.321935
205.8494,3.323144
205.8498,3.322373
205.8701,3.323581
205.8703,3.323148
205.9067,3.324790
205.9069,3.324358
205.9456,3.325995
205.9459,3.325565
205.9640,3.326382
205.9642,3.325999
205.9848,3.326768
206.2682,3.336317
206.2891,3.336322
206.3073,3.337072
206.3075,3.336699
206.3257,3.337495
206.3259,3.337076
206.3464,3.337872
206.3466,3.337499
206.3830,3.339041
206.3832,3.338670
206.4037,3.339416
206.4039,3.339045
206.4221,3.339837
206.4223,3.339420
206.5188,3.341752
206.7666,3.347938
206.9575,3.351733
206.9759,3.352142
206.9761,3.351737
206.9966,3.352506
207.0150,3.352870
207.0152,3.352510
207.0334,3.353278
207.0336,3.352873
207.0543,3.353282
207.0727,3.353644
207.2262,3.357783
207.2446,3.358142
207.2630,3.358501
207.2632,3.358146
207.2837,3.358904
207.3021,3.359262
207.3023,3.358908
207.3205,3.359620
207.3207,3.359266
207.3598,3.360026
207.3600,3.359628
207.3784,3.360029
207.3966,3.360740
207.3968,3.360387
207.4173,3.361141
207.4175,3.360744
207.4359,3.361145
207.4543,3.361501
207.4750,3.361857
207.4752,3.361505
207.4936,3.361861
207.5511,3.362971
207.5697,3.362975
207.8384,3.368872
207.8570,3.368875
207.8777,3.369225
207.8963,3.369229
207.9354,3.369972
207.9540,3.369975
207.9724,3.370324
208.0117,3.370720
208.0119,3.370332
208.0303,3.370724
208.0487,3.371072
208.0694,3.371421
208.0696,3.371076
208.1066,3.371428
208.1273,3.371819
208.1459,3.371822
208.1643,3.372170
208.1852,3.372174
208.8981,3.377307
209.0328,3.377332
209.0516,3.376953
209.0725,3.376956
209.0913,3.376619
209.1680,3.376633
209.1891,3.376297
209.5757,3.374575
209.5945,3.374236
209.6154,3.374240
209.6156,3.373855
209.6342,3.373858
209.6530,3.373519
209.6739,3.373522
209.6741,3.373179
209.6927,3.373183
209.7325,3.372460
210.1800,3.365700
210.1802,3.365307
210.2389,3.364224
210.2390,3.363874
210.2576,3.363877
210.2578,3.363483
210.2977,3.362788
210.2979,3.362392
210.3165,3.362395
210.3167,3.362043
210.3378,3.361695
210.3380,3.361299
210.4154,3.359856
210.6708,3.351326
210.6710,3.350965
210.7109,3.350204
210.7111,3.349842
210.7297,3.349846
210.7301,3.349076
210.7488,3.348716
210.7490,3.348308
210.7701,3.347948
210.7703,3.347584
210.7891,3.347178
210.7893,3.346814
210.8079,3.346817
210.8085,3.345676
210.8296,3.345314
210.8298,3.344903
210.8484,3.344906
210.8486,3.344540
210.8673,3.344177
210.8677,3.343396
210.8888,3.343033
210.9279,3.339160
210.9489,3.339164
210.9676,3.338796
211.0670,3.335319
211.0857,3.334948
211.0859,3.334526
211.1047,3.334155
211.1051,3.333356
211.1262,3.332984
211.1266,3.332183
211.1452,3.332187
211.1458,3.331007
211.1644,3.331010
211.1649,3.329827
211.1858,3.329831
211.1864,3.328644
211.2050,3.328648
211.2054,3.327839
211.2242,3.327462
211.3839,3.319072
211.3841,3.318683
211.4029,3.318249
211.4031,3.317859
211.4217,3.317863
211.4222,3.316643
211.4433,3.316257
211.4437,3.315424
211.4623,3.315428
211.4627,3.314594
211.4815,3.314205
211.4817,3.313763
211.5028,3.313373
211.5032,3.312536
211.5220,3.312145
211.5222,3.311749
211.8376,3.298009
211.8378,3.297550
211.8589,3.297146
211.8591,3.296686
211.8778,3.296280
211.8782,3.295409
211.8968,3.295413
211.8970,3.295002
211.9181,3.294595
211.9185,3.293721
211.9371,3.293725
211.9375,3.292848
211.9563,3.292439
211.9564,3.292025
211.9776,3.291564
211.9777,3.291150
211.9965,3.290739
211.9967,3.290272
212.0153,3.290276
212.0159,3.288976
212.0347,3.288564
212.2347,3.277574
212.2535,3.277150
212.2536,3.276722
212.2935,3.275819
212.2939,3.274906
212.3315,3.274053
212.3319,3.273136
212.3530,3.272708
212.3532,3.272221
212.3720,3.271792
212.3721,3.271359
212.3909,3.270874
212.3911,3.270440
212.4122,3.270010
212.4126,3.269084
212.4314,3.268652
212.4316,3.268160
212.4504,3.267727
212.4506,3.267290
212.4715,3.267294
212.4720,3.265924
212.4908,3.265433
212.5094,3.265438
212.5098,3.264557
212.8057,3.251541
212.8061,3.250575
212.8248,3.250124
212.8252,3.249154
212.8461,3.249160
212.8463,3.248703
212.8649,3.248707
212.8653,3.247735
212.8841,3.247281
212.8843,3.246822
212.9054,3.246310
212.9056,3.245850
212.9243,3.245395
212.9245,3.244876
212.9433,3.244419
212.9435,3.243957
212.9834,3.242984
212.9838,3.241999
213.0024,3.242003
213.0026,3.241539
213.0237,3.241079
213.0239,3.240555
213.0426,3.240094
213.0428,3.239627
213.0827,3.238644
213.0831,3.237649
213.3759,3.225839
213.3760,3.225357
213.3972,3.224819
213.3974,3.224336
213.4161,3.223857
213.4163,3.223312
213.4349,3.223317
213.4351,3.222832
213.4562,3.222352
213.4564,3.221805
213.4752,3.221324
213.4754,3.220837
213.4942,3.220293
213.4944,3.219804
213.5155,3.219321
213.5157,3.218770
213.5342,3.218775
213.5346,3.217795
213.5532,3.217800
213.5534,3.217247
213.5745,3.216761
213.5747,3.216207
213.5935,3.215719
213.5937,3.215225
213.6125,3.214674
213.6127,3.214180
213.6338,3.213690
213.6340,3.213132
213.6715,3.212149
213.6717,3.211589
213.9482,3.199034
213.9486,3.198008
213.9885,3.196925
213.9889,3.195830
214.0075,3.195835
214.0076,3.195318
214.0264,3.194741
214.0266,3.194223
214.0452,3.194229
214.0456,3.193126
214.0855,3.192097
214.0857,3.191510
214.1043,3.191516
214.1046,3.190471
214.1445,3.189370
214.1447,3.188846
214.1635,3.188260
214.1637,3.187735
214.1848,3.187214
214.1850,3.186621
214.2036,3.186627
214.2038,3.186099
214.2226,3.185576
214.2228,3.184981
214.2439,3.184457
214.2440,3.183927
214.2626,3.183932
214.2630,3.182803
214.2818,3.182276
214.2820,3.181676
214.5759,3.171643
214.5761,3.171096
214.5972,3.170487
214.6158,3.170493
214.6162,3.169396
214.6348,3.169402
214.6350,3.168784
214.6936,3.167081
214.6938,3.166529
214.7124,3.166534
214.7126,3.165982
214.7337,3.165365
214.7339,3.164811
214.7525,3.164817
214.7527,3.164262
214.7713,3.164267
214.7715,3.163642
214.8113,3.162540
214.8116,3.161913
215.1051,3.152620
215.1052,3.152049
215.1639,3.150279
215.1641,3.149633
215.1827,3.149639
215.1829,3.149064
215.2038,3.149071
215.2226,3.148501
215.2228,3.147853
215.2416,3.147282
215.2417,3.146704
215.2627,3.146711
215.2629,3.146060
215.2816,3.145486
215.3002,3.145492
215.3004,3.144839
215.3192,3.144264
215.3194,3.143682
215.3405,3.143033
215.6929,3.130875
215.6931,3.130200
215.7119,3.129605
215.7120,3.129003
215.7306,3.129009
215.7518,3.128338
215.7519,3.127734
215.7705,3.127741
215.7707,3.127136
215.8482,3.124583
215.8484,3.123974
215.8693,3.123981
215.8695,3.123372
215.9070,3.122085
216.1239,3.111786
216.1243,3.110531
216.1428,3.110537
216.1616,3.109836
216.1618,3.109206
216.1827,3.109213
216.1829,3.108582
216.2015,3.108588
216.2017,3.107878
216.2416,3.106625
216.2418,3.105911
216.2604,3.105917
216.2606,3.105282
216.2792,3.105288
216.2793,3.104652
216.3192,3.103310
216.3378,3.103316
216.3380,3.102677
216.3591,3.101963
216.7890,3.085790
216.8476,3.083727
216.8478,3.083058
216.8664,3.083065
216.8666,3.082311
216.8852,3.082318
216.9063,3.081654
216.9065,3.080982
216.9839,3.078142
216.9843,3.076786
217.4531,3.061757
217.4718,3.061060
217.4720,3.060356
217.4906,3.060363
217.5305,3.058876
217.5307,3.058168
217.5493,3.058175
217.5495,3.057377
217.5704,3.057385
217.5706,3.056674
217.5892,3.056681
217.6478,3.054475
217.6664,3.054482
217.6666,3.053767
217.7464,3.050743
218.3123,3.027070
218.3311,3.026220
218.3520,3.026229
218.3522,3.025465
218.3710,3.024708
218.3896,3.024715
218.3898,3.023853
218.4696,3.020710
218.4697,3.019936
218.4883,3.019944
218.4885,3.019072
218.5071,3.019080
218.5073,3.018304
218.5282,3.018312
218.5284,3.017535
218.6059,3.014246
218.6060,3.013461
219.0357,2.994369
219.0543,2.994377
219.0942,2.992646
219.0944,2.991821
219.1129,2.991829
219.1131,2.991003
219.1340,2.991012
219.1342,2.990080
219.1528,2.990088
219.1927,2.988444
219.1929,2.987507
219.2115,2.987515
219.2117,2.986680
219.2303,2.986689
219.2305,2.985852
219.2514,2.985862
219.2516,2.984919
219.2702,2.984927
219.2889,2.984095
219.2891,2.983254
219.3077,2.983262
219.3079,2.982314
219.3290,2.981478
219.3476,2.981487
219.3664,2.980648
219.8572,2.956257
219.8758,2.956266
219.8946,2.955378
219.8948,2.954479
219.9157,2.954489
219.9532,2.952590
219.9534,2.951685
219.9720,2.951694
220.0307,2.948883
220.0309,2.947856
220.0518,2.947866
220.0520,2.946951
220.0706,2.946961
220.0708,2.946044
220.0893,2.946053
220.0896,2.945019
220.1105,2.945030
220.1106,2.944109
220.1294,2.943195
220.7165,2.911526
220.7353,2.910417
220.7355,2.909420
220.7540,2.909430
220.7751,2.908441
220.7753,2.907314
220.7939,2.907324
220.7941,2.906320
220.8127,2.906330
220.8129,2.905323
220.8338,2.905334
220.8340,2.904199
220.8526,2.904209
220.9300,2.900062
220.9509,2.900074
220.9511,2.899052
220.9697,2.899063
220.9885,2.897921
220.9887,2.896895
221.7324,2.855715
221.7510,2.855727
221.7697,2.854607
221.7907,2.854619
221.7908,2.853485
221.8094,2.853496
221.8493,2.851101
221.8679,2.851112
221.8681,2.849969
221.9643,2.843975
221.9852,2.843988
222.0228,2.841538
222.0437,2.841551
222.0439,2.840382
222.0811,2.840405
222.1210,2.837936
222.9789,2.787877
222.9998,2.787892
223.0374,2.785102
223.0583,2.785117
223.0585,2.783786
223.0770,2.783799
223.1545,2.778320
223.1754,2.778335
223.1756,2.776813
223.1942,2.776827
223.2529,2.772614
223.2714,2.772628
223.3700,2.765632
223.3702,2.764065
223.3888,2.764079
223.4075,2.762695
223.8569,2.737466
223.8968,2.734334
223.9154,2.734349
223.9342,2.732867
223.9528,2.732882
223.9530,2.731381
223.9741,2.729702
223.9927,2.729717
224.0325,2.726718
224.0511,2.726733
224.0513,2.725019
224.0699,2.725035
224.1286,2.720286
224.1495,2.720303
224.1870,2.717237
224.2080,2.717254
224.2267,2.715518
224.6949,2.685646
224.7135,2.685663
224.7534,2.682132
224.7720,2.682149
224.7722,2.680461
224.7907,2.680478
224.7909,2.678783
224.8304,2.678819
224.8306,2.676904
224.8492,2.676921
224.8494,2.675213
224.8703,2.675232
224.9079,2.671613
224.9288,2.671632
224.9290,2.669903
224.9476,2.669920
224.9478,2.668183
224.9663,2.668201
224.9875,2.666258
225.0061,2.666276
225.0647,2.660835
225.6097,2.624955
225.6285,2.623048
225.6287,2.620870
225.6496,2.620892
225.6684,2.618967
225.6870,2.618986
225.7269,2.614867
225.7455,2.614887
225.7457,2.612915
225.7666,2.612937
225.7854,2.610728
225.8040,2.610748
225.8626,2.604560
225.8812,2.604580
225.8814,2.602561
226.1954,2.572267
226.2326,2.572311
226.2328,2.570135
226.2537,2.570160
226.2725,2.567995
226.2911,2.568017
226.3310,2.563382
226.3495,2.563405
226.3706,2.561209
226.3892,2.561231
226.3894,2.558720
226.4080,2.558742
226.4291,2.556523
226.4477,2.556546
226.4665,2.554312
226.4874,2.554338
226.5062,2.551809
226.5248,2.551831
226.5250,2.549551
##END=
