##TITLE=2-Butanethiol, 2-methyl-
##JCAMP-DX=4.24
##DATA TYPE=UV/VIS SPECTRUM
##ORIGIN=INSTITUTE OF ENERGY PROBLEMS OF CHEMICAL PHYSICS, RAS
##OWNER=INEP CP RAS, NIST OSRD
Collection (C) 2007 copyright by the U.S. Secretary of Commerce
on behalf of the United States of America. All rights reserved.
##CAS REGISTRY NO=1679-09-0
##MOLFORM=C5H12S
##BP=99
##SOURCE REFERENCE=RAS UV No. 20096
##$NIST SQUIB=1969BOL/87
##$NIST SOURCE=TYUGLMTE
##SPECTROMETER/DATA SYSTEM=unknown
##XUNITS=Wavelength (nm)
##YUNITS=Logarithm epsilon
##XFACTOR=1.0
##YFACTOR=1.0
##FIRSTX=215.08
##LASTX=282.18
##FIRSTY=2.381
##MAXX=282.18
##MINX=215.08
##MAXY=2.381
##MINY=0.03
##NPOINTS=106
##$REF AUTHOR=Bol'shakov, G.F.; et al.
##$REF JOURNAL=Ultraviolet Spectra of heteroorganic compounds
##$REF PAGE=87
##$REF DATE=1969
##XYPOINTS=(XY..XY)
215.08,2.381
215.25,2.375
215.42,2.368
215.59,2.360
215.76,2.354
215.93,2.348
216.10,2.341
216.27,2.333
216.44,2.329
217.11,2.291
217.79,2.272
218.47,2.247
219.15,2.231
219.82,2.214
220.50,2.199
221.18,2.191
221.86,2.183
222.53,2.174
223.21,2.170
223.89,2.164
224.57,2.160
225.25,2.155
225.92,2.153
226.60,2.145
227.28,2.141
227.96,2.132
228.63,2.128
229.31,2.124
229.99,2.116
230.67,2.107
231.35,2.103
232.02,2.095
232.70,2.084
233.38,2.076
234.06,2.066
234.73,2.057
235.41,2.047
236.09,2.036
236.77,2.026
237.44,2.016
238.12,2.005
238.80,1.995
239.48,1.984
240.16,1.974
240.83,1.959
241.51,1.947
242.19,1.930
242.87,1.917
243.54,1.899
244.22,1.880
244.90,1.867
245.58,1.848
246.26,1.828
246.93,1.807
247.61,1.786
248.29,1.761
248.97,1.738
249.64,1.717
250.32,1.688
251.00,1.661
251.68,1.631
252.36,1.600
253.03,1.573
253.71,1.537
254.39,1.502
255.07,1.460
255.74,1.427
256.42,1.383
257.10,1.339
257.74,1.298
258.44,1.255
259.13,1.203
259.79,1.151
260.49,1.103
261.17,1.042
261.84,0.986
262.52,0.934
263.20,0.896
263.88,0.846
264.55,0.794
265.25,0.749
265.91,0.702
266.59,0.652
267.27,0.614
267.94,0.560
268.65,0.517
269.30,0.472
269.98,0.437
270.65,0.397
271.33,0.358
272.01,0.326
272.69,0.289
273.37,0.249
274.04,0.211
274.72,0.184
275.40,0.147
276.08,0.115
276.75,0.094
277.43,0.078
278.11,0.065
278.79,0.055
279.46,0.046
280.14,0.040
280.82,0.034
281.50,0.032
282.18,0.030
##END=
