##TITLE=3-bromo-2-hydroxy-5-nitrobenzaldehyde
##JCAMP-DX=4.24
##DATA TYPE=UV/VIS SPECTRUM
##ORIGIN=INSTITUTE OF ENERGY PROBLEMS OF CHEMICAL PHYSICS, RAS
##OWNER=INEP CP RAS, NIST OSRD
Collection (C) 2007 copyright by the U.S. Secretary of Commerce
on behalf of the United States of America. All rights reserved.
##CAS REGISTRY NO=16789-84-7
##MOLFORM=C7H4BrNO4
##MP=149-150
##SOURCE REFERENCE=RAS UV No. 23065
##$NIST SQUIB=1976BRA/GAL200
##$NIST SOURCE=TYUGLMTE
##SPECTROMETER/DATA SYSTEM=VSU-2
##XUNITS=Wavelength (nm)
##YUNITS=Logarithm epsilon
##XFACTOR=1.0
##YFACTOR=1.0
##FIRSTX=211.126
##LASTX=333.735
##FIRSTY=4.041
##MAXX=333.735
##MINX=211.126
##MAXY=4.341
##MINY=3.084
##NPOINTS=123
##$REF AUTHOR=Braude, Ye.V.; Gal'bershtam, M.A.
##$REF JOURNAL=Khim. Geterosikl. Soedin.
##$REF PAGE=200
##$REF DATE=1976
##XYPOINTS=(XY..XY)
211.126,4.041
212.126,4.074
213.126,4.103
214.126,4.129
215.126,4.152
216.126,4.174
217.126,4.194
218.126,4.212
219.126,4.230
220.126,4.246
221.126,4.261
222.126,4.274
223.126,4.287
224.126,4.298
225.126,4.308
226.126,4.317
227.126,4.324
228.126,4.330
229.126,4.335
230.126,4.338
231.126,4.340
232.126,4.341
233.126,4.340
234.126,4.339
235.126,4.337
236.126,4.335
237.126,4.332
238.126,4.329
239.126,4.326
240.126,4.324
241.126,4.321
242.126,4.318
243.126,4.315
244.126,4.311
245.126,4.306
246.126,4.298
247.126,4.288
248.126,4.272
249.126,4.249
250.330,4.208
251.330,4.176
252.330,4.122
253.330,4.056
254.330,3.988
255.330,3.924
256.330,3.867
257.330,3.821
258.330,3.786
259.330,3.764
260.330,3.752
261.266,3.747
262.190,3.744
263.411,3.743
264.531,3.743
265.531,3.739
266.531,3.736
267.531,3.734
268.531,3.732
269.531,3.730
270.531,3.729
271.531,3.728
272.531,3.726
273.531,3.725
274.531,3.723
275.531,3.721
276.531,3.719
277.531,3.716
278.531,3.713
279.531,3.709
280.531,3.704
281.531,3.698
282.531,3.691
283.531,3.684
284.531,3.674
285.531,3.664
286.531,3.652
287.531,3.639
288.531,3.624
289.531,3.608
290.334,3.596
291.334,3.571
292.334,3.552
293.334,3.537
294.334,3.527
295.334,3.521
296.334,3.517
297.334,3.517
298.334,3.519
299.334,3.522
300.334,3.527
301.334,3.532
302.334,3.538
303.735,3.545
304.735,3.550
305.735,3.554
306.735,3.557
307.735,3.560
308.735,3.561
309.735,3.562
310.735,3.562
311.735,3.560
312.735,3.557
313.735,3.553
314.735,3.547
315.735,3.540
316.735,3.531
317.735,3.521
318.735,3.509
319.735,3.496
320.735,3.480
321.735,3.463
322.735,3.444
323.735,3.423
324.735,3.399
325.735,3.374
326.735,3.346
327.735,3.316
328.735,3.284
329.735,3.249
330.735,3.212
331.735,3.172
332.735,3.129
333.735,3.084
##END=
