##TITLE=6-Chloro-2-pyridinol
##JCAMP-DX=4.24
##DATA TYPE=UV/VIS SPECTRUM
##ORIGIN=INSTITUTE OF ENERGY PROBLEMS OF CHEMICAL PHYSICS, RAS
##OWNER=INEP CP RAS, NIST OSRD
Collection (C) 2007 copyright by the U.S. Secretary of Commerce
on behalf of the United States of America. All rights reserved.
##CAS REGISTRY NO=16879-02-0
##MOLFORM=C5H4ClNO
##SOURCE REFERENCE=RAS UV No. 3981
##$NIST SQUIB=1967KAT/ROW758-761
##$NIST SOURCE=TSGMTE
##SPECTROMETER/DATA SYSTEM=Perkin-Elmer spectrophotometer
##XUNITS=Wavelength (nm)
##YUNITS=Logarithm epsilon
##XFACTOR=1.000000
##YFACTOR=1.000000
##FIRSTX=200.6023
##LASTX=320.0770
##FIRSTY=3.26865
##MAXX=320.077
##MINX=200.602
##MAXY=3.85796
##MINY=2.00617
##NPOINTS=859
##$REF AUTHOR=Katritzky, A.R.; Rowe, J.D.; Roy, S.K.
##$REF TITLE=Potentially tautomeric pyridines. Part IX. The effect of chlorine substituents on pyridone-hydroxypyridine tautomerism
##$REF JOURNAL=J. Chem. Soc. B:
##$REF PAGE=758-761
##$REF DATE=1967
##XYPOINTS=(XY..XY)
200.6023,3.268648
200.6065,3.272623
200.8086,3.261521
200.8124,3.265054
201.0182,3.257484
201.0224,3.261459
201.2551,3.253882
201.2588,3.257415
201.4651,3.250287
201.4689,3.253820
201.6710,3.242718
201.6790,3.250225
201.8811,3.239123
201.8849,3.242656
202.1217,3.239053
202.5376,3.227889
202.5414,3.231422
202.7740,3.223845
202.7782,3.227820
203.1979,3.220188
203.2017,3.223721
205.2026,3.219609
205.4469,3.223072
205.6607,3.223010
206.3407,3.233857
206.3449,3.237832
206.5587,3.237770
206.8030,3.241234
207.0168,3.241172
207.0206,3.244705
207.2344,3.244643
207.2386,3.248617
207.7005,3.255552
207.9143,3.255490
207.9186,3.259465
208.1629,3.262928
208.1666,3.266461
208.3846,3.270374
208.3884,3.273907
208.6022,3.273845
208.6139,3.284885
208.8582,3.288349
208.8624,3.292323
209.0763,3.292261
209.0880,3.303302
209.3055,3.306773
209.3093,3.310306
209.5273,3.314219
209.5390,3.325259
209.7796,3.325189
209.7833,3.328722
210.0009,3.332194
210.0088,3.339701
210.2264,3.343172
210.2381,3.354213
210.4787,3.354143
210.4829,3.358118
210.7005,3.361589
210.7042,3.365122
210.9180,3.365060
210.9260,3.372567
211.1708,3.376472
211.1745,3.380005
211.3921,3.383476
211.4000,3.390984
211.6176,3.394455
211.6218,3.398429
211.8624,3.398360
211.8699,3.405426
212.0879,3.409339
212.0954,3.416404
212.3092,3.416343
212.3134,3.420317
212.5577,3.423781
212.5657,3.431288
212.7795,3.431226
212.7870,3.438292
213.0051,3.442205
213.0088,3.445738
213.4711,3.453114
213.4749,3.456647
213.6887,3.456585
213.6925,3.460118
213.9372,3.464023
213.9410,3.467556
214.1586,3.471027
214.1628,3.475001
214.3803,3.478473
214.3841,3.482006
214.6289,3.485911
214.8427,3.485849
214.8464,3.489382
215.0640,3.492853
215.0682,3.496827
215.3088,3.496758
215.3125,3.500291
215.9924,3.511138
215.9962,3.514671
216.2100,3.514609
216.2180,3.522117
216.4318,3.522055
217.1117,3.532902
217.3256,3.532840
217.3298,3.536815
217.7842,3.536683
218.0017,3.540154
219.5788,3.539698
219.7889,3.536104
219.9985,3.532067
220.0027,3.536042
220.2353,3.528465
220.2390,3.531998
220.4491,3.528403
221.5521,3.509530
221.7622,3.505935
221.7659,3.509468
221.9681,3.498366
221.9760,3.505874
222.2007,3.490789
222.2049,3.494764
222.6167,3.479625
222.6209,3.483600
222.8497,3.472490
222.8535,3.476022
223.0556,3.464920
223.0593,3.468453
223.2540,3.450285
223.2657,3.461325
223.4904,3.446241
223.7004,3.442646
223.7042,3.446179
223.8988,3.428011
223.9105,3.439051
224.1277,3.416901
224.1352,3.423967
224.3256,3.401824
224.3373,3.412864
224.5278,3.390722
224.5357,3.398229
224.7262,3.376087
224.7379,3.387127
224.9588,3.368509
224.9630,3.372484
225.1609,3.357407
225.1689,3.364915
225.3631,3.346305
225.3747,3.357345
225.5882,3.331662
225.5999,3.342702
225.7903,3.320560
225.7978,3.327626
225.9882,3.305483
225.9999,3.316523
226.2096,3.287307
226.2251,3.301880
226.4118,3.276205
226.4235,3.287245
226.6139,3.265102
226.6214,3.272168
226.8428,3.253992
226.8545,3.265033
227.0449,3.242890
227.0566,3.253931
227.2508,3.235321
227.2545,3.238854
227.4797,3.224211
227.4876,3.231718
227.6855,3.216642
227.6897,3.220616
227.8839,3.202006
227.8956,3.213047
228.1165,3.194429
228.1203,3.197962
228.3149,3.179794
228.3266,3.190834
228.5246,3.175758
228.5288,3.179732
228.7459,3.157582
228.7614,3.172155
228.9439,3.142505
228.9556,3.153545
229.1460,3.131403
229.1540,3.138910
229.3749,3.120293
229.3828,3.127800
229.5653,3.098150
229.5850,3.116698
229.7674,3.087048
229.7754,3.094555
229.9846,3.064897
230.0043,3.083445
230.1830,3.050262
230.1947,3.061302
230.3809,3.035185
230.3926,3.046226
230.6023,3.017009
230.6178,3.031583
230.7965,2.998400
230.8119,3.012973
230.9907,2.979790
231.0066,2.994805
231.2079,2.957639
231.2275,2.976187
231.4100,2.946537
231.4217,2.957577
231.5967,2.920861
231.6201,2.942942
231.7951,2.906226
231.8068,2.917267
232.0240,2.895116
232.0314,2.902182
232.2181,2.876506
232.2336,2.891080
232.4086,2.854364
232.4278,2.872470
232.6375,2.843254
232.6449,2.850320
232.8316,2.824644
232.8471,2.839217
233.0300,2.810009
233.0417,2.821049
233.2510,2.791391
233.2664,2.805965
233.4451,2.772781
233.4610,2.787796
233.6356,2.750639
233.6552,2.769187
233.8607,2.735996
233.8724,2.747036
234.0586,2.720919
234.0703,2.731959
234.2533,2.702751
234.2687,2.717324
234.4662,2.676626
234.4896,2.698707
234.6646,2.661991
234.6801,2.676564
234.8588,2.643381
234.8747,2.658396
235.0919,2.636245
235.0994,2.643311
235.2861,2.617635
235.3015,2.632209
235.4845,2.603000
235.4962,2.614041
235.7091,2.587916
235.7208,2.598956
235.9113,2.576813
235.9192,2.584321
236.1097,2.562178
236.1214,2.573219
236.3343,2.547094
236.3460,2.558134
236.5365,2.535991
236.5444,2.543499
236.7386,2.524889
236.7466,2.532397
236.9675,2.513779
236.9754,2.521287
237.1659,2.499144
237.1776,2.510184
237.3680,2.488042
237.3760,2.495549
237.5814,2.462358
237.6048,2.484439
237.7836,2.451256
237.7953,2.462296
237.9857,2.440154
237.9932,2.447220
238.2221,2.436110
238.4046,2.406459
238.4242,2.425007
238.5992,2.388291
238.6146,2.402865
238.8013,2.377189
238.8088,2.384255
239.0260,2.362104
239.0377,2.373145
239.2281,2.351002
239.2361,2.358510
239.4345,2.343874
239.4382,2.347407
239.6591,2.328790
239.6708,2.339830
239.8613,2.317688
239.8692,2.325195
240.0597,2.303052
240.0714,2.314093
240.2923,2.295475
240.3002,2.302983
240.4907,2.280840
240.5024,2.291881
240.6891,2.266205
240.7008,2.277245
240.9137,2.251120
240.9296,2.266135
241.1159,2.240018
241.1276,2.251059
241.3143,2.225383
241.3260,2.236423
241.5314,2.203232
241.5506,2.221339
241.7256,2.184622
241.7453,2.203171
241.9278,2.173520
241.9395,2.184561
242.1487,2.154903
242.1646,2.169918
242.3471,2.140268
242.3588,2.151308
242.5455,2.125633
242.5609,2.140206
242.7781,2.118055
242.7818,2.121588
242.9643,2.091938
242.9882,2.114461
243.1664,2.080836
243.1744,2.088343
243.3916,2.066193
243.4033,2.077233
243.5900,2.051558
243.6017,2.062598
244.0284,2.036411
244.0364,2.043919
244.2385,2.032817
244.2423,2.036349
244.6812,2.021644
244.6850,2.025178
244.8871,2.014075
244.8913,2.018050
245.1010,2.014013
245.3110,2.010419
245.7654,2.010287
245.9755,2.006692
247.7664,2.006175
247.9840,2.009646
248.4383,2.009514
248.4421,2.013047
248.9044,2.020423
248.9082,2.023956
249.1262,2.027869
249.1300,2.031402
249.3475,2.034873
249.3555,2.042381
249.5998,2.045844
249.6662,2.108554
250.1369,2.149059
250.1603,2.171140
250.2329,2.012529
250.4046,2.174603
250.4280,2.196684
250.6535,2.207663
250.6695,2.222678
251.1393,2.237120
251.1589,2.255668
251.3728,2.255606
251.4041,2.285194
251.6217,2.288665
251.6413,2.307213
251.8856,2.310677
251.8973,2.321717
252.1149,2.325188
252.6123,2.365685
252.6395,2.391299
252.8533,2.391237
252.8692,2.406252
253.0830,2.406191
253.0985,2.420764
253.3203,2.428210
253.3554,2.461331
253.5959,2.461262
253.6114,2.475835
253.8411,2.490788
253.8762,2.523909
254.0937,2.527380
254.1092,2.541954
254.3540,2.545859
254.3731,2.563965
254.5912,2.567878
254.6183,2.593492
254.8364,2.597404
254.8518,2.611978
255.0961,2.615441
255.1120,2.630456
255.3296,2.633927
255.3450,2.648501
255.5631,2.652413
255.8228,2.670450
255.8541,2.700039
256.0717,2.703510
256.0951,2.725591
256.3132,2.729503
256.3365,2.751584
256.5851,2.759022
256.5968,2.770062
256.8143,2.773534
256.8181,2.777067
257.0361,2.780979
257.0399,2.784512
257.0595,2.803060
257.0866,2.828674
257.3309,2.832137
257.3469,2.847152
257.5761,2.861664
257.5841,2.869171
257.7979,2.869110
257.8133,2.883683
258.0539,2.883613
258.0815,2.909669
258.2991,2.913140
258.3070,2.920648
258.5209,2.920586
258.5443,2.942667
258.7886,2.946130
258.7965,2.953637
259.0103,2.953576
259.0258,2.968149
259.2434,2.971620
259.2593,2.986635
259.5036,2.990098
259.5153,3.001139
259.7328,3.004610
259.7371,3.008585
259.9546,3.012056
259.9663,3.023096
260.2106,3.026559
260.2265,3.041574
260.4441,3.045046
260.4558,3.056086
260.6738,3.059999
260.6813,3.067065
260.9261,3.070970
260.9298,3.074503
261.1474,3.077974
261.1516,3.081948
261.3692,3.085419
261.3809,3.096460
261.6027,3.103905
261.6102,3.110971
261.8549,3.114876
261.8624,3.121942
262.0805,3.125855
262.0880,3.132921
262.5700,3.158845
262.7875,3.162316
262.7913,3.165849
263.0093,3.169762
263.0131,3.173295
263.2574,3.176758
263.2653,3.184265
263.4829,3.187737
263.4908,3.195244
263.7084,3.198715
263.7164,3.206223
263.9611,3.210128
263.9766,3.224701
264.1904,3.224639
264.1984,3.232147
264.4159,3.235618
264.4239,3.243125
264.6682,3.246589
264.6762,3.254096
264.8937,3.257567
264.9017,3.265075
265.1193,3.268546
265.1230,3.272079
265.3678,3.275984
265.3715,3.279517
265.5891,3.282988
265.5970,3.290495
265.8146,3.293967
265.8188,3.297941
266.0631,3.301404
266.0669,3.304937
266.2849,3.308850
266.2887,3.312383
266.5062,3.315854
266.5142,3.323362
266.7585,3.326825
266.7627,3.330800
266.9803,3.334271
266.9882,3.341778
267.2058,3.345249
267.2095,3.348782
267.4501,3.348713
267.4623,3.360195
267.6761,3.360133
267.6836,3.367199
267.8974,3.367137
267.9054,3.374645
268.1497,3.378108
268.1539,3.382082
268.3677,3.382021
268.3752,3.389086
268.5890,3.389025
268.6007,3.400065
268.8413,3.399996
268.8455,3.403970
269.0631,3.407441
269.0710,3.414949
269.2849,3.414887
269.2924,3.421953
269.5104,3.425865
269.5141,3.429398
269.7584,3.432862
269.7627,3.436836
269.9802,3.440307
269.9882,3.447815
270.2020,3.447753
270.2095,3.454819
270.4543,3.458724
270.4618,3.465790
270.6756,3.465728
270.6835,3.473236
270.8974,3.473174
270.9053,3.480681
271.1496,3.484145
271.1534,3.487678
271.3714,3.491590
271.3789,3.498656
271.5927,3.498594
271.6007,3.506102
271.8412,3.506032
271.8492,3.513540
272.0668,3.517011
272.0710,3.520985
272.2886,3.524457
272.2965,3.531964
272.7584,3.538899
272.7663,3.546406
272.9802,3.546344
272.9881,3.553852
273.2324,3.557315
273.2362,3.560848
273.4542,3.564761
273.4580,3.568294
273.6755,3.571765
273.6798,3.575739
273.9241,3.579203
273.9320,3.586710
274.1496,3.590181
274.1533,3.593714
274.3672,3.593652
274.3751,3.601160
274.6194,3.604623
274.6236,3.608598
274.8412,3.612069
274.8449,3.615602
275.0630,3.619515
275.0667,3.623048
275.3110,3.626511
275.3152,3.630486
275.5328,3.633957
275.5366,3.637490
275.7546,3.641402
275.7583,3.644935
276.0027,3.648399
276.0069,3.652373
276.2244,3.655844
276.2282,3.659377
276.4462,3.663290
276.4500,3.666823
276.6905,3.666753
276.6985,3.674261
277.1341,3.681645
277.1378,3.685178
277.3517,3.685116
277.3596,3.692623
277.6002,3.692554
277.6077,3.699620
277.8215,3.699558
277.8257,3.703532
278.2876,3.710467
278.2918,3.714441
278.5056,3.714380
278.5094,3.717912
278.7270,3.721384
278.7312,3.725358
279.1930,3.732293
279.1973,3.736267
279.4111,3.736205
279.4148,3.739738
279.6591,3.743202
279.6633,3.747176
279.8772,3.747114
279.8809,3.750647
280.0948,3.750586
280.0985,3.754118
280.3433,3.758023
280.5571,3.757962
280.5646,3.765028
281.0269,3.772404
281.4546,3.772280
281.4626,3.779787
281.7031,3.779718
281.7069,3.783251
281.9244,3.786722
282.3788,3.786591
282.3830,3.790565
283.0630,3.801412
283.2768,3.801350
283.4944,3.804822
283.7349,3.804752
284.1706,3.812136
284.4111,3.812066
284.4149,3.815599
284.6287,3.815537
284.8463,3.819009
285.0601,3.818947
285.3049,3.822852
285.5187,3.822790
285.7363,3.826261
285.9768,3.826191
286.4125,3.833575
286.6530,3.833506
286.8706,3.836977
287.3250,3.836845
287.5430,3.840758
287.7569,3.840696
288.2187,3.847631
288.8870,3.847438
289.1050,3.851350
289.3456,3.851281
289.5632,3.854752
290.4452,3.854497
290.6895,3.857960
290.9034,3.857898
291.1134,3.854304
291.5678,3.854172
291.7779,3.850577
292.0143,3.846533
292.0185,3.850508
292.6520,3.842815
292.6558,3.846348
292.8926,3.842745
293.1027,3.839150
293.3165,3.839089
293.5529,3.835045
293.7667,3.834983
294.2094,3.823811
294.2136,3.827785
294.4195,3.820216
294.4232,3.823749
294.6291,3.816180
294.6333,3.820154
294.8659,3.812577
294.8697,3.816110
295.0718,3.805008
295.0760,3.808982
295.2857,3.804946
295.5145,3.793836
295.5225,3.801344
295.7246,3.790241
295.7284,3.793774
296.3774,3.775475
296.3811,3.779008
296.5833,3.767905
296.5912,3.775413
297.0260,3.756733
297.0297,3.760266
297.4687,3.745562
297.4724,3.749095
297.6788,3.741967
297.6825,3.745500
298.1215,3.730795
298.1252,3.734328
298.7738,3.715587
298.7780,3.719561
298.9839,3.711992
299.1940,3.708397
299.1977,3.711930
299.4303,3.704353
299.4345,3.708328
299.6367,3.697225
299.6404,3.700758
299.8463,3.693189
300.0564,3.689594
300.0601,3.693127
300.2890,3.682017
300.2932,3.685992
300.7050,3.670853
300.7092,3.674828
300.9376,3.663276
300.9418,3.667251
301.1477,3.659681
301.1514,3.663214
301.5904,3.648509
301.5941,3.652042
301.7962,3.640940
301.8005,3.644915
302.2389,3.629768
302.2432,3.633743
302.8880,3.611469
302.8955,3.618535
303.0976,3.607432
303.1018,3.611407
303.2998,3.596330
303.3077,3.603838
303.5328,3.589195
303.5403,3.596260
303.7425,3.585158
303.9488,3.578030
303.9563,3.585096
304.1814,3.570453
304.1852,3.573986
304.5894,3.551782
304.6011,3.562822
304.8146,3.537139
304.8262,3.548179
305.0087,3.518529
305.0246,3.533544
305.2109,3.507427
305.2188,3.514934
305.4435,3.499850
305.4477,3.503824
305.6419,3.485215
305.6536,3.496255
305.8478,3.477645
305.8520,3.481620
306.0766,3.466535
306.0846,3.474043
306.2830,3.459407
306.2867,3.462940
306.4851,3.448305
306.4926,3.455371
306.7098,3.433221
306.7215,3.444261
306.9082,3.418585
306.9199,3.429626
307.1140,3.411016
307.1220,3.418524
307.3162,3.399914
307.3241,3.407421
307.5493,3.392778
307.5530,3.396311
307.7434,3.374169
307.7589,3.388742
307.9418,3.359533
307.9535,3.370574
308.1665,3.344449
308.1782,3.355489
308.3649,3.329814
308.3803,3.344387
308.5591,3.311204
308.5745,3.325777
308.7842,3.296561
308.7959,3.307601
308.9863,3.285459
308.9938,3.292524
309.1805,3.266849
309.1960,3.281422
309.4056,3.252206
309.4173,3.263246
309.6036,3.237129
309.6153,3.248169
309.8020,3.222494
309.8137,3.233534
310.0271,3.207851
310.0388,3.218891
310.2250,3.192774
310.2367,3.203815
310.4192,3.174164
310.4351,3.189179
310.6481,3.163054
310.6560,3.170562
310.8427,3.144886
310.8582,3.159460
311.0407,3.129809
311.0523,3.140850
311.2658,3.115166
311.2775,3.126207
311.4717,3.107597
311.4759,3.111572
311.6701,3.092962
311.6817,3.104002
311.9027,3.085385
311.9069,3.089359
312.0973,3.067217
312.1128,3.081790
312.2952,3.052140
312.3069,3.063180
312.5241,3.041030
312.5321,3.048537
312.7146,3.018887
312.7342,3.037435
312.9167,3.007785
312.9246,3.015292
313.1456,2.996675
313.1535,3.004182
313.3397,2.978065
313.3556,2.993080
313.5381,2.963430
313.5498,2.974470
313.7670,2.952320
313.7750,2.959827
313.9691,2.941218
313.9771,2.948725
314.1675,2.926582
314.1792,2.937623
314.3617,2.907973
314.3772,2.922546
314.5826,2.889355
314.5985,2.904370
314.7848,2.878253
314.7927,2.885760
314.9752,2.856110
314.9949,2.874658
315.2003,2.841467
315.2120,2.852508
315.3983,2.826390
315.4100,2.837431
315.5887,2.804248
315.6084,2.822795
315.8176,2.793138
315.8255,2.800645
316.0080,2.770995
316.0277,2.789543
316.2064,2.756360
316.2181,2.767400
316.4236,2.734209
316.4432,2.752757
316.6140,2.712066
316.6337,2.730614
316.8082,2.693457
316.8236,2.708030
317.0137,2.660266
317.0488,2.693387
317.2079,2.641656
317.2238,2.656671
317.3908,2.612447
317.4180,2.638061
317.6038,2.586322
317.6272,2.608403
317.7825,2.553139
317.8139,2.582728
317.9767,2.534529
317.9926,2.549544
318.1822,2.501339
318.2135,2.530927
318.3455,2.453582
318.3923,2.497744
318.5088,2.405825
318.5556,2.449987
318.7063,2.365127
318.7452,2.401781
318.8888,2.335477
318.9160,2.361091
319.0676,2.302294
319.0989,2.331882
319.2731,2.269103
319.3044,2.298691
319.4672,2.250493
319.4869,2.269041
319.6539,2.224817
319.6773,2.246898
319.8669,2.198693
319.8903,2.220773
320.0616,2.180524
320.0770,2.195098
##END=
