##TITLE=2-Methoxythiophene
##JCAMP-DX=4.24
##DATA TYPE=UV/VIS SPECTRUM
##ORIGIN=INSTITUTE OF ENERGY PROBLEMS OF CHEMICAL PHYSICS, RAS
##OWNER=INEP CP RAS, NIST OSRD
Collection (C) 2007 copyright by the U.S. Secretary of Commerce
on behalf of the United States of America. All rights reserved.
##CAS REGISTRY NO=16839-97-7
##MOLFORM=C5H6OS
##BP=153-155
##SOURCE REFERENCE=RAS UV No. 44
##$NIST SQUIB=1950HUR/KRE5543-5546
##$NIST SOURCE=TSGMTE
##SPECTROMETER/DATA SYSTEM=Beckman spectrometer
##XUNITS=Wavelength (nm)
##YUNITS=Logarithm epsilon
##XFACTOR=1.000000
##YFACTOR=1.000000
##FIRSTX=220.0000
##LASTX=289.0000
##FIRSTY=3.5
##MAXX=289
##MINX=220
##MAXY=3.66
##MINY=1.11
##NPOINTS=70
##$REF AUTHOR=Hurd, C.D.; Kreuz, K.L.
##$REF TITLE=Thienol
##$REF JOURNAL=J. Am. Chem. Soc.
##$REF VOLUME=72
##$REF PAGE=5543-5546
##$REF DATE=1950
##XYPOINTS=(XY..XY)
220.0000,3.500003
221.0000,3.510000
222.0000,3.530000
223.0000,3.530000
224.0000,3.540000
225.0000,3.550000
226.0000,3.550000
227.0000,3.560000
228.0000,3.560000
229.0000,3.570000
230.0000,3.570006
231.0000,3.570000
232.0000,3.570000
233.0000,3.570000
234.0000,3.580000
235.0000,3.580000
236.0000,3.580000
237.0000,3.590000
238.0000,3.610000
239.0000,3.620000
240.0000,3.630000
241.0000,3.640000
242.0000,3.650000
243.0000,3.650000
244.0000,3.660000
245.0000,3.660000
246.0000,3.660000
247.0000,3.650000
248.0000,3.650000
249.0000,3.630000
250.0000,3.620001
251.0000,3.600000
252.0000,3.590000
253.0000,3.560000
254.0000,3.540000
255.0000,3.500000
256.0000,3.470000
257.0000,3.430000
258.0000,3.370000
259.0000,3.330000
260.0000,3.270003
261.0000,3.200000
262.0000,3.120000
263.0000,3.050000
264.0000,2.940000
265.0000,2.850000
266.0000,2.760000
267.0000,2.680000
268.0000,2.580000
269.0000,2.490000
270.0000,2.400002
271.0000,2.290000
272.0000,2.190000
273.0000,2.080000
274.0000,2.010000
275.0000,1.910000
276.0000,1.840000
277.0000,1.770000
278.0000,1.710000
279.0000,1.650000
280.0000,1.590005
281.0000,1.530000
282.0000,1.470000
283.0000,1.410001
284.0000,1.360000
285.0000,1.299999
286.0000,1.250000
287.0000,1.199999
288.0000,1.139999
289.0000,1.110000
##END=
