##TITLE=1-propyl-1H-indole
##JCAMP-DX=4.24
##DATA TYPE=UV/VIS SPECTRUM
##ORIGIN=INSTITUTE OF ENERGY PROBLEMS OF CHEMICAL PHYSICS, RAS
##OWNER=INEP CP RAS, NIST OSRD
Collection (C) 2007 copyright by the U.S. Secretary of Commerce
on behalf of the United States of America. All rights reserved.
##CAS REGISTRY NO=16885-94-2
##MOLFORM=C11H13N
##BP=265
##SOURCE REFERENCE=RAS UV No. 23279
##$NIST SQUIB=1975MIT/4095
##$NIST SOURCE=TYUGLMTE
##SPECTROMETER/DATA SYSTEM=Cary 15
##XUNITS=Wavelength (nm)
##YUNITS=Logarithm epsilon
##XFACTOR=1.0
##YFACTOR=1.0
##FIRSTX=190
##LASTX=305.587
##FIRSTY=4.282
##MAXX=305.587
##MINX=190
##MAXY=4.549
##MINY=3.009
##NPOINTS=80
##$REF AUTHOR=Mitai, K.; et al.
##$REF JOURNAL=J. Am. Chem. Soc.
##$REF VOLUME=97
##$REF PAGE=4095
##$REF DATE=1975
##XYPOINTS=(XY..XY)
190.000,4.282
191.500,4.290
193.000,4.299
194.500,4.306
196.000,4.309
197.500,4.309
199.000,4.306
200.500,4.302
202.000,4.297
203.500,4.295
205.000,4.296
206.500,4.302
208.000,4.313
209.500,4.330
211.000,4.351
212.500,4.377
214.000,4.405
215.410,4.432
216.910,4.464
218.410,4.486
219.910,4.508
221.410,4.532
222.910,4.549
224.410,4.536
225.905,4.445
227.405,4.306
228.905,4.182
230.405,4.044
231.905,3.884
233.405,3.711
234.275,3.618
235.111,3.538
236.611,3.429
238.111,3.336
239.611,3.279
241.111,3.261
242.611,3.274
244.317,3.304
245.817,3.327
247.317,3.349
248.817,3.371
250.317,3.392
251.817,3.414
253.317,3.435
254.817,3.456
256.317,3.477
257.817,3.499
257.826,3.499
259.326,3.524
260.826,3.546
262.326,3.570
263.826,3.598
265.326,3.627
266.826,3.656
268.326,3.682
269.826,3.703
271.326,3.715
272.597,3.720
274.097,3.722
275.597,3.722
277.097,3.720
278.597,3.718
280.097,3.716
281.597,3.715
283.097,3.713
284.597,3.710
286.097,3.704
287.587,3.695
289.087,3.678
290.587,3.655
292.087,3.630
293.587,3.603
295.087,3.573
296.587,3.538
298.087,3.494
299.587,3.436
301.087,3.361
302.587,3.266
304.087,3.149
305.587,3.009
##END=
