##TITLE=2-methyl-4H-pyrido[1,2-a]pyrimidin-4-one
##JCAMP-DX=4.24
##DATA TYPE=UV/VIS SPECTRUM
##ORIGIN=INSTITUTE OF ENERGY PROBLEMS OF CHEMICAL PHYSICS, RAS
##OWNER=INEP CP RAS, NIST OSRD
Collection (C) 2007 copyright by the U.S. Secretary of Commerce
on behalf of the United States of America. All rights reserved.
##CAS REGISTRY NO=1693-94-3
##MOLFORM=C9H8N2O
##MP=121-122
##SOURCE REFERENCE=RAS UV No. 23226
##$NIST SQUIB=1975YOK/591
##$NIST SOURCE=TYUGLMTE
##SPECTROMETER/DATA SYSTEM=Hitachi EPS-3T
##XUNITS=Wavelength (nm)
##YUNITS=Logarithm epsilon
##XFACTOR=1.0
##YFACTOR=1.0
##FIRSTX=205.096
##LASTX=343.294
##FIRSTY=4.057
##MAXX=343.294
##MINX=205.096
##MAXY=4.057
##MINY=3.076
##NPOINTS=86
##$REF AUTHOR=Yokoyama, Y.; et al.
##$REF JOURNAL=Bull. Chem. Soc. Japan
##$REF VOLUME=48
##$REF PAGE=591
##$REF DATE=1975
##XYPOINTS=(XY..XY)
205.096,4.057
207.096,4.016
209.096,3.980
211.096,3.945
213.096,3.913
215.096,3.882
217.096,3.854
219.096,3.831
221.096,3.814
223.096,3.804
225.096,3.802
227.096,3.808
229.096,3.818
230.488,3.823
231.841,3.826
232.927,3.823
234.146,3.816
235.366,3.808
236.585,3.804
237.805,3.812
238.607,3.830
239.472,3.841
240.553,3.836
241.202,3.819
242.140,3.781
242.794,3.730
243.534,3.663
243.978,3.616
244.201,3.565
244.755,3.521
245.345,3.454
245.898,3.383
246.762,3.308
247.345,3.244
248.057,3.191
248.921,3.129
249.784,3.090
250.863,3.076
252.439,3.077
253.659,3.097
254.878,3.135
256.260,3.183
257.340,3.220
259.340,3.302
261.340,3.374
263.340,3.439
265.340,3.498
267.340,3.551
269.340,3.601
271.340,3.646
273.340,3.689
275.340,3.728
277.340,3.765
279.340,3.798
281.340,3.828
283.340,3.855
285.340,3.878
287.340,3.898
289.340,3.913
291.340,3.925
293.340,3.932
295.340,3.935
297.271,3.934
299.271,3.934
301.271,3.934
303.271,3.934
305.271,3.934
307.271,3.934
309.294,3.932
311.294,3.924
313.294,3.911
315.294,3.894
317.294,3.873
319.294,3.846
321.294,3.815
323.294,3.779
325.294,3.738
327.294,3.692
329.294,3.641
331.294,3.585
333.294,3.522
335.294,3.453
337.294,3.376
339.294,3.291
341.294,3.196
343.294,3.089
##END=
