##TITLE=3,4-diphenylthiophene
##JCAMP-DX=4.24
##DATA TYPE=UV/VIS SPECTRUM
##ORIGIN=INSTITUTE OF ENERGY PROBLEMS OF CHEMICAL PHYSICS, RAS
##OWNER=INEP CP RAS, NIST OSRD
Collection (C) 2007 copyright by the U.S. Secretary of Commerce
on behalf of the United States of America. All rights reserved.
##CAS REGISTRY NO=16939-13-2
##MOLFORM=C16H12S
##MP=114
##SOURCE REFERENCE=RAS UV No. 22814
##$NIST SQUIB=1976ABU/HIL2158
##$NIST SOURCE=TYUGLMTE
##SPECTROMETER/DATA SYSTEM=Beckman DK
##XUNITS=Wavelength (nm)
##YUNITS=Logarithm epsilon
##XFACTOR=1.0
##YFACTOR=1.0
##FIRSTX=209.86
##LASTX=297.034
##FIRSTY=4.181
##MAXX=297.034
##MINX=209.86
##MAXY=4.181
##MINY=2.76
##NPOINTS=89
##$REF AUTHOR=Abu-Eittah, R.; Hilal, R.
##$REF JOURNAL=Bull. Chem. Soc. Japan.
##$REF VOLUME=49
##$REF PAGE=2158
##$REF DATE=1976
##XYPOINTS=(XY..XY)
209.860,4.181
210.860,4.129
211.860,4.090
212.860,4.062
213.860,4.040
214.860,4.025
215.860,4.013
216.860,4.004
217.860,3.997
218.860,3.992
219.860,3.988
220.860,3.985
221.860,3.983
222.860,3.982
223.860,3.981
224.860,3.981
225.860,3.981
226.860,3.981
227.860,3.981
228.860,3.980
229.860,3.979
230.860,3.976
231.860,3.971
232.860,3.965
233.860,3.957
234.860,3.948
235.860,3.938
236.835,3.931
237.835,3.919
238.835,3.905
239.835,3.890
240.835,3.875
241.835,3.860
242.835,3.846
243.835,3.834
244.835,3.822
245.835,3.812
246.835,3.803
247.835,3.795
248.835,3.788
249.835,3.781
250.835,3.775
251.835,3.770
252.835,3.764
253.835,3.758
254.835,3.752
255.835,3.744
256.835,3.737
257.835,3.728
258.835,3.718
259.835,3.707
260.835,3.695
261.835,3.682
262.835,3.668
263.835,3.653
264.835,3.636
265.835,3.618
266.835,3.599
267.835,3.578
268.835,3.556
269.034,3.552
270.034,3.521
271.034,3.497
272.034,3.476
273.034,3.455
274.034,3.433
275.034,3.409
276.034,3.383
277.034,3.355
278.034,3.325
279.034,3.294
280.034,3.263
281.034,3.233
282.034,3.204
283.034,3.175
284.034,3.149
285.034,3.124
286.034,3.101
287.034,3.078
288.034,3.056
289.034,3.033
290.034,3.008
291.034,2.982
292.034,2.952
293.034,2.918
294.034,2.881
295.034,2.841
296.034,2.800
297.034,2.760
##END=
