##TITLE=4-Methyl-3-hexanone
##JCAMP-DX=4.24
##DATA TYPE=UV/VIS SPECTRUM
##ORIGIN=INSTITUTE OF ENERGY PROBLEMS OF CHEMICAL PHYSICS, RAS
##OWNER=INEP CP RAS, NIST OSRD
Collection (C) 2007 copyright by the U.S. Secretary of Commerce
on behalf of the United States of America. All rights reserved.
##CAS REGISTRY NO=17042-16-9
##MOLFORM=C7H14O
##BP=134.5
##SOURCE REFERENCE=RAS UV No. 4270
##$NIST SQUIB=1971LEE/MCA1310-1314
##$NIST SOURCE=TSGMTE
##SPECTROMETER/DATA SYSTEM=n.i.g.
##XUNITS=Wavelength (nm)
##YUNITS=Logarithm epsilon
##XFACTOR=1.000000
##YFACTOR=1.000000
##FIRSTX=246.1298
##LASTX=321.2544
##FIRSTY=3.59889
##MAXX=321.254
##MINX=246.13
##MAXY=4.41018
##MINY=3.47292
##NPOINTS=156
##$REF AUTHOR=Lee, L.P-Y.; McAneney, B.; Guillet, J.E.
##$REF TITLE=Photolysis of 4-methyl 3-hexanone and 2-methoxy 3-pentanone in hydrocarbon solution
##$REF JOURNAL=Can. J. Chem.
##$REF VOLUME=49
##$REF PAGE=1310-1314
##$REF DATE=1971
##XYPOINTS=(XY..XY)
246.1298,3.598891
246.6108,3.619652
247.0918,3.639465
247.5728,3.658414
248.7460,3.708696
249.1414,3.725337
249.5368,3.741363
249.9323,3.756819
251.0084,3.800506
251.3308,3.814040
251.6559,3.827164
251.9865,3.839902
253.0128,3.873682
253.3226,3.885346
253.6323,3.896582
253.9420,3.907475
254.7106,3.934562
255.0332,3.945276
255.3586,3.955678
255.6894,3.965731
256.5574,3.993279
256.7614,4.002893
256.9894,4.011305
257.3396,4.018985
258.1587,4.043447
258.4687,4.051809
258.7786,4.059971
259.0886,4.067900
259.9069,4.088400
260.2169,4.095947
260.5268,4.103327
260.8368,4.110508
261.4573,4.125736
261.7674,4.132833
262.0774,4.139816
262.3875,4.146688
263.2548,4.163848
263.5155,4.169768
263.7763,4.175608
264.0370,4.181371
265.0037,4.199440
265.3264,4.205295
265.6518,4.211042
265.9826,4.216654
266.9623,4.234485
267.2512,4.239519
267.5455,4.244495
267.8425,4.249414
268.6603,4.262424
269.0358,4.268313
269.4167,4.274097
269.8002,4.279754
270.7180,4.294224
271.0561,4.298941
271.3996,4.303605
271.7459,4.308221
272.6253,4.320018
272.9477,4.324154
273.2728,4.328251
273.6034,4.332310
274.7281,4.343958
274.7447,4.345222
274.8540,4.346694
275.1496,4.349627
275.3478,4.352047
275.7548,4.355721
275.9531,4.357253
276.1125,4.357974
276.1125,4.357974
276.7901,4.366146
277.5920,4.373339
278.4241,4.380676
279.5595,4.389601
280.1019,4.392762
280.6470,4.395901
281.1976,4.399016
282.6726,4.404646
283.3633,4.406065
284.0595,4.407460
284.7583,4.408813
286.1921,4.410183
286.7576,4.409861
287.1761,4.409377
287.8061,4.408313
287.9159,4.407967
287.9775,4.407964
288.0419,4.407960
288.1117,4.407956
289.4292,4.403602
289.9036,4.400722
290.3780,4.397803
290.8523,4.394825
292.2617,4.384430
292.6774,4.380310
293.0985,4.376109
293.5222,4.371847
294.3703,4.362809
294.7701,4.357933
295.1725,4.353001
295.5804,4.348013
296.4883,4.336852
296.8513,4.331672
297.2170,4.326407
297.5881,4.321030
298.4937,4.306459
298.8440,4.300902
299.1943,4.295249
299.5445,4.289472
300.4011,4.273785
300.8127,4.264995
301.1824,4.258039
301.4012,4.253016
302.1004,4.238468
302.3296,4.233089
302.5614,4.227584
302.7987,4.221979
303.4969,4.204703
303.7627,4.198785
304.0312,4.192786
304.3052,4.186701
305.1006,4.166735
305.2963,4.160575
305.4974,4.154293
305.7013,4.147848
306.7028,4.122503
306.9471,4.114960
307.1968,4.107207
307.4492,4.099275
308.4029,4.073054
308.9738,4.056443
309.1957,4.049154
309.2587,4.045356
310.1038,4.019126
310.4335,4.008936
310.7687,3.998453
311.1065,3.987610
312.0128,3.957508
312.3271,3.945746
312.6441,3.933600
312.9666,3.920988
313.9218,3.885678
314.2848,3.870889
314.6506,3.855578
315.0217,3.839707
315.9280,3.796770
316.3278,3.778904
316.7304,3.760272
317.1384,3.740803
317.9372,3.699473
318.2674,3.680224
318.6031,3.660080
318.9415,3.638956
320.0558,3.568579
320.4554,3.539161
320.8549,3.507453
321.2544,3.472921
##END=
