##TITLE=Benzenamine, N-[(2-nitrophenyl)methylene]-
##JCAMP-DX=4.24
##DATA TYPE=UV/VIS SPECTRUM
##ORIGIN=INSTITUTE OF ENERGY PROBLEMS OF CHEMICAL PHYSICS, RAS
##OWNER=INEP CP RAS, NIST OSRD
Collection (C) 2007 copyright by the U.S. Secretary of Commerce
on behalf of the United States of America. All rights reserved.
##CAS REGISTRY NO=17064-77-6
##MOLFORM=C13H10N2O2
##MP=64.5
##SOURCE REFERENCE=RAS UV No. 19721
##$NIST SQUIB=1961LAN89
##$NIST SOURCE=TYUGLMTE
##SPECTROMETER/DATA SYSTEM=Beckman DU
##XUNITS=Wavelength (nm)
##YUNITS=Logarithm epsilon
##XFACTOR=1.0
##YFACTOR=1.0
##FIRSTX=220.01
##LASTX=447.53
##FIRSTY=4.285
##MAXX=447.53
##MINX=220.01
##MAXY=4.299
##MINY=1.255
##NPOINTS=196
##$REF AUTHOR=Lang (editor), L.
##$REF JOURNAL=Absorption Spectra in the Ultraviolet and Visible Region
##$REF VOLUME=2
##$REF PAGE=89
##$REF DATE=1961
##XYPOINTS=(XY..XY)
220.01,4.285
221.36,4.295
222.89,4.299
224.41,4.299
225.94,4.299
227.47,4.295
228.99,4.285
230.52,4.282
232.04,4.278
233.40,4.265
234.93,4.261
236.28,4.251
237.81,4.244
239.16,4.230
240.52,4.220
242.05,4.210
243.40,4.196
244.76,4.183
246.28,4.176
247.64,4.162
249.17,4.156
250.69,4.149
252.22,4.142
253.74,4.135
255.27,4.132
256.80,4.132
258.32,4.139
259.85,4.142
261.37,4.145
262.90,4.149
264.43,4.152
265.95,4.145
267.48,4.145
269.00,4.142
270.53,4.139
272.05,4.128
273.41,4.118
274.77,4.108
276.12,4.094
277.48,4.077
278.84,4.064
280.19,4.047
281.38,4.030
282.57,4.009
283.92,3.992
284.94,3.968
286.13,3.951
287.31,3.934
288.50,3.917
289.86,3.900
291.04,3.883
292.40,3.866
293.76,3.849
295.11,3.836
296.47,3.818
297.82,3.801
299.18,3.788
300.54,3.774
301.89,3.764
303.42,3.754
304.94,3.750
306.47,3.744
308.00,3.740
309.52,3.740
311.05,3.740
312.57,3.740
314.10,3.740
315.63,3.744
317.15,3.747
318.68,3.747
320.20,3.747
321.73,3.750
323.26,3.754
324.78,3.754
326.31,3.761
327.83,3.767
329.36,3.771
330.88,3.774
332.41,3.781
333.94,3.784
335.46,3.784
336.99,3.788
338.51,3.788
340.04,3.788
341.57,3.788
343.09,3.788
344.62,3.784
346.14,3.778
347.67,3.767
349.03,3.757
350.55,3.750
351.91,3.737
353.26,3.720
354.62,3.710
355.98,3.696
357.33,3.679
358.69,3.665
360.05,3.648
361.40,3.631
362.76,3.614
364.11,3.597
365.47,3.580
366.83,3.563
368.01,3.543
369.37,3.526
370.56,3.509
371.57,3.488
372.76,3.471
373.78,3.451
374.96,3.430
376.15,3.410
377.34,3.389
378.36,3.369
379.37,3.349
380.39,3.328
381.58,3.308
382.59,3.284
383.61,3.260
384.80,3.240
385.82,3.219
386.66,3.195
387.51,3.172
388.53,3.151
389.55,3.127
390.39,3.103
391.41,3.080
392.43,3.056
393.27,3.032
394.12,3.008
394.97,2.984
395.99,2.960
396.84,2.937
397.68,2.909
398.70,2.886
399.55,2.858
400.57,2.834
401.24,2.807
402.26,2.783
403.11,2.760
403.96,2.732
404.80,2.708
405.65,2.681
406.50,2.657
407.35,2.630
408.02,2.603
408.87,2.579
409.72,2.555
410.57,2.528
411.42,2.504
412.26,2.480
413.11,2.453
413.79,2.426
414.64,2.402
415.48,2.378
416.16,2.351
417.01,2.327
417.86,2.300
418.54,2.273
419.38,2.245
420.06,2.218
420.91,2.191
421.59,2.164
422.44,2.136
423.11,2.109
423.96,2.082
424.64,2.055
425.32,2.027
426.17,2.000
426.84,1.973
427.52,1.946
428.20,1.919
428.71,1.891
429.56,1.867
430.23,1.840
431.08,1.813
431.93,1.786
432.61,1.758
433.46,1.731
434.30,1.704
434.98,1.677
435.83,1.653
436.51,1.626
437.36,1.602
438.03,1.575
438.88,1.551
439.56,1.524
440.41,1.500
441.09,1.472
441.93,1.445
442.78,1.418
443.46,1.391
444.31,1.364
444.98,1.336
445.83,1.309
446.68,1.282
447.53,1.255
##END=
