##TITLE=Hydrazine, trimethyl-
##JCAMP-DX=4.24
##DATA TYPE=UV/VIS SPECTRUM
##ORIGIN=INSTITUTE OF ENERGY PROBLEMS OF CHEMICAL PHYSICS, RAS
##OWNER=INEP CP RAS, NIST OSRD
Collection (C) 2007 copyright by the U.S. Secretary of Commerce
on behalf of the United States of America. All rights reserved.
##CAS REGISTRY NO=1741-01-1
##MOLFORM=C3H10N2
##SOURCE REFERENCE=RAS UV No. 20197
##$NIST SQUIB=1969BOL/222
##$NIST SOURCE=TYUGLMTE
##SPECTROMETER/DATA SYSTEM=SF-4
##XUNITS=Wavelength (nm)
##YUNITS=Logarithm epsilon
##XFACTOR=1.0
##YFACTOR=1.0
##FIRSTX=221.71
##LASTX=283.42
##FIRSTY=3.763
##MAXX=283.42
##MINX=221.71
##MAXY=3.763
##MINY=1.523
##NPOINTS=180
##$REF AUTHOR=Bol'shakov, G.F.; et al.
##$REF JOURNAL=Ultraviolet spectra of heteroorganic compounds
##$REF PAGE=222
##$REF DATE=1969
##XYPOINTS=(XY..XY)
221.71,3.763
221.75,3.709
221.91,3.635
222.26,3.593
222.61,3.566
222.95,3.554
223.30,3.535
223.65,3.525
224.00,3.510
224.34,3.496
224.69,3.485
225.04,3.473
225.39,3.465
225.73,3.454
226.08,3.444
226.43,3.436
226.78,3.432
227.12,3.423
227.47,3.413
227.82,3.407
228.17,3.402
228.51,3.394
228.86,3.392
229.21,3.384
229.56,3.376
229.90,3.371
230.25,3.365
230.60,3.361
230.95,3.359
231.29,3.353
231.64,3.351
231.99,3.351
232.34,3.344
232.68,3.342
233.03,3.340
233.38,3.338
233.73,3.332
234.07,3.332
234.42,3.330
234.77,3.328
235.12,3.326
235.46,3.322
235.81,3.322
236.16,3.322
236.51,3.320
236.85,3.320
237.20,3.317
237.55,3.317
237.90,3.315
238.24,3.315
238.59,3.315
238.94,3.315
239.29,3.315
239.63,3.315
239.98,3.315
240.33,3.315
240.68,3.317
241.02,3.320
241.37,3.322
241.72,3.322
242.07,3.326
242.41,3.328
242.76,3.330
243.11,3.336
243.46,3.338
243.80,3.340
244.15,3.344
244.50,3.344
244.85,3.342
245.19,3.340
245.54,3.338
245.89,3.336
246.24,3.330
246.58,3.326
246.93,3.322
247.28,3.320
247.63,3.317
247.97,3.311
248.32,3.309
248.67,3.307
249.02,3.305
249.36,3.303
249.71,3.299
250.06,3.297
250.41,3.295
250.75,3.293
251.10,3.290
251.45,3.288
251.80,3.288
252.14,3.286
252.49,3.286
252.84,3.284
253.19,3.284
253.53,3.282
253.88,3.282
254.23,3.282
254.58,3.280
254.92,3.280
255.27,3.278
255.62,3.276
255.97,3.274
256.31,3.274
256.66,3.270
257.01,3.266
257.36,3.261
257.70,3.257
258.05,3.253
258.40,3.249
258.75,3.243
259.09,3.237
259.44,3.228
259.79,3.224
260.14,3.216
260.48,3.210
260.83,3.205
261.18,3.197
261.53,3.187
261.88,3.183
262.22,3.174
262.57,3.166
262.92,3.156
263.27,3.145
263.61,3.135
263.96,3.127
264.31,3.116
264.66,3.104
265.00,3.093
265.35,3.083
265.70,3.071
266.05,3.060
266.35,3.049
266.74,3.031
267.09,3.019
267.41,3.007
267.78,2.992
268.13,2.975
268.44,2.957
268.83,2.936
269.17,2.923
269.52,2.902
269.87,2.884
270.22,2.865
270.56,2.849
270.91,2.828
271.27,2.807
271.73,2.780
272.26,2.748
272.65,2.720
273.00,2.687
273.34,2.660
273.69,2.618
274.04,2.587
274.39,2.521
274.73,2.461
275.08,2.425
275.43,2.386
275.78,2.340
276.12,2.280
276.47,2.239
276.67,2.179
276.84,2.101
277.04,1.988
277.34,1.882
277.74,1.824
278.04,1.789
278.38,1.754
278.81,1.715
279.25,1.689
279.60,1.672
279.95,1.649
280.29,1.631
280.64,1.618
280.99,1.602
281.34,1.587
281.68,1.577
282.03,1.564
282.38,1.554
282.73,1.541
283.07,1.531
283.42,1.523
##END=
