##TITLE=(Z)-2-phenyl-4-(phenylmethylene)-5(4H)-oxazolone
##JCAMP-DX=4.24
##DATA TYPE=UV/VIS SPECTRUM
##ORIGIN=INSTITUTE OF ENERGY PROBLEMS OF CHEMICAL PHYSICS, RAS
##OWNER=INEP CP RAS, NIST OSRD
Collection (C) 2007 copyright by the U.S. Secretary of Commerce
on behalf of the United States of America. All rights reserved.
##CAS REGISTRY NO=17606-70-1
##MOLFORM=C16H11NO2
##MP=149.5-151.5
##SOURCE REFERENCE=RAS UV No. 23797
##$NIST SQUIB=1974BRO/WIL351
##$NIST SOURCE=TYUGLMTE
##SPECTROMETER/DATA SYSTEM=Cary 15
##XUNITS=Wavelength (nm)
##YUNITS=Logarithm epsilon
##XFACTOR=1.0
##YFACTOR=1.0
##FIRSTX=210.225
##LASTX=399.786
##FIRSTY=4.016
##MAXX=399.786
##MINX=210.225
##MAXY=4.573
##MINY=3.283
##NPOINTS=199
##$REF AUTHOR=Brocklehurst, K.; Williamson, K.
##$REF JOURNAL=Tetrahedron
##$REF VOLUME=30
##$REF PAGE=351
##$REF DATE=1974
##XYPOINTS=(XY..XY)
210.225,4.016
211.225,3.977
212.225,3.950
213.225,3.933
214.225,3.924
215.225,3.924
216.225,3.930
217.225,3.940
217.862,3.949
218.490,3.955
219.490,3.964
220.490,3.973
221.490,3.981
222.490,3.989
223.490,3.994
224.490,3.995
225.883,3.995
226.844,3.995
227.804,3.997
228.764,4.001
229.724,4.008
230.684,4.021
231.645,4.027
232.605,4.032
233.565,4.034
234.525,4.036
235.485,4.041
236.446,4.050
237.406,4.057
238.366,4.055
239.326,4.043
240.286,4.029
241.247,4.025
242.207,4.025
243.167,4.025
244.127,4.020
245.087,4.006
245.805,3.986
246.094,3.964
246.479,3.944
247.058,3.930
247.968,3.917
248.928,3.898
249.888,3.883
250.849,3.870
251.809,3.862
252.769,3.857
253.729,3.854
254.689,3.849
255.650,3.846
256.610,3.840
257.570,3.829
258.530,3.814
259.490,3.793
260.131,3.777
260.771,3.764
261.165,3.750
261.630,3.734
262.165,3.713
263.165,3.671
264.165,3.626
265.165,3.582
266.165,3.541
267.165,3.504
268.165,3.472
269.165,3.445
270.165,3.424
271.165,3.408
272.165,3.398
273.165,3.392
274.165,3.389
275.165,3.390
276.165,3.394
277.165,3.401
278.165,3.411
279.246,3.421
280.295,3.427
281.548,3.440
282.215,3.455
282.949,3.475
283.245,3.498
283.941,3.518
285.025,3.538
286.056,3.553
287.016,3.569
287.975,3.591
288.975,3.610
289.975,3.629
290.975,3.648
291.975,3.666
292.975,3.683
293.975,3.701
294.975,3.718
295.975,3.735
296.975,3.751
297.975,3.768
298.975,3.785
299.975,3.801
300.975,3.818
301.975,3.835
302.975,3.852
303.975,3.869
304.975,3.886
305.975,3.904
306.975,3.921
307.975,3.939
308.975,3.958
309.975,3.976
310.975,3.995
311.975,4.013
312.975,4.032
313.975,4.051
314.975,4.070
315.975,4.089
316.975,4.108
317.975,4.127
318.975,4.145
319.975,4.163
320.975,4.181
321.975,4.198
322.975,4.215
323.975,4.231
324.975,4.247
325.975,4.262
326.975,4.276
327.975,4.290
328.975,4.304
329.975,4.316
330.920,4.327
331.920,4.342
332.920,4.353
333.920,4.364
334.920,4.376
335.920,4.389
336.920,4.403
337.920,4.418
338.920,4.433
339.920,4.448
340.920,4.462
341.920,4.475
342.920,4.485
343.920,4.493
344.920,4.500
345.920,4.505
346.920,4.509
347.920,4.514
348.920,4.519
349.792,4.523
350.792,4.531
351.792,4.536
352.792,4.540
353.792,4.543
354.792,4.546
355.792,4.550
356.792,4.554
357.792,4.559
358.792,4.563
359.792,4.568
360.792,4.571
361.792,4.573
362.792,4.573
363.792,4.570
364.792,4.566
365.792,4.559
366.792,4.550
367.792,4.540
368.792,4.529
369.792,4.520
370.759,4.510
371.759,4.494
372.759,4.481
373.759,4.471
374.759,4.462
375.759,4.454
376.759,4.447
377.759,4.439
378.759,4.431
379.759,4.421
380.759,4.409
381.759,4.396
382.759,4.381
383.759,4.365
384.759,4.346
385.759,4.326
386.759,4.304
387.517,4.269
387.786,4.252
388.786,4.161
389.786,4.083
390.786,4.014
391.786,3.951
392.786,3.890
393.786,3.826
394.786,3.756
395.786,3.677
396.786,3.588
397.786,3.490
398.786,3.386
399.786,3.283
##END=
