##TITLE=3-(dimethylamino)cyclopenta[e][1,3]diazepine
##JCAMP-DX=4.24
##DATA TYPE=UV/VIS SPECTRUM
##ORIGIN=INSTITUTE OF ENERGY PROBLEMS OF CHEMICAL PHYSICS, RAS
##OWNER=INEP CP RAS, NIST OSRD
Collection (C) 2007 copyright by the U.S. Secretary of Commerce
on behalf of the United States of America. All rights reserved.
##CAS REGISTRY NO=17749-52-9
##MOLFORM=C10H11N3
##MP=103
##SOURCE REFERENCE=RAS UV No. 23219
##$NIST SQUIB=1975SAS/1201
##$NIST SOURCE=TYUGLMTE
##SPECTROMETER/DATA SYSTEM=Jasco ORD/UV-5
##XUNITS=Wavelength (nm)
##YUNITS=Logarithm epsilon
##XFACTOR=1.0
##YFACTOR=1.0
##FIRSTX=241.435
##LASTX=388.871
##FIRSTY=3.656
##MAXX=388.871
##MINX=241.435
##MAXY=4.708
##MINY=3.407
##NPOINTS=148
##$REF AUTHOR=Sasaki, T.; et al.
##$REF JOURNAL=J. Org. Chem.
##$REF VOLUME=40
##$REF PAGE=1201
##$REF DATE=1975
##XYPOINTS=(XY..XY)
241.435,3.656
242.435,3.684
243.435,3.710
244.435,3.735
245.435,3.758
246.435,3.780
247.435,3.800
248.435,3.819
249.435,3.837
250.435,3.854
251.435,3.870
252.435,3.886
253.435,3.901
254.435,3.917
255.435,3.932
256.435,3.947
257.435,3.963
258.435,3.979
259.435,3.996
260.435,4.013
261.435,4.031
262.435,4.049
263.435,4.069
264.435,4.089
265.435,4.110
266.435,4.133
267.435,4.157
268.435,4.182
269.435,4.210
270.435,4.239
271.435,4.271
272.218,4.280
273.218,4.336
274.218,4.393
275.218,4.448
276.218,4.496
277.218,4.534
278.218,4.562
279.218,4.580
280.218,4.590
281.218,4.594
282.218,4.594
283.097,4.590
284.097,4.589
285.097,4.594
286.097,4.603
287.097,4.614
288.097,4.626
289.097,4.639
290.097,4.651
291.097,4.662
292.097,4.672
293.097,4.680
294.097,4.687
295.097,4.692
296.097,4.696
297.097,4.699
298.097,4.701
299.097,4.703
300.097,4.704
301.097,4.705
302.097,4.706
303.097,4.707
304.097,4.708
305.097,4.708
306.097,4.707
307.097,4.705
308.862,4.698
309.862,4.683
310.862,4.657
311.862,4.627
312.862,4.597
313.862,4.569
314.862,4.542
315.862,4.513
316.195,4.514
317.195,4.448
318.195,4.363
319.195,4.271
320.195,4.179
321.195,4.093
322.195,4.017
323.195,3.953
324.195,3.903
325.195,3.865
326.195,3.839
327.195,3.822
328.195,3.812
329.195,3.806
330.195,3.801
332.008,3.786
333.008,3.774
334.008,3.764
335.008,3.756
336.008,3.750
337.008,3.745
338.008,3.741
339.008,3.739
340.008,3.737
341.008,3.736
342.008,3.736
343.008,3.736
344.008,3.737
345.008,3.739
346.008,3.740
347.008,3.742
348.008,3.744
349.008,3.747
350.008,3.749
351.008,3.752
352.008,3.754
353.008,3.757
354.008,3.760
355.008,3.763
356.008,3.766
357.008,3.768
358.008,3.771
359.008,3.774
360.008,3.777
361.008,3.780
362.008,3.783
363.008,3.786
364.008,3.788
365.008,3.791
366.008,3.793
367.008,3.795
368.008,3.797
369.008,3.798
370.008,3.799
371.008,3.799
372.008,3.799
373.008,3.797
374.008,3.794
375.008,3.790
376.008,3.784
377.008,3.776
378.008,3.767
378.776,3.760
379.776,3.741
380.776,3.726
381.776,3.708
382.776,3.684
383.776,3.651
384.776,3.609
385.776,3.560
386.776,3.507
387.776,3.454
388.871,3.407
##END=
