##TITLE=4-CH3S-C6H4-COCH3
##JCAMP-DX=4.24
##DATA TYPE=UV/VIS SPECTRUM
##ORIGIN=INSTITUTE OF ENERGY PROBLEMS OF CHEMICAL PHYSICS, RAS
##OWNER=INEP CP RAS, NIST OSRD
Collection (C) 2007 copyright by the U.S. Secretary of Commerce
on behalf of the United States of America. All rights reserved.
##CAS REGISTRY NO=1778-09-2
##MOLFORM=C9H10OS
##MP=78.5-79.5
##SOURCE REFERENCE=RAS UV No. 19027
##$NIST SQUIB=1971LAN61
##$NIST SOURCE=TYUGLMTE
##SPECTROMETER/DATA SYSTEM=Unicam SP 800
##XUNITS=Wavelength (nm)
##YUNITS=Logarithm epsilon
##XFACTOR=1.0
##YFACTOR=1.0
##FIRSTX=206.29
##LASTX=356.3
##FIRSTY=4.043
##MAXX=356.3
##MINX=206.29
##MAXY=4.292
##MINY=0.969
##NPOINTS=199
##$REF AUTHOR=Lang (editor), L.
##$REF JOURNAL=Absorption Spectra in the Ultraviolet and Visible Region
##$REF VOLUME=15
##$REF PAGE=61
##$REF DATE=1971
##XYPOINTS=(XY..XY)
206.29,4.043
206.97,4.016
207.65,3.989
207.99,3.958
208.50,3.931
209.01,3.904
209.52,3.877
209.86,3.846
210.37,3.819
210.88,3.791
211.57,3.764
212.42,3.737
213.44,3.717
214.80,3.700
216.33,3.693
217.86,3.689
219.22,3.703
220.58,3.713
221.94,3.730
223.30,3.747
224.66,3.764
226.02,3.778
227.38,3.791
228.74,3.808
230.10,3.819
231.63,3.825
233.16,3.822
234.70,3.819
236.23,3.808
237.76,3.808
239.29,3.802
240.48,3.785
241.50,3.761
242.35,3.737
243.20,3.713
244.05,3.686
244.56,3.659
245.24,3.631
245.92,3.604
246.26,3.574
246.77,3.546
247.28,3.519
247.79,3.488
248.13,3.458
248.47,3.427
248.81,3.397
249.15,3.366
249.49,3.335
249.66,3.305
249.83,3.274
250.34,3.243
250.68,3.213
251.02,3.182
251.53,3.151
252.04,3.124
252.55,3.097
253.06,3.070
253.74,3.042
254.59,3.015
256.12,3.015
257.31,3.032
258.34,3.056
259.19,3.080
260.21,3.104
261.06,3.131
261.91,3.158
262.76,3.185
263.44,3.213
264.29,3.240
264.97,3.267
265.82,3.294
266.50,3.322
267.01,3.349
267.69,3.376
268.37,3.403
268.88,3.431
269.56,3.458
270.07,3.485
270.75,3.512
271.43,3.540
272.11,3.567
272.79,3.594
273.47,3.621
274.15,3.648
275.00,3.676
275.68,3.703
276.36,3.730
277.21,3.757
278.06,3.785
278.74,3.812
279.59,3.836
280.44,3.860
281.30,3.887
282.15,3.911
283.00,3.934
284.02,3.958
285.04,3.979
286.06,3.999
287.08,4.023
288.10,4.047
289.29,4.067
290.31,4.091
291.33,4.111
292.52,4.132
293.54,4.152
294.73,4.173
295.92,4.190
297.11,4.210
298.47,4.227
299.66,4.244
300.85,4.261
302.21,4.271
303.57,4.282
305.11,4.288
306.64,4.292
308.17,4.292
309.70,4.288
311.23,4.278
312.59,4.265
313.95,4.251
315.31,4.234
316.50,4.214
317.69,4.193
318.54,4.169
319.39,4.145
320.41,4.122
321.26,4.094
322.11,4.071
322.96,4.043
323.81,4.016
324.66,3.992
325.17,3.965
326.02,3.941
326.53,3.914
327.39,3.890
328.07,3.863
328.75,3.836
329.60,3.808
330.11,3.781
330.79,3.754
331.30,3.727
331.81,3.700
332.66,3.672
333.17,3.645
333.68,3.618
334.36,3.591
334.87,3.563
335.38,3.536
335.89,3.509
336.40,3.482
336.91,3.454
337.42,3.427
337.93,3.400
338.61,3.373
338.95,3.342
339.46,3.315
339.80,3.284
340.31,3.257
340.82,3.230
341.16,3.199
341.67,3.172
342.18,3.141
342.52,3.111
343.03,3.083
343.37,3.053
343.88,3.022
344.22,2.991
344.56,2.961
345.07,2.934
345.41,2.903
345.58,2.872
345.92,2.842
346.43,2.814
346.77,2.784
348.47,2.579
348.64,2.576
348.81,2.573
349.15,2.542
349.49,2.494
349.83,2.454
350.17,2.409
350.52,2.365
350.86,2.317
351.20,2.270
351.54,2.219
351.88,2.164
352.22,2.103
352.56,2.038
352.90,1.970
353.24,1.875
353.58,1.790
353.92,1.708
354.26,1.623
354.60,1.534
354.94,1.436
355.28,1.299
355.62,1.136
355.96,1.041
356.30,0.969
##END=
