##TITLE=2-methyl-5-nitro-1H-benzimidazole
##JCAMP-DX=4.24
##DATA TYPE=UV/VIS SPECTRUM
##ORIGIN=INSTITUTE OF ENERGY PROBLEMS OF CHEMICAL PHYSICS, RAS
##OWNER=INEP CP RAS, NIST OSRD
Collection (C) 2007 copyright by the U.S. Secretary of Commerce
on behalf of the United States of America. All rights reserved.
##CAS REGISTRY NO=1792-40-1
##MOLFORM=C8H7N3O2
##MP=223
##SOURCE REFERENCE=RAS UV No. 23096
##$NIST SQUIB=1976SER/2436
##$NIST SOURCE=TYUGLMTE
##SPECTROMETER/DATA SYSTEM=SF-8
##XUNITS=Wavelength (nm)
##YUNITS=Logarithm epsilon
##XFACTOR=1.0
##YFACTOR=1.0
##FIRSTX=222.529
##LASTX=346.585
##FIRSTY=4.126
##MAXX=346.585
##MINX=222.529
##MAXY=4.331
##MINY=3.412
##NPOINTS=84
##$REF AUTHOR=Sergeev, A.M.; et al.
##$REF JOURNAL=Zhur. Organ. Khim.
##$REF VOLUME=12
##$REF PAGE=2436
##$REF DATE=1976
##XYPOINTS=(XY..XY)
222.529,4.126
224.029,4.155
225.529,4.183
227.029,4.212
228.529,4.241
230.029,4.268
231.529,4.292
233.029,4.311
234.529,4.325
236.029,4.331
237.529,4.329
239.029,4.321
240.529,4.305
242.029,4.283
243.529,4.255
245.029,4.223
246.529,4.185
248.029,4.141
249.529,4.086
250.864,4.026
252.364,3.929
253.864,3.841
255.364,3.751
256.864,3.658
258.364,3.568
259.864,3.492
261.364,3.438
262.864,3.412
264.364,3.414
265.864,3.437
267.509,3.468
268.896,3.499
270.085,3.528
271.585,3.563
273.085,3.587
274.585,3.613
276.085,3.640
277.585,3.669
279.085,3.698
280.585,3.726
282.085,3.754
283.585,3.782
285.085,3.808
286.585,3.832
288.085,3.855
289.585,3.876
291.085,3.895
292.585,3.913
294.085,3.928
295.585,3.942
297.085,3.954
298.585,3.965
300.085,3.973
301.585,3.980
303.085,3.986
304.585,3.990
306.085,3.993
307.585,3.994
309.085,3.994
310.585,3.992
312.085,3.989
313.585,3.984
315.085,3.978
316.585,3.971
318.085,3.961
319.585,3.951
321.085,3.938
322.585,3.925
324.085,3.910
325.585,3.893
327.085,3.876
328.585,3.857
330.085,3.837
331.585,3.816
333.085,3.794
334.585,3.771
336.085,3.747
337.585,3.722
339.085,3.695
340.585,3.666
342.085,3.635
343.585,3.601
345.085,3.564
346.585,3.523
##END=
