##TITLE=2-Pyridinamine, 6-methyl-
##JCAMP-DX=4.24
##DATA TYPE=UV/VIS SPECTRUM
##ORIGIN=INSTITUTE OF ENERGY PROBLEMS OF CHEMICAL PHYSICS, RAS
##OWNER=INEP CP RAS, NIST OSRD
Collection (C) 2007 copyright by the U.S. Secretary of Commerce
on behalf of the United States of America. All rights reserved.
##CAS REGISTRY NO=1824-81-3
##MOLFORM=C6H8N2
##MP=40-41
##SOURCE REFERENCE=RAS UV No. 19046
##$NIST SQUIB=1970LAN187
##$NIST SOURCE=TYUGLMTE
##SPECTROMETER/DATA SYSTEM=Unicam SP 500
##XUNITS=Wavelength (nm)
##YUNITS=Logarithm epsilon
##XFACTOR=1.0
##YFACTOR=1.0
##FIRSTX=210.96
##LASTX=337.57
##FIRSTY=3.446
##MAXX=337.57
##MINX=210.96
##MAXY=4.007
##MINY=1.328
##NPOINTS=114
##$REF AUTHOR=Lang (editor), L.
##$REF JOURNAL=Absorption Spectra in the Ultraviolet and Visible Region
##$REF VOLUME=14
##$REF PAGE=187
##$REF DATE=1970
##XYPOINTS=(XY..XY)
210.96,3.446
211.13,3.446
211.30,3.450
211.48,3.450
211.65,3.453
211.83,3.453
212.00,3.456
212.17,3.456
212.35,3.460
212.52,3.463
212.70,3.463
213.39,3.467
214.61,3.487
215.83,3.515
217.04,3.545
218.26,3.573
219.48,3.614
220.70,3.648
221.91,3.693
223.13,3.734
224.35,3.778
225.57,3.812
226.78,3.847
228.00,3.877
229.22,3.912
230.43,3.939
231.65,3.963
232.87,3.984
234.09,3.997
235.30,4.007
236.52,4.007
237.74,4.004
238.96,3.997
240.17,3.984
241.39,3.956
242.61,3.915
243.83,3.871
245.04,3.809
246.26,3.727
247.48,3.634
248.70,3.539
249.91,3.415
251.13,3.299
252.35,3.186
253.57,3.053
254.78,2.923
256.00,2.813
257.22,2.741
258.43,2.704
259.65,2.676
260.87,2.666
262.09,2.669
263.30,2.683
264.52,2.721
265.74,2.769
266.96,2.820
268.17,2.885
269.39,2.940
270.61,3.001
271.83,3.053
273.04,3.104
274.26,3.148
275.48,3.200
276.70,3.244
277.91,3.279
279.13,3.323
280.35,3.357
281.57,3.391
282.78,3.426
284.00,3.456
285.22,3.487
286.43,3.515
287.65,3.542
288.87,3.569
290.09,3.590
291.30,3.621
292.52,3.648
293.74,3.662
294.96,3.676
296.17,3.686
297.39,3.693
298.61,3.696
299.83,3.696
301.04,3.696
302.26,3.693
303.48,3.682
304.70,3.679
305.91,3.665
307.13,3.648
308.35,3.628
309.57,3.600
310.78,3.569
312.00,3.535
313.22,3.484
314.43,3.426
315.65,3.364
316.87,3.306
318.09,3.244
319.30,3.190
320.52,3.124
321.74,3.053
322.96,2.974
324.17,2.861
325.39,2.710
326.61,2.577
327.83,2.409
329.04,2.276
330.26,2.139
331.48,1.985
332.70,1.858
333.91,1.711
335.13,1.588
336.35,1.458
337.57,1.328
##END=
