##TITLE=9-Benzylidenefluorene
##JCAMP-DX=4.24
##DATA TYPE=UV/VIS SPECTRUM
##ORIGIN=INSTITUTE OF ENERGY PROBLEMS OF CHEMICAL PHYSICS, RAS
##OWNER=INEP CP RAS, NIST OSRD
Collection (C) 2007 copyright by the U.S. Secretary of Commerce
on behalf of the United States of America. All rights reserved.
##CAS REGISTRY NO=1836-87-9
##MOLFORM=C20H14
##MP=76
##SOURCE REFERENCE=RAS UV No. 19831
##$NIST SQUIB=1967BERe7/3
##$NIST SOURCE=TYUGLMTE
##SPECTROMETER/DATA SYSTEM=Beckman DU
##XUNITS=Wavelength (nm)
##YUNITS=Logarithm epsilon
##XFACTOR=1.0
##YFACTOR=1.0
##FIRSTX=213.39
##LASTX=424.58
##FIRSTY=4.434
##MAXX=424.58
##MINX=213.39
##MAXY=4.531
##MINY=1.238
##NPOINTS=196
##$REF AUTHOR=Bergmann, E.D.
##$REF JOURNAL=UV atlas of organic compounds
##$REF VOLUME=3
##$REF PAGE=E7/3
##$REF DATE=1967
##XYPOINTS=(XY..XY)
213.39,4.434
214.28,4.437
215.18,4.437
216.09,4.439
216.90,4.445
217.82,4.449
218.64,4.458
219.47,4.467
220.42,4.473
221.26,4.482
222.11,4.492
223.08,4.499
223.72,4.514
224.59,4.522
225.58,4.524
226.47,4.531
227.47,4.531
228.48,4.527
229.50,4.522
230.42,4.514
231.46,4.507
232.39,4.497
233.33,4.486
234.04,4.473
234.75,4.460
235.23,4.443
236.07,4.432
236.80,4.419
237.53,4.407
238.26,4.394
239.00,4.381
239.74,4.368
240.62,4.355
241.62,4.345
242.77,4.340
243.92,4.334
245.09,4.334
246.13,4.340
247.05,4.353
247.98,4.364
249.18,4.370
250.40,4.375
251.63,4.372
252.87,4.366
254.12,4.370
255.10,4.383
255.95,4.396
256.94,4.407
258.24,4.411
259.54,4.409
260.71,4.402
261.60,4.390
262.49,4.377
263.39,4.362
263.98,4.349
264.75,4.330
265.20,4.312
265.81,4.295
266.59,4.265
267.22,4.236
267.73,4.209
268.30,4.173
268.81,4.135
269.53,4.083
269.85,4.060
270.32,4.010
270.80,3.974
271.27,3.935
271.75,3.905
272.23,3.880
272.72,3.865
273.20,3.863
273.68,3.869
274.17,3.873
274.66,3.884
275.15,3.890
275.64,3.895
276.14,3.899
276.63,3.903
277.13,3.907
277.69,3.910
278.52,3.914
279.42,3.918
280.25,3.921
281.23,3.924
282.06,3.926
282.93,3.929
283.78,3.932
284.64,3.935
285.52,3.938
286.44,3.940
287.29,3.943
288.09,3.946
289.10,3.948
290.00,3.950
290.91,3.954
291.84,3.959
292.74,3.963
293.69,3.968
294.59,3.972
295.62,3.978
296.97,3.986
297.47,3.989
298.43,3.996
299.40,4.002
300.38,4.009
301.36,4.012
302.34,4.012
303.05,4.008
303.63,4.002
304.33,3.993
305.23,3.989
306.35,3.989
307.71,3.992
308.58,3.998
309.43,4.004
310.47,4.012
311.44,4.018
312.54,4.023
313.60,4.027
314.69,4.032
315.72,4.037
316.85,4.042
317.94,4.045
319.04,4.047
320.15,4.051
321.26,4.053
322.27,4.056
323.29,4.059
324.45,4.061
325.79,4.064
326.94,4.064
328.10,4.064
329.27,4.064
330.45,4.064
331.60,4.060
332.78,4.058
334.03,4.053
335.24,4.047
336.46,4.042
337.69,4.034
338.93,4.023
340.18,4.011
341.44,4.000
342.70,3.983
343.98,3.968
345.26,3.950
346.56,3.931
347.86,3.910
349.18,3.888
350.50,3.867
351.84,3.852
352.99,3.832
355.17,3.801
357.28,3.760
358.67,3.728
360.06,3.693
361.47,3.655
362.89,3.614
364.32,3.573
365.76,3.533
367.22,3.486
368.68,3.438
370.16,3.387
371.65,3.333
373.15,3.265
374.66,3.201
376.19,3.141
377.72,3.079
379.27,3.016
380.84,2.954
382.41,2.899
384.00,2.851
385.61,2.792
387.22,2.736
388.85,2.667
390.49,2.603
392.15,2.532
393.82,2.457
395.51,2.378
397.21,2.305
398.92,2.224
400.65,2.136
402.40,2.076
404.16,2.005
405.93,1.935
407.72,1.866
409.53,1.800
411.35,1.733
413.19,1.663
415.05,1.586
416.92,1.502
418.81,1.429
420.72,1.356
422.64,1.290
424.58,1.238
##END=
