##TITLE=5-Nitroaminotetrazole
##JCAMP-DX=4.24
##DATA TYPE=UV/VIS SPECTRUM
##ORIGIN=INSTITUTE OF ENERGY PROBLEMS OF CHEMICAL PHYSICS, RAS
##OWNER=INEP CP RAS, NIST OSRD
Collection (C) 2007 copyright by the U.S. Secretary of Commerce
on behalf of the United States of America. All rights reserved.
##CAS REGISTRY NO=18588-16-4
##MOLFORM=CH2N6O2
##BP=expl. 140
##SOURCE REFERENCE=RAS UV No. 9290
##$NIST SQUIB=1951LIE/PAT2329
##$NIST SOURCE=TYUGLMTE
##SPECTROMETER/DATA SYSTEM=Beckman DU
##XUNITS=Wavelength (nm)
##YUNITS=Logarithm epsilon
##XFACTOR=1.0
##YFACTOR=1.0
##FIRSTX=215.27
##LASTX=322.37
##FIRSTY=3.787
##MAXX=322.37
##MINX=215.27
##MAXY=4.143
##MINY=3.079
##NPOINTS=124
##$REF AUTHOR=Lieber, E.; Patinkin, S.H.
##$REF JOURNAL=J. Am. Chem. Soc
##$REF VOLUME=73
##$REF PAGE=2329
##$REF DATE=1951
##XYPOINTS=(XY..XY)
215.27,3.787
215.43,3.781
215.65,3.772
216.10,3.761
216.92,3.746
217.74,3.728
218.57,3.714
219.39,3.693
220.22,3.677
221.04,3.659
221.86,3.645
222.69,3.631
223.51,3.615
224.33,3.601
225.24,3.581
225.98,3.566
226.81,3.552
227.63,3.535
228.47,3.523
230.10,3.502
230.93,3.490
231.75,3.483
232.57,3.476
233.40,3.466
235.04,3.461
235.87,3.463
236.69,3.471
237.52,3.476
238.34,3.486
239.24,3.496
239.99,3.507
240.81,3.520
241.63,3.538
242.46,3.554
243.28,3.570
244.23,3.593
244.93,3.615
245.75,3.638
246.58,3.658
247.40,3.683
248.23,3.708
249.05,3.730
249.87,3.763
250.70,3.787
251.52,3.813
252.34,3.838
253.17,3.864
253.99,3.878
254.82,3.899
255.64,3.919
256.46,3.939
257.29,3.955
258.11,3.981
258.94,3.992
259.76,4.008
260.58,4.021
261.41,4.036
262.23,4.051
263.05,4.066
263.88,4.077
264.70,4.086
265.53,4.098
266.35,4.108
268.00,4.124
268.82,4.127
269.65,4.132
270.47,4.135
272.12,4.142
272.94,4.142
273.76,4.143
275.41,4.142
276.24,4.142
277.88,4.134
278.71,4.129
279.53,4.124
280.35,4.118
281.18,4.113
282.00,4.102
282.83,4.095
283.65,4.087
284.47,4.075
285.30,4.066
286.12,4.058
286.95,4.045
287.77,4.033
288.59,4.022
289.42,4.008
290.24,3.997
291.89,3.969
292.71,3.956
293.54,3.942
294.36,3.924
295.18,3.911
296.01,3.893
296.83,3.876
297.66,3.861
298.48,3.840
299.30,3.821
300.13,3.800
300.95,3.779
301.77,3.759
302.60,3.736
303.42,3.708
304.25,3.684
305.89,3.631
306.72,3.606
307.54,3.580
308.37,3.548
309.19,3.520
310.01,3.493
310.84,3.466
311.66,3.440
312.48,3.407
313.31,3.380
314.13,3.352
315.78,3.300
316.60,3.265
317.43,3.237
318.25,3.210
319.07,3.187
319.90,3.162
320.72,3.131
321.55,3.109
322.37,3.079
##END=
