##TITLE=N,N'-(1,4-dihydro-1,4-dioxo-2,3-naphthalenediyl)bis-acetamide
##JCAMP-DX=4.24
##DATA TYPE=UV/VIS SPECTRUM
##ORIGIN=INSTITUTE OF ENERGY PROBLEMS OF CHEMICAL PHYSICS, RAS
##OWNER=INEP CP RAS, NIST OSRD
Collection (C) 2007 copyright by the U.S. Secretary of Commerce
on behalf of the United States of America. All rights reserved.
##CAS REGISTRY NO=18690-85-2
##MOLFORM=C14H12N2O4
##MP=239-243 dec.
##SOURCE REFERENCE=RAS UV No. 22252
##$NIST SQUIB=1978LOS/172
##$NIST SOURCE=TYUGLMTE
##SPECTROMETER/DATA SYSTEM=SF-16
##XUNITS=Wavelength (nm)
##YUNITS=Logarithm epsilon
##XFACTOR=1.0
##YFACTOR=1.0
##FIRSTX=215.546
##LASTX=474.383
##FIRSTY=4.218
##MAXX=474.383
##MINX=215.546
##MAXY=4.377
##MINY=2.218
##NPOINTS=523
##$REF AUTHOR=Loskutov, V.A.; et al.
##$REF JOURNAL=Zhur. Organ. Khim.
##$REF VOLUME=14
##$REF PAGE=172
##$REF DATE=1978
##XYPOINTS=(XY..XY)
215.546,4.218
215.628,4.218
216.128,4.216
216.628,4.213
217.128,4.211
217.628,4.208
218.128,4.205
218.628,4.202
219.128,4.198
219.628,4.195
220.128,4.192
220.628,4.188
221.128,4.185
221.628,4.181
222.128,4.178
222.628,4.175
223.128,4.172
223.628,4.169
224.128,4.166
224.628,4.163
225.128,4.160
225.628,4.158
226.128,4.156
226.628,4.154
227.128,4.152
227.628,4.151
228.128,4.150
228.628,4.149
229.128,4.148
229.628,4.148
230.128,4.148
230.628,4.148
231.128,4.148
231.628,4.149
232.128,4.151
232.628,4.152
233.128,4.154
233.628,4.156
234.128,4.159
234.628,4.162
235.128,4.165
235.628,4.169
236.128,4.173
236.628,4.177
237.128,4.182
237.628,4.187
238.128,4.192
238.628,4.198
239.128,4.203
239.628,4.210
240.128,4.216
240.628,4.223
241.128,4.230
241.497,4.234
241.997,4.243
242.497,4.251
242.997,4.260
243.497,4.268
243.997,4.276
244.497,4.283
244.997,4.291
245.497,4.298
245.997,4.305
246.497,4.311
246.997,4.318
247.497,4.324
247.997,4.330
248.497,4.336
248.997,4.341
249.497,4.347
249.997,4.351
250.497,4.356
250.997,4.360
251.497,4.364
251.997,4.367
252.497,4.370
252.997,4.372
253.497,4.374
253.997,4.376
254.497,4.377
254.997,4.377
255.497,4.377
255.997,4.376
256.497,4.375
256.997,4.373
257.497,4.370
257.997,4.367
258.497,4.364
258.997,4.360
259.497,4.355
259.997,4.350
260.497,4.345
260.997,4.340
261.497,4.334
261.997,4.327
262.497,4.321
262.997,4.314
263.497,4.307
263.997,4.300
264.497,4.293
264.997,4.286
265.497,4.280
265.997,4.273
266.497,4.266
266.997,4.260
267.497,4.253
267.997,4.247
268.497,4.241
268.997,4.236
269.497,4.231
269.997,4.226
270.497,4.221
270.997,4.217
271.497,4.213
271.997,4.209
272.497,4.206
272.997,4.202
273.497,4.200
273.997,4.197
274.497,4.194
274.997,4.192
275.497,4.189
275.997,4.187
276.497,4.185
276.997,4.182
277.497,4.180
277.997,4.177
278.497,4.174
278.997,4.171
279.497,4.168
279.997,4.165
280.497,4.162
280.997,4.158
281.497,4.155
281.997,4.151
282.049,4.151
282.549,4.146
283.049,4.142
283.549,4.138
284.049,4.134
284.549,4.130
285.049,4.126
285.549,4.122
286.049,4.118
286.549,4.113
287.049,4.108
287.549,4.102
288.049,4.096
288.549,4.090
289.049,4.083
289.549,4.075
290.049,4.067
290.549,4.058
291.049,4.049
291.549,4.039
292.049,4.028
292.549,4.017
293.049,4.006
293.549,3.994
294.049,3.981
294.549,3.969
295.049,3.955
295.549,3.942
296.049,3.928
296.549,3.914
297.049,3.900
297.549,3.885
298.049,3.871
298.549,3.856
299.049,3.842
299.549,3.827
300.049,3.813
300.549,3.798
301.049,3.784
301.549,3.770
302.049,3.756
302.549,3.742
303.049,3.729
303.549,3.716
304.049,3.703
304.549,3.691
305.049,3.679
305.066,3.676
305.566,3.666
306.066,3.656
306.566,3.646
307.066,3.636
307.566,3.625
308.066,3.615
308.566,3.605
309.066,3.595
309.566,3.586
310.066,3.576
310.566,3.567
311.066,3.559
311.566,3.551
312.066,3.543
312.566,3.536
313.066,3.530
313.566,3.524
314.066,3.518
314.566,3.513
315.066,3.509
315.566,3.505
316.066,3.501
316.566,3.498
317.066,3.495
317.566,3.493
318.066,3.492
318.566,3.490
319.066,3.489
319.566,3.489
320.066,3.489
320.566,3.489
321.066,3.489
321.566,3.489
322.066,3.490
322.566,3.491
323.066,3.492
323.566,3.493
324.066,3.494
324.566,3.495
325.007,3.497
325.507,3.497
326.007,3.497
326.507,3.498
327.007,3.498
327.507,3.499
328.007,3.500
328.507,3.500
329.007,3.501
329.507,3.501
330.007,3.502
330.507,3.502
331.007,3.502
331.507,3.503
332.007,3.503
332.507,3.503
333.007,3.502
333.507,3.502
334.007,3.502
334.507,3.501
335.007,3.500
335.507,3.499
336.007,3.498
336.507,3.496
337.007,3.494
337.507,3.492
338.007,3.490
338.507,3.488
339.007,3.485
339.507,3.482
340.007,3.479
340.507,3.476
341.007,3.472
341.507,3.468
342.007,3.464
342.507,3.459
343.007,3.455
343.507,3.450
344.007,3.445
344.507,3.440
345.007,3.434
345.507,3.428
346.007,3.422
346.507,3.416
347.007,3.410
347.507,3.404
348.007,3.397
348.507,3.390
349.007,3.383
349.507,3.376
350.007,3.369
350.507,3.362
351.007,3.355
351.507,3.348
352.007,3.341
352.507,3.333
353.007,3.326
353.507,3.319
354.007,3.312
354.380,3.306
354.880,3.299
355.380,3.293
355.880,3.287
356.380,3.281
356.880,3.276
357.380,3.270
357.880,3.265
358.380,3.260
358.880,3.255
359.380,3.250
359.880,3.246
360.380,3.241
360.880,3.237
361.380,3.234
361.880,3.230
362.380,3.227
362.880,3.224
363.380,3.221
363.880,3.219
364.380,3.217
364.880,3.215
365.380,3.213
365.880,3.212
366.380,3.211
366.880,3.210
367.380,3.209
367.880,3.208
368.380,3.208
368.880,3.208
369.380,3.208
369.880,3.208
370.380,3.209
370.880,3.209
371.380,3.210
371.880,3.210
372.380,3.211
372.880,3.212
373.380,3.213
373.880,3.215
374.380,3.216
374.880,3.217
375.380,3.218
375.880,3.220
376.380,3.221
376.880,3.222
377.380,3.224
377.880,3.225
378.380,3.226
378.880,3.228
379.380,3.229
379.880,3.230
380.380,3.232
380.383,3.232
380.883,3.233
381.383,3.235
381.883,3.236
382.383,3.237
382.883,3.238
383.383,3.240
383.883,3.241
384.383,3.242
384.883,3.243
385.383,3.244
385.883,3.245
386.383,3.246
386.883,3.247
387.383,3.248
387.883,3.249
388.383,3.250
388.883,3.251
389.383,3.252
389.883,3.252
390.383,3.253
390.883,3.253
391.383,3.254
391.883,3.254
392.383,3.255
392.883,3.255
393.383,3.255
393.883,3.255
394.383,3.255
394.883,3.256
395.383,3.255
395.883,3.255
396.383,3.255
396.883,3.255
397.383,3.255
397.883,3.254
398.383,3.254
398.883,3.253
399.383,3.253
399.883,3.252
400.383,3.251
400.883,3.250
401.383,3.249
401.883,3.248
402.383,3.247
402.883,3.246
403.383,3.245
403.883,3.244
404.383,3.242
404.883,3.241
405.383,3.239
405.883,3.238
406.383,3.236
406.883,3.234
407.383,3.233
407.883,3.231
408.383,3.229
408.883,3.227
409.383,3.225
409.883,3.223
410.383,3.221
410.883,3.218
411.383,3.216
411.883,3.214
412.383,3.211
412.883,3.209
413.383,3.206
413.883,3.203
414.383,3.201
414.883,3.198
415.383,3.195
415.883,3.192
416.383,3.189
416.883,3.186
417.383,3.183
417.883,3.180
418.383,3.177
418.883,3.174
419.383,3.170
419.883,3.167
420.383,3.164
420.883,3.160
421.383,3.157
421.883,3.153
422.383,3.149
422.883,3.146
423.383,3.142
423.883,3.138
424.383,3.134
424.883,3.130
425.383,3.126
425.883,3.122
426.383,3.118
426.883,3.113
427.383,3.109
427.883,3.105
428.383,3.100
428.883,3.096
429.383,3.091
429.883,3.086
430.383,3.081
430.883,3.077
431.383,3.072
431.883,3.067
432.383,3.062
432.883,3.057
433.383,3.051
433.883,3.046
434.383,3.041
434.883,3.035
435.383,3.030
435.883,3.024
436.383,3.018
436.883,3.012
437.383,3.006
437.883,3.000
438.383,2.994
438.883,2.988
439.383,2.982
439.883,2.975
440.383,2.969
440.883,2.962
441.383,2.955
441.883,2.948
442.383,2.941
442.883,2.934
443.383,2.927
443.883,2.920
444.383,2.912
444.883,2.905
445.383,2.897
445.883,2.889
446.383,2.881
446.883,2.873
447.383,2.865
447.883,2.857
448.383,2.849
448.883,2.840
449.383,2.831
449.883,2.822
450.383,2.813
450.883,2.804
451.383,2.795
451.883,2.786
452.383,2.776
452.883,2.766
453.383,2.756
453.883,2.746
454.383,2.736
454.883,2.726
455.383,2.716
455.883,2.705
456.383,2.694
456.883,2.683
457.383,2.672
457.883,2.661
458.383,2.650
458.883,2.638
459.383,2.627
459.883,2.615
460.383,2.603
460.883,2.591
461.383,2.579
461.883,2.566
462.383,2.554
462.883,2.541
463.383,2.528
463.883,2.515
464.383,2.502
464.883,2.489
465.383,2.476
465.883,2.462
466.383,2.449
466.883,2.435
467.383,2.421
467.883,2.407
468.383,2.393
468.883,2.379
469.383,2.365
469.883,2.350
470.383,2.336
470.883,2.321
471.383,2.307
471.883,2.292
472.383,2.277
472.883,2.263
473.383,2.248
473.883,2.233
474.383,2.218
##END=
