##TITLE=1,3,5-Cyclooctatriene
##JCAMP-DX=4.24
##DATA TYPE=UV/VIS SPECTRUM
##ORIGIN=INSTITUTE OF ENERGY PROBLEMS OF CHEMICAL PHYSICS, RAS
##OWNER=INEP CP RAS, NIST OSRD
Collection (C) 2007 copyright by the U.S. Secretary of Commerce
on behalf of the United States of America. All rights reserved.
##CAS REGISTRY NO=1871-52-9
##MOLFORM=C8H10
##MP=- 62
##BP=145.5
##SOURCE REFERENCE=RAS UV No. 9793
##$NIST SQUIB=1950COP/EST1123
##$NIST SOURCE=TYUGLMTE
##SPECTROMETER/DATA SYSTEM=Beckman DU
##XUNITS=Wavelength (nm)
##YUNITS=Logarithm epsilon
##XFACTOR=1.0
##YFACTOR=1.0
##FIRSTX=220.59
##LASTX=303.76
##FIRSTY=3.183
##MAXX=303.76
##MINX=220.59
##MAXY=3.535
##MINY=2.641
##NPOINTS=113
##$REF AUTHOR=Cope, A.C.; Ester, L.L.
##$REF JOURNAL=J. Am. Chem. Soc.
##$REF VOLUME=72
##$REF PAGE=1123
##$REF DATE=1950
##XYPOINTS=(XY..XY)
220.59,3.183
221.06,3.165
221.65,3.147
222.36,3.132
223.18,3.118
224.01,3.107
224.95,3.098
226.01,3.098
227.07,3.105
228.01,3.112
228.84,3.123
229.66,3.134
230.37,3.149
231.19,3.163
231.90,3.176
232.72,3.190
233.43,3.203
234.14,3.216
234.84,3.230
235.67,3.243
236.37,3.257
237.20,3.270
237.91,3.286
238.73,3.297
239.55,3.310
240.38,3.323
241.20,3.337
241.91,3.350
242.74,3.361
243.56,3.372
244.38,3.384
245.21,3.395
246.03,3.408
246.98,3.419
247.80,3.430
248.74,3.439
249.57,3.451
250.51,3.462
251.45,3.471
252.40,3.477
253.34,3.486
254.28,3.495
255.22,3.504
256.16,3.511
257.23,3.515
258.17,3.522
259.23,3.526
260.29,3.531
261.35,3.535
262.41,3.535
263.47,3.535
264.53,3.535
265.59,3.535
266.65,3.531
267.71,3.526
268.77,3.520
269.83,3.513
270.77,3.504
271.83,3.497
272.77,3.486
273.72,3.477
274.66,3.466
275.48,3.455
276.31,3.444
277.25,3.433
278.08,3.422
278.90,3.408
279.73,3.395
280.55,3.381
281.37,3.368
282.20,3.355
282.91,3.341
283.61,3.326
284.32,3.312
285.03,3.297
285.73,3.283
286.44,3.268
287.03,3.252
287.62,3.236
288.21,3.221
288.91,3.207
289.50,3.192
290.21,3.176
290.80,3.158
291.39,3.141
291.98,3.125
292.57,3.109
293.15,3.091
293.63,3.074
294.21,3.058
294.69,3.040
295.16,3.022
295.63,3.004
296.10,2.987
296.57,2.969
297.04,2.951
297.51,2.933
297.98,2.915
298.46,2.897
298.81,2.877
299.16,2.859
299.52,2.842
299.99,2.824
300.34,2.806
300.69,2.788
301.05,2.770
301.52,2.752
301.87,2.735
302.23,2.717
302.58,2.699
303.05,2.681
303.40,2.661
303.76,2.641
##END=
