##TITLE=1-methyl-1H-cyclopenta[gh]perimidine
##JCAMP-DX=4.24
##DATA TYPE=UV/VIS SPECTRUM
##ORIGIN=INSTITUTE OF ENERGY PROBLEMS OF CHEMICAL PHYSICS, RAS
##OWNER=INEP CP RAS, NIST OSRD
Collection (C) 2007 copyright by the U.S. Secretary of Commerce
on behalf of the United States of America. All rights reserved.
##CAS REGISTRY NO=18969-92-1
##MOLFORM=C14H10N2
##MP=179-180
##SOURCE REFERENCE=RAS UV No. 23074
##$NIST SQUIB=1976POZ/539
##$NIST SOURCE=TYUGLMTE
##SPECTROMETER/DATA SYSTEM=SF-4A
##XUNITS=Wavelength (nm)
##YUNITS=Logarithm epsilon
##XFACTOR=1.0
##YFACTOR=1.0
##FIRSTX=202.416
##LASTX=466.241
##FIRSTY=4.267
##MAXX=466.241
##MINX=202.416
##MAXY=4.267
##MINY=3.161
##NPOINTS=178
##$REF AUTHOR=Pozharskii, A.F.; et al.
##$REF JOURNAL=Khim. Geterosikl. Soedin.
##$REF PAGE=539
##$REF DATE=1976
##XYPOINTS=(XY..XY)
202.416,4.267
203.916,4.177
205.416,4.087
206.916,4.012
208.416,3.956
209.916,3.920
211.416,3.899
212.916,3.889
214.416,3.881
215.916,3.871
217.416,3.858
217.822,3.854
219.322,3.844
220.822,3.836
222.322,3.830
223.822,3.824
225.322,3.817
226.822,3.808
228.322,3.797
229.822,3.783
231.322,3.766
232.822,3.746
234.322,3.723
235.822,3.696
237.322,3.667
238.822,3.635
240.322,3.602
241.822,3.567
243.322,3.532
244.822,3.499
245.304,3.485
246.804,3.459
248.304,3.435
249.804,3.412
251.304,3.391
252.804,3.371
254.304,3.352
255.804,3.335
257.304,3.318
258.804,3.303
260.304,3.288
261.804,3.275
263.304,3.263
264.804,3.251
266.304,3.241
267.804,3.231
269.304,3.222
270.804,3.214
272.304,3.207
273.804,3.200
275.304,3.194
276.804,3.188
278.304,3.183
279.804,3.179
281.304,3.175
282.804,3.172
284.304,3.169
285.804,3.167
287.304,3.165
288.804,3.163
290.304,3.162
291.804,3.161
293.304,3.161
294.804,3.161
296.304,3.161
297.804,3.162
299.304,3.163
300.804,3.164
302.304,3.166
303.804,3.168
305.304,3.170
306.804,3.172
308.304,3.175
309.804,3.178
311.304,3.181
312.804,3.185
314.304,3.189
315.804,3.193
317.304,3.197
318.804,3.202
320.304,3.207
321.804,3.212
323.304,3.218
324.804,3.224
326.304,3.231
327.804,3.238
329.304,3.245
330.804,3.253
332.304,3.261
333.804,3.270
335.304,3.279
336.804,3.289
338.304,3.299
339.804,3.310
341.741,3.325
343.241,3.340
344.741,3.356
346.241,3.372
347.741,3.389
349.241,3.406
350.741,3.422
352.241,3.439
353.741,3.456
355.241,3.473
356.741,3.490
358.241,3.507
359.741,3.524
361.241,3.541
362.741,3.558
364.241,3.574
365.741,3.590
367.241,3.607
368.741,3.622
370.241,3.638
371.741,3.653
373.241,3.668
374.741,3.682
376.241,3.696
377.741,3.710
379.241,3.723
380.741,3.736
382.241,3.748
383.741,3.760
385.241,3.771
386.741,3.782
388.241,3.792
389.741,3.802
391.241,3.810
392.741,3.819
394.241,3.826
395.741,3.833
397.241,3.840
398.741,3.845
400.241,3.850
401.741,3.855
403.241,3.858
404.741,3.861
406.241,3.863
407.741,3.865
409.241,3.865
410.741,3.865
412.241,3.865
413.741,3.863
415.241,3.861
416.741,3.858
418.241,3.854
419.741,3.849
421.241,3.844
422.741,3.838
424.241,3.831
425.741,3.823
427.241,3.815
428.741,3.806
430.241,3.796
431.741,3.786
433.241,3.774
434.741,3.762
436.241,3.750
437.741,3.736
439.241,3.722
440.741,3.708
442.241,3.692
443.741,3.676
445.241,3.660
446.741,3.642
448.241,3.624
449.741,3.606
451.241,3.587
452.741,3.567
454.241,3.547
455.741,3.527
457.241,3.506
458.741,3.484
460.241,3.462
461.741,3.440
463.241,3.417
464.741,3.394
466.241,3.370
##END=
