##TITLE=Benzo[e]pyrene
##JCAMP-DX=4.24
##DATA TYPE=UV/VIS SPECTRUM
##ORIGIN=INSTITUTE OF ENERGY PROBLEMS OF CHEMICAL PHYSICS, RAS
##OWNER=INEP CP RAS, NIST OSRD
Collection (C) 2007 copyright by the U.S. Secretary of Commerce
on behalf of the United States of America. All rights reserved.
##CAS REGISTRY NO=192-97-2
##MOLFORM=C20H12
##MP=178
##SOURCE REFERENCE=RAS UV No. 19826
##$NIST SQUIB=1967PERe6/21
##$NIST SOURCE=TYUGLMTE
##SPECTROMETER/DATA SYSTEM=Ziess PMQ II
##XUNITS=Wavelength (nm)
##YUNITS=Logarithm epsilon
##XFACTOR=1.0
##YFACTOR=1.0
##FIRSTX=182.61
##LASTX=381.08
##FIRSTY=4.439
##MAXX=381.08
##MINX=182.61
##MAXY=4.846
##MINY=1.379
##NPOINTS=503
##$REF AUTHOR=Perkampus, H.-H.
##$REF JOURNAL=UV atlas of organic compounds
##$REF VOLUME=3
##$REF PAGE=E6/21
##$REF DATE=1967
##XYPOINTS=(XY..XY)
182.61,4.439
183.19,4.429
183.77,4.418
184.43,4.411
185.02,4.405
185.69,4.401
186.36,4.401
186.97,4.407
187.57,4.414
188.11,4.424
188.72,4.435
189.26,4.446
189.81,4.458
190.28,4.471
190.67,4.486
191.06,4.503
191.54,4.518
191.94,4.535
192.34,4.550
192.74,4.567
193.22,4.582
193.71,4.597
194.11,4.612
194.60,4.627
195.10,4.640
195.59,4.655
196.09,4.667
196.59,4.682
197.09,4.695
197.52,4.712
197.94,4.727
198.45,4.742
198.88,4.757
199.39,4.770
199.99,4.782
200.60,4.795
201.13,4.808
201.83,4.819
202.54,4.829
203.25,4.840
203.97,4.846
204.78,4.846
205.51,4.838
205.97,4.821
206.43,4.804
206.70,4.787
207.07,4.770
207.45,4.753
207.73,4.733
208.19,4.716
208.57,4.699
209.04,4.682
209.52,4.665
210.09,4.652
210.76,4.640
211.34,4.627
212.11,4.618
212.89,4.610
213.78,4.614
214.57,4.623
215.37,4.629
216.28,4.633
217.09,4.625
217.91,4.616
218.53,4.603
219.05,4.586
219.57,4.571
220.41,4.563
221.15,4.574
221.68,4.591
222.21,4.606
222.96,4.616
223.93,4.616
224.69,4.603
225.02,4.586
225.46,4.569
225.79,4.552
226.01,4.533
226.35,4.516
226.68,4.499
226.90,4.480
227.24,4.461
227.57,4.441
227.91,4.422
228.25,4.405
228.81,4.390
229.83,4.386
230.87,4.390
231.91,4.394
232.96,4.390
234.02,4.388
234.74,4.401
235.46,4.414
236.06,4.429
236.66,4.443
237.15,4.461
237.76,4.475
238.22,4.475
238.74,4.467
239.23,4.450
239.73,4.433
240.10,4.414
240.48,4.394
240.98,4.377
241.36,4.360
241.86,4.343
242.50,4.326
243.26,4.311
244.29,4.301
245.46,4.294
246.64,4.288
247.83,4.286
249.03,4.286
250.25,4.286
251.47,4.292
252.43,4.303
253.26,4.318
254.10,4.330
254.94,4.343
255.65,4.360
256.50,4.375
257.50,4.386
258.79,4.384
259.67,4.371
260.55,4.358
261.73,4.350
262.92,4.356
263.82,4.369
264.42,4.386
264.66,4.392
264.95,4.400
265.37,4.411
265.82,4.421
266.32,4.432
266.82,4.443
267.21,4.452
267.48,4.458
267.79,4.463
268.10,4.465
268.42,4.467
268.74,4.466
269.03,4.463
269.31,4.460
269.67,4.454
269.98,4.446
270.30,4.435
270.62,4.422
270.93,4.394
271.25,4.356
271.57,4.341
271.89,4.326
272.21,4.318
272.53,4.307
272.85,4.298
273.18,4.298
273.50,4.298
273.82,4.298
274.15,4.307
274.47,4.322
274.80,4.335
275.13,4.354
275.45,4.377
275.78,4.414
276.11,4.433
276.44,4.447
276.67,4.463
277.11,4.488
277.36,4.508
277.77,4.537
278.11,4.559
278.44,4.582
278.78,4.595
279.11,4.608
279.45,4.616
279.57,4.618
279.79,4.616
280.13,4.608
280.47,4.593
280.90,4.560
281.19,4.536
281.50,4.512
281.84,4.480
282.18,4.452
282.47,4.435
282.91,4.413
283.22,4.399
283.52,4.386
283.91,4.372
284.36,4.360
284.49,4.359
284.62,4.360
284.97,4.367
285.32,4.377
285.67,4.388
286.04,4.400
286.33,4.410
286.67,4.420
287.09,4.434
287.45,4.446
287.81,4.461
288.10,4.474
288.44,4.495
288.52,4.507
288.65,4.523
288.78,4.543
288.89,4.561
289.07,4.582
289.25,4.606
289.50,4.630
289.71,4.655
289.89,4.674
290.07,4.690
290.34,4.710
290.52,4.723
290.70,4.738
290.89,4.743
291.07,4.748
291.25,4.751
291.44,4.748
291.65,4.743
291.80,4.736
291.96,4.723
292.12,4.709
292.35,4.684
292.48,4.663
292.61,4.644
292.75,4.626
292.91,4.599
293.00,4.582
293.11,4.559
293.29,4.534
293.41,4.516
293.59,4.492
293.97,4.458
294.20,4.431
294.41,4.401
294.78,4.350
295.16,4.288
295.54,4.249
295.92,4.190
296.15,4.171
296.68,4.132
297.06,4.100
297.30,4.087
297.60,4.074
297.95,4.066
298.29,4.059
298.63,4.054
299.02,4.048
299.52,4.044
300.07,4.043
300.49,4.043
300.93,4.045
301.34,4.048
301.71,4.053
302.11,4.068
302.50,4.077
302.90,4.083
303.30,4.089
303.70,4.098
304.09,4.107
304.49,4.115
304.90,4.119
305.18,4.122
305.62,4.124
306.09,4.127
306.58,4.129
306.90,4.129
307.33,4.128
307.69,4.125
308.15,4.121
308.56,4.115
308.97,4.107
309.39,4.100
309.80,4.096
310.22,4.096
310.63,4.096
311.05,4.098
311.50,4.101
311.89,4.104
312.31,4.109
312.74,4.113
313.16,4.119
313.59,4.132
314.01,4.143
314.44,4.151
314.87,4.164
315.27,4.179
315.54,4.197
315.73,4.215
316.16,4.254
316.59,4.301
316.77,4.312
317.19,4.325
317.90,4.345
318.34,4.356
318.78,4.367
319.22,4.375
319.66,4.375
320.10,4.360
320.55,4.330
320.99,4.298
321.33,4.275
321.74,4.251
322.34,4.220
322.61,4.201
323.04,4.175
323.69,4.139
324.14,4.126
324.60,4.111
325.06,4.104
325.51,4.098
325.97,4.098
326.43,4.100
326.90,4.104
327.36,4.117
328.05,4.147
328.64,4.175
329.11,4.204
329.58,4.230
330.01,4.246
330.40,4.249
330.64,4.252
330.87,4.254
331.11,4.254
331.38,4.258
331.63,4.263
331.82,4.284
332.10,4.344
332.30,4.394
332.56,4.441
332.78,4.475
333.03,4.507
333.25,4.535
333.40,4.550
333.65,4.561
333.87,4.578
334.21,4.585
334.46,4.590
334.77,4.592
335.08,4.592
335.43,4.588
335.68,4.567
335.93,4.520
336.15,4.469
336.40,4.416
336.64,4.360
336.88,4.297
337.12,4.252
337.41,4.186
337.72,4.103
338.03,4.029
338.52,3.947
338.85,3.871
339.19,3.798
339.72,3.689
340.16,3.580
340.59,3.482
340.98,3.401
341.45,3.273
341.84,3.178
342.29,3.062
342.59,3.004
342.94,2.936
343.22,2.879
343.54,2.820
343.85,2.752
344.21,2.689
344.44,2.651
344.69,2.614
344.98,2.581
345.47,2.563
345.73,2.563
345.99,2.563
346.24,2.563
346.47,2.564
346.76,2.568
347.05,2.573
347.29,2.580
347.59,2.599
347.87,2.616
348.07,2.633
348.31,2.652
348.60,2.663
348.86,2.680
349.12,2.689
349.39,2.695
349.65,2.701
349.92,2.706
350.18,2.708
350.45,2.710
350.71,2.708
350.98,2.703
351.24,2.701
351.51,2.682
351.78,2.652
352.05,2.610
352.17,2.586
352.32,2.558
352.45,2.546
352.64,2.525
352.93,2.500
353.22,2.478
353.66,2.452
353.94,2.437
354.21,2.411
354.48,2.399
354.75,2.392
355.02,2.392
355.30,2.392
355.57,2.392
355.84,2.407
356.12,2.418
356.39,2.445
356.67,2.456
356.94,2.465
357.22,2.467
357.49,2.469
357.77,2.469
358.05,2.469
358.33,2.465
358.60,2.460
358.88,2.456
359.16,2.452
359.44,2.458
359.72,2.467
360.00,2.473
360.28,2.480
360.56,2.482
360.84,2.482
361.13,2.480
361.41,2.480
361.69,2.477
361.90,2.465
362.14,2.439
362.29,2.402
362.43,2.374
362.67,2.328
362.82,2.288
363.01,2.255
363.16,2.210
363.31,2.175
363.47,2.141
363.68,2.100
363.88,2.085
364.17,2.077
364.51,2.081
364.85,2.093
365.12,2.115
365.52,2.156
365.91,2.219
366.39,2.306
366.83,2.404
367.21,2.490
367.45,2.544
367.74,2.597
368.03,2.648
368.32,2.695
368.61,2.711
368.95,2.711
369.20,2.695
369.34,2.662
369.45,2.612
369.64,2.551
369.83,2.475
370.07,2.402
370.22,2.349
370.51,2.283
370.75,2.227
370.99,2.171
371.23,2.111
371.47,2.073
371.71,2.025
371.86,1.989
372.20,1.936
372.49,1.885
372.68,1.863
373.26,1.847
373.68,1.840
373.99,1.838
374.29,1.836
374.59,1.827
374.90,1.816
375.20,1.795
375.50,1.774
375.81,1.744
376.11,1.729
376.42,1.712
376.73,1.691
377.04,1.669
377.32,1.638
377.64,1.615
377.96,1.595
378.30,1.572
378.58,1.556
378.89,1.535
379.17,1.514
379.46,1.490
379.83,1.471
380.14,1.452
380.45,1.430
380.76,1.401
381.08,1.379
##END=
