##TITLE=Cyclohexanol, 1-ethyl-
##JCAMP-DX=4.24
##DATA TYPE=UV/VIS SPECTRUM
##ORIGIN=INSTITUTE OF ENERGY PROBLEMS OF CHEMICAL PHYSICS, RAS
##OWNER=INEP CP RAS, NIST OSRD
Collection (C) 2007 copyright by the U.S. Secretary of Commerce
on behalf of the United States of America. All rights reserved.
##CAS REGISTRY NO=1940-18-7
##MOLFORM=C8H16O
##MP=34.5
##BP=166
##SOURCE REFERENCE=RAS UV No. 3666
##$NIST SQUIB=1955LAV/VER723-726
##$NIST SOURCE=TSGMTE
##SPECTROMETER/DATA SYSTEM=n.i.g.
##XUNITS=Wavelength (nm)
##YUNITS=Logarithm epsilon
##XFACTOR=1.000000
##YFACTOR=1.000000
##FIRSTX=228.2695
##LASTX=468.7639
##FIRSTY=3.64121
##MAXX=468.764
##MINX=228.269
##MAXY=3.64121
##MINY=1.80118
##NPOINTS=92
##$REF AUTHOR=Lavruchin, V.F.; Verkhovod, N.N.; Movchan, P.K.
##$REF TITLE=Halochromism of tertiary alicyclic and aliphatic carbinols
##$REF JOURNAL=Dokl. Akad. Nauk SSSR
##$REF VOLUME=105
##$REF NUMBER=4
##$REF PAGE=723-726
##$REF DATE=1955
##XYPOINTS=(XY..XY)
228.2695,3.641214
229.6584,3.608002
230.3584,3.570202
230.8344,3.529695
235.9497,3.385418
237.2060,3.325587
238.0743,3.295496
238.2057,3.283395
239.8654,3.241014
239.9523,3.231307
240.0662,3.221321
240.1935,3.211196
240.1935,3.211196
240.7974,3.209330
241.4147,3.207326
241.8305,3.129432
242.0590,3.205041
242.2365,3.106444
243.5620,3.069862
246.9428,2.988330
250.6960,2.952523
251.8888,2.898322
254.2497,2.857941
257.7510,2.824826
262.3651,2.792425
269.5786,2.776675
269.8793,2.775883
270.1803,2.774809
270.4814,2.773594
271.7410,2.773728
272.4597,2.775051
273.1784,2.776233
273.8974,2.777132
277.9421,2.813765
283.1089,2.833744
286.0811,2.848549
289.4060,2.870874
293.0938,2.904293
294.3451,2.913294
295.5965,2.922155
296.8481,2.930733
299.8761,2.964082
302.6204,2.996578
304.3863,3.020643
306.6872,3.056903
316.7979,3.212955
318.5568,3.232620
321.3280,3.267213
325.1056,3.309110
328.8407,3.355873
330.1932,3.356487
330.9832,3.359864
331.8878,3.368899
336.9384,3.356731
339.4855,3.348767
341.5945,3.338780
345.0733,3.318211
355.7551,3.187227
357.8503,3.147245
359.9724,3.106983
362.1079,3.066582
369.0924,2.912340
370.2401,2.885102
371.7638,2.855081
373.5677,2.810552
379.3297,2.616800
380.2814,2.580696
381.2598,2.544594
382.2515,2.508495
393.3453,2.322294
395.8255,2.302843
398.3191,2.283252
400.8396,2.263382
414.0089,2.166325
414.4338,2.161100
414.7125,2.120032
414.8589,2.155593
414.8893,2.125743
415.0795,2.131315
415.2842,2.149945
415.2968,2.136608
415.2968,2.136608
416.9594,2.133467
418.5069,2.125233
421.2657,2.104846
437.2644,1.997291
442.4231,1.964667
445.0224,1.946170
447.2899,1.925943
461.0345,1.854989
464.8992,1.828086
468.7639,1.801183
##END=
