##TITLE=9-Bromofluorene
##JCAMP-DX=4.24
##DATA TYPE=UV/VIS SPECTRUM
##ORIGIN=INSTITUTE OF ENERGY PROBLEMS OF CHEMICAL PHYSICS, RAS
##OWNER=INEP CP RAS, NIST OSRD
Collection (C) 2007 copyright by the U.S. Secretary of Commerce
on behalf of the United States of America. All rights reserved.
##CAS REGISTRY NO=1940-57-4
##MOLFORM=C13H9Br
##SOURCE REFERENCE=RAS UV No. 1061
##$NIST SQUIB=1954EAB/SHA2027-2030
##$NIST SOURCE=TSGMTE
##SPECTROMETER/DATA SYSTEM=n.i.g.
##XUNITS=Wavelength (nm)
##YUNITS=Logarithm epsilon
##XFACTOR=1.000000
##YFACTOR=1.000000
##FIRSTX=215.9446
##LASTX=295.2205
##FIRSTY=4.51808
##MAXX=295.221
##MINX=215.945
##MAXY=4.69765
##MINY=4.08165
##NPOINTS=122
##$REF AUTHOR=Eaborn, C.; Shaw, R.A.
##$REF TITLE=Ultra-violet absorption spectra of 9-substituted fluorenes
##$REF JOURNAL=J. Chem. Soc.
##$REF PAGE=2027-2030
##$REF DATE=1954
##XYPOINTS=(XY..XY)
215.9446,4.518076
215.9446,4.518076
215.9686,4.519052
215.9686,4.519052
215.9928,4.519953
215.9928,4.519953
216.0170,4.520816
218.4468,4.491359
218.5118,4.490526
218.5768,4.489693
218.6419,4.488860
219.3728,4.486333
219.3744,4.485263
219.3761,4.484117
219.3779,4.482933
220.4975,4.484932
220.5608,4.485579
220.6271,4.486151
220.6990,4.486687
222.3940,4.504828
222.3940,4.504828
222.3958,4.503638
222.3976,4.502448
222.3993,4.501258
222.6103,4.505516
222.8295,4.506129
223.0545,4.506705
224.8028,4.531834
224.9086,4.531862
225.0201,4.531892
225.1344,4.531922
231.6906,4.617523
231.7535,4.618390
231.8193,4.619258
231.8908,4.620128
233.0696,4.633709
233.1068,4.634689
233.1471,4.635594
233.1930,4.636463
239.2065,4.692665
240.0153,4.695236
240.3896,4.694851
240.5902,4.696914
240.6949,4.695783
241.0030,4.696716
241.3167,4.697650
241.3167,4.697650
254.3201,4.456874
254.4691,4.459925
254.5241,4.456928
254.6116,4.458142
254.6210,4.462901
254.6991,4.459356
254.7786,4.465841
254.7865,4.460570
264.7705,4.336178
264.9080,4.338086
264.9503,4.335376
265.0784,4.337571
265.1301,4.334573
265.2545,4.336981
265.3099,4.333771
265.4336,4.336355
265.4336,4.336355
265.4352,4.335285
265.4369,4.334139
265.4387,4.332955
274.4164,4.368188
274.4373,4.367488
274.4550,4.368866
274.4818,4.368017
274.5087,4.367129
274.5356,4.366166
274.5356,4.366166
275.3902,4.368448
275.4497,4.369132
275.5632,4.367789
276.1128,4.369308
276.1169,4.366588
276.1561,4.368463
276.2051,4.367582
276.2571,4.366626
276.3847,4.366660
276.5134,4.365844
276.5537,4.367039
276.6027,4.365867
276.6920,4.365891
276.7285,4.367381
276.7812,4.365915
276.9062,4.367649
277.8277,4.374188
277.8684,4.375049
277.9148,4.375912
277.9641,4.376776
279.2656,4.385117
279.3063,4.385978
279.3527,4.386841
279.4020,4.387705
284.0891,4.350175
284.1324,4.349336
284.1814,4.348499
284.2332,4.347662
285.8514,4.323431
285.8921,4.324292
285.9386,4.325155
285.9878,4.326019
287.6127,4.297367
287.6533,4.298348
287.6996,4.299255
287.7489,4.300125
293.6808,4.138594
293.7183,4.139455
293.7586,4.140316
293.8045,4.141179
294.8119,4.090422
294.9517,4.088884
295.0246,4.086610
295.0797,4.090493
295.0930,4.081652
295.1228,4.087607
295.1687,4.084683
295.2205,4.081686
##END=
