##TITLE=3-methyl-1-oxidophthalazinium, inner salt
##JCAMP-DX=4.24
##DATA TYPE=UV/VIS SPECTRUM
##ORIGIN=INSTITUTE OF ENERGY PROBLEMS OF CHEMICAL PHYSICS, RAS
##OWNER=INEP CP RAS, NIST OSRD
Collection (C) 2007 copyright by the U.S. Secretary of Commerce
on behalf of the United States of America. All rights reserved.
##CAS REGISTRY NO=19807-80-8
##MOLFORM=C9H8N2O
##MP=235 (dec.)
##SOURCE REFERENCE=RAS UV No. 22432
##$NIST SQUIB=1977COO/1184
##$NIST SOURCE=TYUGLMTE
##SPECTROMETER/DATA SYSTEM=unknown
##XUNITS=Wavelength (nm)
##YUNITS=Logarithm epsilon
##XFACTOR=1.0
##YFACTOR=1.0
##FIRSTX=220.473
##LASTX=341.116
##FIRSTY=4.202
##MAXX=341.116
##MINX=220.473
##MAXY=4.202
##MINY=3.02
##NPOINTS=122
##$REF AUTHOR=Cook, M.J.; et al.
##$REF JOURNAL=J.Chem. Soc., Perkin Trans. II
##$REF PAGE=1184
##$REF DATE=1977
##XYPOINTS=(XY..XY)
220.473,4.202
221.041,4.181
221.663,4.163
222.663,4.143
223.663,4.131
224.663,4.124
225.663,4.120
226.663,4.119
227.663,4.118
228.663,4.118
229.663,4.116
230.663,4.114
231.663,4.109
232.663,4.104
233.663,4.096
234.663,4.088
235.663,4.078
236.663,4.066
237.663,4.054
238.663,4.040
239.663,4.026
240.663,4.011
241.663,3.994
242.861,3.978
243.861,3.951
244.861,3.917
245.861,3.877
246.861,3.837
247.861,3.797
248.861,3.761
249.861,3.730
250.861,3.704
251.861,3.684
252.861,3.669
253.868,3.657
254.868,3.650
255.868,3.641
256.868,3.630
257.868,3.619
258.868,3.607
259.868,3.593
260.868,3.579
261.756,3.573
262.774,3.576
263.951,3.579
264.920,3.577
266.116,3.565
266.874,3.545
267.460,3.521
267.821,3.498
268.200,3.471
268.579,3.444
268.768,3.426
268.882,3.403
269.445,3.360
269.768,3.321
270.383,3.280
270.768,3.243
271.768,3.187
272.768,3.153
273.768,3.135
274.768,3.132
275.768,3.141
276.768,3.157
277.768,3.180
278.768,3.205
279.753,3.234
280.753,3.264
281.753,3.294
282.753,3.324
283.753,3.352
284.753,3.380
285.753,3.406
286.753,3.433
287.753,3.458
288.753,3.482
289.753,3.506
290.753,3.529
291.753,3.552
292.753,3.574
293.753,3.595
294.753,3.615
295.753,3.635
296.753,3.654
297.753,3.672
298.753,3.690
299.753,3.708
300.753,3.724
301.753,3.740
302.753,3.756
303.753,3.771
304.753,3.786
305.753,3.800
306.753,3.813
307.753,3.826
308.753,3.839
309.753,3.851
310.637,3.863
311.907,3.876
313.177,3.889
314.411,3.897
315.737,3.904
316.873,3.907
318.199,3.907
319.335,3.907
320.661,3.904
321.987,3.901
323.337,3.895
324.607,3.889
325.964,3.880
327.146,3.863
328.416,3.835
329.686,3.805
330.956,3.773
332.226,3.720
333.496,3.649
334.766,3.577
336.036,3.490
337.306,3.402
338.576,3.291
339.846,3.143
341.116,3.020
##END=
