##TITLE=2,6-Pyridinedicarboxylic acid, 4-methoxy-, dimethyl ester
##JCAMP-DX=4.24
##DATA TYPE=UV/VIS SPECTRUM
##ORIGIN=INSTITUTE OF ENERGY PROBLEMS OF CHEMICAL PHYSICS, RAS
##OWNER=INEP CP RAS, NIST OSRD
Collection (C) 2007 copyright by the U.S. Secretary of Commerce
on behalf of the United States of America. All rights reserved.
##CAS REGISTRY NO=19872-93-6
##MOLFORM=C10H11NO5
##MP=127-128
##SOURCE REFERENCE=RAS UV No. 8043
##$NIST SQUIB=1968GOR/KAT556-561
##$NIST SOURCE=TSGMTE
##SPECTROMETER/DATA SYSTEM=n.i.g.
##XUNITS=Wavelength (nm)
##YUNITS=Logarithm epsilon
##XFACTOR=1.000000
##YFACTOR=1.000000
##FIRSTX=222.5519
##LASTX=249.9051
##FIRSTY=3.83906
##MAXX=249.905
##MINX=222.552
##MAXY=3.83906
##MINY=3.02626
##NPOINTS=65
##$REF AUTHOR=Gordon, A.; Katritzky, A.R.
##$REF TITLE=Tautomeric pyridines. Part X. Effects of substituents on pyridone-hydroxypyridine equilibria and pyridone basicity
##$REF JOURNAL=J. Chem. Soc. B:
##$REF PAGE=556-561
##$REF DATE=1968
##XYPOINTS=(XY..XY)
222.5519,3.839061
222.9677,3.823214
223.3482,3.807410
223.6976,3.791596
224.0200,3.775719
224.3194,3.759726
224.5999,3.743565
224.8656,3.727183
225.1206,3.710526
225.3690,3.693543
225.6149,3.676180
225.8624,3.658385
225.8624,3.658385
226.1735,3.622513
226.4260,3.593545
226.6299,3.570450
226.7953,3.552199
226.9323,3.537760
227.0511,3.526106
227.1617,3.516204
227.2742,3.507026
227.3987,3.497541
227.5453,3.486720
227.5453,3.486720
227.6566,3.486678
227.7680,3.486635
227.8794,3.486592
227.8794,3.486592
228.3267,3.468901
228.8020,3.451544
229.3055,3.434370
229.8371,3.417229
230.3969,3.399967
230.9851,3.382435
231.6017,3.364480
231.6017,3.364480
232.4761,3.346766
232.9530,3.336060
233.4412,3.323185
233.4412,3.323185
234.4019,3.311795
235.7174,3.294612
236.9100,3.276917
237.5015,3.263994
237.5015,3.263994
238.4434,3.253841
239.3299,3.243864
240.1660,3.233986
240.9566,3.224132
241.7069,3.214225
242.4219,3.204189
243.1066,3.193948
243.7660,3.183427
244.4051,3.172548
245.0290,3.161236
245.6428,3.149416
246.2514,3.137010
246.8598,3.123944
247.4732,3.110139
248.0965,3.095522
248.7347,3.080016
248.7347,3.080016
249.1250,3.062197
249.5151,3.044258
249.9051,3.026259
##END=
