##TITLE=6-phenyl-2,4(1H,3H)-pteridinedione-8-oxide
##JCAMP-DX=4.24
##DATA TYPE=UV/VIS SPECTRUM
##ORIGIN=INSTITUTE OF ENERGY PROBLEMS OF CHEMICAL PHYSICS, RAS
##OWNER=INEP CP RAS, NIST OSRD
Collection (C) 2007 copyright by the U.S. Secretary of Commerce
on behalf of the United States of America. All rights reserved.
##CAS REGISTRY NO=19994-64-0
##MOLFORM=C12H8N4O3
##MP=338(dec.)
##SOURCE REFERENCE=RAS UV No. 23690
##$NIST SQUIB=1974PFL1299
##$NIST SOURCE=TYUGLMTE
##SPECTROMETER/DATA SYSTEM=unknown
##XUNITS=Wavelength (nm)
##YUNITS=Logarithm epsilon
##XFACTOR=1.0
##YFACTOR=1.0
##FIRSTX=212.857
##LASTX=399.061
##FIRSTY=4.185
##MAXX=399.061
##MINX=212.857
##MAXY=4.466
##MINY=3.258
##NPOINTS=188
##$REF AUTHOR=Pfleiderer, W.
##$REF JOURNAL=Khim. Geterosikl. Soedin.
##$REF PAGE=1299
##$REF DATE=1974
##XYPOINTS=(XY..XY)
212.857,4.185
213.857,4.163
214.857,4.144
215.857,4.129
216.857,4.116
217.857,4.106
218.857,4.098
219.857,4.093
220.857,4.089
221.857,4.088
222.857,4.089
223.857,4.091
224.857,4.095
225.857,4.100
226.857,4.106
227.857,4.113
228.857,4.121
229.857,4.129
230.857,4.138
231.857,4.148
232.857,4.157
233.857,4.167
234.857,4.177
235.857,4.186
236.857,4.195
237.857,4.204
238.857,4.213
239.857,4.221
240.857,4.229
241.857,4.236
242.857,4.243
243.857,4.249
244.857,4.254
245.857,4.259
246.857,4.264
247.857,4.268
248.857,4.272
249.857,4.275
250.857,4.279
251.857,4.282
252.857,4.285
253.857,4.287
254.857,4.290
255.857,4.294
256.857,4.297
257.857,4.301
258.857,4.305
259.857,4.309
260.857,4.314
261.857,4.320
262.857,4.326
263.857,4.333
264.857,4.340
265.857,4.349
266.857,4.357
267.857,4.366
268.857,4.376
269.857,4.385
270.857,4.395
271.857,4.404
272.429,4.411
273.714,4.424
274.752,4.438
275.752,4.443
276.752,4.449
277.752,4.454
278.752,4.459
279.752,4.462
280.752,4.465
281.752,4.466
282.752,4.466
283.752,4.464
284.752,4.460
285.752,4.454
286.752,4.446
287.752,4.436
288.752,4.424
289.752,4.410
290.752,4.394
291.752,4.375
292.752,4.355
293.752,4.333
294.752,4.309
295.752,4.283
296.752,4.256
297.752,4.227
298.752,4.196
299.752,4.165
300.752,4.131
301.752,4.097
302.752,4.062
303.752,4.025
304.752,3.988
305.752,3.949
306.752,3.910
307.752,3.870
308.752,3.828
309.366,3.811
310.366,3.756
311.366,3.707
312.366,3.664
313.366,3.624
314.366,3.586
315.366,3.549
316.366,3.514
317.366,3.481
318.366,3.450
319.366,3.422
320.366,3.396
321.366,3.374
322.366,3.356
323.366,3.342
324.366,3.333
325.366,3.328
326.366,3.327
327.366,3.331
328.366,3.339
329.366,3.349
330.366,3.362
331.366,3.377
332.366,3.392
333.366,3.408
334.366,3.423
335.366,3.437
336.366,3.450
337.366,3.462
338.366,3.474
339.286,3.488
340.286,3.502
341.286,3.517
342.286,3.533
343.286,3.551
344.286,3.568
345.286,3.586
346.286,3.605
347.286,3.623
348.286,3.640
349.286,3.657
350.286,3.674
351.286,3.689
352.286,3.704
353.286,3.718
354.286,3.731
355.286,3.744
356.286,3.755
357.286,3.765
358.286,3.774
359.286,3.783
360.286,3.790
361.286,3.796
362.286,3.802
363.286,3.807
364.286,3.811
365.286,3.815
366.286,3.817
367.286,3.819
368.286,3.821
369.286,3.822
370.286,3.822
371.286,3.822
372.286,3.821
373.286,3.820
374.286,3.818
375.286,3.815
376.286,3.811
377.286,3.807
378.286,3.801
379.286,3.794
380.061,3.790
381.061,3.779
382.061,3.768
383.061,3.757
384.061,3.745
385.061,3.731
386.061,3.714
387.061,3.694
388.061,3.670
389.061,3.643
390.061,3.613
391.061,3.579
392.061,3.543
393.061,3.505
394.061,3.465
395.061,3.424
396.061,3.382
397.061,3.340
398.061,3.298
399.061,3.258
##END=
