##TITLE=3-Acetylphenanthrene
##JCAMP-DX=4.24
##DATA TYPE=UV/VIS SPECTRUM
##ORIGIN=INSTITUTE OF ENERGY PROBLEMS OF CHEMICAL PHYSICS, RAS
##OWNER=INEP CP RAS, NIST OSRD
Collection (C) 2007 copyright by the U.S. Secretary of Commerce
on behalf of the United States of America. All rights reserved.
##CAS REGISTRY NO=2039-76-1
##MOLFORM=C16H12O
##MP=72
##SOURCE REFERENCE=RAS UV No. 8700
##$NIST SQUIB=1966LAN220
##$NIST SOURCE=TSGMTE
##SPECTROMETER/DATA SYSTEM=Beckman DU
##XUNITS=Wavelength (nm)
##YUNITS=Logarithm epsilon
##XFACTOR=1.000000
##YFACTOR=1.000000
##FIRSTX=206.0629
##LASTX=374.3085
##FIRSTY=4.118
##MAXX=374.308
##MINX=206.063
##MAXY=4.61353
##MINY=1.80522
##NPOINTS=1000
##$REF AUTHOR=Lang (ed., L.
##$REF JOURNAL=Absorption Spectra in the Ultraviolet and Visible Region
##$REF VOLUME=10
##$REF PAGE=220
##$REF DATE=1966
##XYPOINTS=(XY..XY)
206.0629,4.118002
206.3660,4.114949
206.3660,4.118002
206.7197,4.087477
206.8713,4.087477
206.8713,4.114949
207.0734,4.111897
207.2250,4.107827
207.2250,4.094599
208.5891,4.107827
208.7407,4.104774
211.4185,4.104774
211.6206,4.101722
211.9237,4.101722
212.1258,4.097652
212.4290,4.097652
212.6310,4.094599
212.9342,4.094599
213.1363,4.091547
213.4394,4.091547
213.6415,4.087477
213.9447,4.084424
213.9447,4.087477
214.2983,4.081372
214.2983,4.084424
214.6520,4.081372
214.8036,4.077302
215.1573,4.074249
215.1573,4.077302
215.4604,4.071197
215.4604,4.074249
216.9761,4.071197
217.1782,4.074249
217.3298,4.074249
217.4814,4.077302
217.8350,4.081372
217.8350,4.077302
217.9866,4.084424
217.9866,4.081372
218.1887,4.087477
218.1887,4.084424
218.3403,4.091547
218.3403,4.087477
218.4919,4.094599
218.4919,4.091547
218.6939,4.097652
218.6939,4.094599
218.8455,4.104774
218.8455,4.101722
218.9971,4.107827
218.9971,4.104774
219.1992,4.107827
219.7044,4.122072
219.7044,4.118002
219.8560,4.125124
219.8560,4.122072
220.0076,4.128177
220.0076,4.125124
220.2097,4.128177
220.7149,4.138352
220.8665,4.142422
220.8665,4.138352
221.0181,4.145474
221.0181,4.142422
221.2202,4.145474
221.7254,4.155649
221.8770,4.158702
221.8770,4.155649
222.0285,4.162772
222.0285,4.158702
222.2306,4.165824
222.2306,4.162772
222.3822,4.165824
222.7359,4.175999
222.7359,4.172947
222.8875,4.179052
222.8875,4.175999
223.0390,4.183122
223.0390,4.179052
223.7464,4.199402
223.7464,4.196349
223.8979,4.203472
223.8979,4.199402
224.0495,4.206524
224.0495,4.203472
224.2516,4.209577
224.2516,4.206524
224.4032,4.213647
224.4032,4.209577
225.0600,4.229927
225.0600,4.226874
225.2621,4.233997
225.2621,4.229927
225.5652,4.240102
225.7673,4.244172
225.7673,4.240102
225.9189,4.250277
225.9189,4.247224
226.4242,4.264522
226.4242,4.260452
226.7778,4.274697
226.7778,4.270627
227.2831,4.287924
227.2831,4.284872
227.4346,4.290977
227.4346,4.287924
227.5862,4.295047
227.5862,4.290977
227.7883,4.301152
227.7883,4.298099
227.9399,4.305222
227.9399,4.301152
228.2935,4.315397
228.2935,4.311327
228.5967,4.325572
228.5967,4.321502
228.7988,4.331677
228.7988,4.328624
229.3040,4.345922
229.3040,4.341852
229.4556,4.352027
229.4556,4.348974
229.6072,4.356097
229.6072,4.352027
229.9608,4.366272
229.9608,4.362202
230.8198,4.386622
230.8198,4.382552
230.9713,4.389674
231.1229,4.389674
231.8302,4.402902
231.9818,4.406972
231.9818,4.402902
232.1334,4.410024
232.1334,4.406972
232.3355,4.413077
232.3355,4.410024
232.4871,4.413077
233.1439,4.427322
233.3460,4.427322
234.0028,4.440549
234.1544,4.440549
234.8617,4.453777
235.0133,4.453777
235.6701,4.468022
235.8722,4.471074
235.8722,4.468022
236.0237,4.471074
236.3774,4.478197
236.5290,4.481249
236.5290,4.478197
236.6806,4.484302
236.6806,4.481249
236.8827,4.488372
236.8827,4.484302
237.0342,4.488372
237.3879,4.494477
237.5395,4.494477
237.8931,4.501600
238.0447,4.504652
238.0447,4.501600
238.1963,4.504652
238.3984,4.508722
238.5500,4.511775
238.5500,4.508722
238.9036,4.514827
238.9036,4.511775
239.2068,4.514827
239.4089,4.518897
239.7120,4.518897
239.9141,4.521950
240.0657,4.521950
240.2173,4.525002
240.9246,4.525002
241.0762,4.529072
241.5814,4.529072
241.7330,4.532125
242.2382,4.535177
242.2382,4.532125
242.7435,4.535177
242.9456,4.539247
243.4508,4.539247
243.6024,4.542300
244.1076,4.542300
244.2592,4.545352
244.7644,4.545352
244.9665,4.549422
245.4718,4.549422
245.6233,4.552475
245.7749,4.552475
245.9770,4.555527
246.1286,4.555527
246.2802,4.559597
246.4823,4.562650
246.4823,4.559597
246.7854,4.565702
246.7854,4.562650
247.1391,4.569772
247.1391,4.565702
247.4927,4.569772
247.7959,4.575877
247.9980,4.579947
247.9980,4.575877
248.3011,4.583000
248.3011,4.579947
248.5032,4.586052
248.5032,4.583000
248.8064,4.590122
248.8064,4.586052
249.1600,4.593175
249.1600,4.590122
249.3116,4.593175
249.6653,4.600297
249.8168,4.600297
250.0189,4.603350
250.1705,4.603350
250.5242,4.610472
250.8273,4.610472
251.0294,4.613525
252.3431,4.613525
252.5452,4.610472
252.6967,4.610472
252.8483,4.606402
253.0504,4.606402
253.2020,4.603350
253.3535,4.603350
253.7072,4.596227
253.8588,4.596227
254.3640,4.586052
254.5661,4.586052
254.8693,4.579947
255.0714,4.579947
255.3745,4.572825
255.5766,4.572825
255.8798,4.565702
256.0818,4.565702
256.3850,4.559597
256.5871,4.559597
256.7387,4.555527
256.8902,4.552475
256.8902,4.555527
257.0923,4.552475
257.2439,4.549422
257.3955,4.549422
257.7491,4.542300
257.9007,4.542300
258.2544,4.535177
258.6081,4.532125
258.6081,4.535177
258.7596,4.532125
258.9112,4.529072
259.1133,4.525002
259.1133,4.529072
259.2649,4.525002
259.4164,4.521950
259.6185,4.521950
259.7701,4.518897
259.9217,4.518897
260.1238,4.514827
260.2754,4.511775
260.2754,4.514827
260.4269,4.511775
260.6290,4.508722
260.7806,4.504652
260.7806,4.508722
261.1343,4.501600
261.1343,4.504652
261.4374,4.498547
261.4374,4.501600
261.6395,4.494477
261.6395,4.498547
261.7911,4.494477
261.9427,4.491425
262.1448,4.488372
262.1448,4.491425
262.2963,4.484302
262.2963,4.488372
262.4479,4.484302
262.6500,4.481249
262.8016,4.478197
262.8016,4.481249
263.1552,4.471074
263.3068,4.468022
263.3068,4.471074
263.4584,4.460899
263.4584,4.468022
263.6605,4.457847
263.6605,4.460899
263.8121,4.453777
263.8121,4.457847
264.1657,4.443602
264.1657,4.447672
264.3173,4.440549
264.3173,4.443602
264.6710,4.430374
264.6710,4.433427
264.8225,4.423252
264.8225,4.430374
264.9741,4.417147
264.9741,4.423252
265.1762,4.413077
265.1762,4.417147
265.3278,4.410024
265.3278,4.413077
265.4793,4.402902
265.4793,4.406972
265.6814,4.396797
265.6814,4.399849
265.8330,4.389674
265.8330,4.392727
265.9846,4.386622
265.9846,4.389674
266.1867,4.379499
266.1867,4.382552
266.3383,4.372377
266.3383,4.379499
266.4898,4.366272
266.4898,4.372377
266.6919,4.362202
266.6919,4.366272
266.8435,4.352027
266.8435,4.359149
266.9951,4.348974
266.9951,4.352027
267.1972,4.341852
267.1972,4.345922
267.3487,4.335747
267.3487,4.338799
267.5003,4.328624
267.5003,4.331677
267.7024,4.321502
267.7024,4.325572
267.8540,4.315397
267.8540,4.318449
268.0056,4.308274
268.0056,4.315397
268.2077,4.305222
268.2077,4.308274
268.3592,4.298099
268.3592,4.301152
268.5108,4.287924
268.5108,4.298099
268.7129,4.284872
268.7129,4.287924
268.8645,4.277749
268.8645,4.280802
269.0160,4.270627
269.0160,4.274697
269.2181,4.264522
269.2181,4.267574
269.3697,4.257399
269.3697,4.264522
269.5213,4.250277
269.5213,4.257399
269.7234,4.244172
269.7234,4.250277
269.8750,4.240102
269.8750,4.244172
270.0265,4.229927
270.0265,4.237049
270.2286,4.226874
270.2286,4.229927
270.3802,4.219752
270.3802,4.226874
270.5318,4.213647
270.5318,4.219752
270.7339,4.206524
270.7339,4.213647
270.8854,4.199402
270.8854,4.206524
271.0370,4.193297
271.0370,4.196349
271.2391,4.186174
271.2391,4.193297
271.3907,4.179052
271.3907,4.186174
271.5423,4.172947
271.5423,4.175999
271.7443,4.165824
271.7443,4.172947
271.8959,4.158702
271.8959,4.165824
272.0475,4.152597
272.0475,4.158702
272.2496,4.145474
272.2496,4.152597
272.4012,4.138352
272.4012,4.142422
272.5527,4.132247
272.5527,4.138352
272.7548,4.125124
272.7548,4.132247
272.9064,4.118002
272.9064,4.125124
273.0580,4.111897
273.0580,4.118002
273.2601,4.107827
273.2601,4.111897
273.4116,4.097652
273.4116,4.107827
273.5632,4.091547
273.5632,4.097652
273.7653,4.087477
273.7653,4.091547
273.9169,4.081372
273.9169,4.084424
274.0685,4.074249
274.0685,4.081372
274.2706,4.067127
274.2706,4.074249
274.4221,4.061022
274.4221,4.064074
274.5737,4.053899
274.5737,4.061022
274.7758,4.046777
274.7758,4.053899
274.9274,4.040672
274.9274,4.046777
275.0789,4.033549
275.0789,4.040672
275.2810,4.030497
275.2810,4.033549
275.4326,4.023374
275.4326,4.026427
275.5842,4.016252
275.5842,4.020322
275.7863,4.010147
275.7863,4.013199
275.9379,4.003024
275.9379,4.010147
276.0894,3.995902
276.0894,4.003024
276.2915,3.992849
276.2915,3.995902
276.4431,3.985726
276.4431,3.992849
276.5947,3.982674
276.5947,3.985726
276.7968,3.975551
276.7968,3.979621
277.0999,3.965376
277.0999,3.969446
277.3020,3.962324
277.3020,3.965376
277.4536,3.959271
277.4536,3.962324
278.1104,3.945026
278.3125,3.941974
278.3125,3.945026
278.4641,3.938921
278.4641,3.941974
278.6156,3.934851
278.6156,3.938921
278.8177,3.934851
278.9693,3.931799
279.1209,3.928746
279.1209,3.931799
279.3230,3.928746
279.4745,3.924676
279.6261,3.924676
279.8282,3.921624
279.9798,3.921624
280.1314,3.918571
280.3335,3.918571
280.4850,3.914501
281.6471,3.914501
281.8492,3.911449
283.8702,3.911449
284.0217,3.908396
284.6785,3.908396
284.8806,3.904326
285.5375,3.904326
285.6890,3.901274
285.8911,3.901274
286.0427,3.898221
286.1943,3.898221
286.3964,3.894151
286.5479,3.891099
286.5479,3.894151
286.6995,3.891099
286.9016,3.888046
287.0532,3.883976
287.0532,3.888046
287.2047,3.880924
287.2047,3.883976
287.5584,3.877871
287.5584,3.880924
287.7100,3.877871
287.9121,3.873801
288.0637,3.873801
288.2152,3.870749
288.4173,3.870749
288.5689,3.867696
288.7205,3.867696
288.9226,3.863626
289.0741,3.863626
289.2257,3.860574
289.5794,3.857521
289.5794,3.860574
290.4383,3.857521
290.5899,3.853451
291.9540,3.853451
292.1056,3.857521
293.2677,3.857521
293.4697,3.860574
294.6318,3.860574
294.7834,3.863626
296.5012,3.863626
296.6528,3.867696
296.8043,3.867696
297.0064,3.870749
297.1580,3.870749
297.3096,3.873801
297.6633,3.877871
297.6633,3.873801
297.8148,3.877871
298.0169,3.880924
298.1685,3.883976
298.1685,3.880924
298.3201,3.888046
298.3201,3.883976
298.5222,3.891099
298.5222,3.888046
298.6737,3.891099
298.8253,3.894151
299.0274,3.898221
299.0274,3.894151
299.1790,3.901274
299.1790,3.898221
299.3306,3.904326
299.3306,3.901274
299.5327,3.908396
299.5327,3.904326
299.8358,3.911449
299.8358,3.908396
300.0379,3.914501
300.0379,3.911449
300.1895,3.918571
300.1895,3.914501
300.3410,3.921624
300.3410,3.918571
300.5431,3.921624
300.6947,3.924676
300.8463,3.928746
300.8463,3.924676
301.0484,3.931799
301.0484,3.928746
301.1999,3.934851
301.1999,3.931799
301.3515,3.934851
301.5536,3.938921
301.7052,3.941974
301.7052,3.938921
301.8568,3.945026
301.8568,3.941974
302.0589,3.945026
302.2104,3.949096
302.3620,3.952149
302.3620,3.949096
302.5641,3.955201
302.5641,3.952149
302.8672,3.959271
302.8672,3.955201
303.0693,3.962324
303.0693,3.959271
303.2209,3.962324
307.7681,4.020322
308.1218,4.026427
308.2733,4.026427
308.4249,4.030497
308.6270,4.030497
308.7786,4.033549
308.9302,4.033549
309.1322,4.036602
309.2838,4.036602
309.4354,4.040672
309.6375,4.040672
309.7891,4.043724
309.9406,4.043724
310.1427,4.046777
310.4459,4.046777
310.6480,4.050847
310.7995,4.050847
310.9511,4.053899
311.4564,4.056952
311.4564,4.053899
311.9616,4.061022
311.9616,4.056952
312.4668,4.061022
312.6689,4.064074
312.9721,4.064074
313.1742,4.067127
313.9826,4.067127
314.1847,4.071197
317.2161,4.071197
317.3677,4.067127
317.8729,4.067127
318.0245,4.064074
318.3782,4.064074
318.5297,4.061022
318.7318,4.061022
318.8834,4.056952
319.0350,4.056952
319.2371,4.053899
319.5402,4.053899
319.7423,4.050847
319.8939,4.050847
320.0455,4.046777
320.2476,4.046777
320.5507,4.040672
320.7528,4.040672
320.9044,4.036602
321.0560,4.036602
321.4096,4.030497
321.5612,4.030497
321.9149,4.023374
322.0664,4.020322
322.0664,4.023374
322.4201,4.016252
322.4201,4.020322
322.5717,4.013199
322.5717,4.016252
322.7738,4.010147
322.7738,4.013199
322.9254,4.010147
323.2790,4.003024
323.4306,3.999972
323.4306,4.003024
323.5822,3.995902
323.5822,3.999972
323.7843,3.992849
323.7843,3.995902
323.9358,3.992849
324.2895,3.985726
324.4411,3.982674
324.4411,3.985726
324.5926,3.979621
324.5926,3.982674
327.9778,3.911449
327.9778,3.914501
328.1293,3.908396
328.1293,3.911449
328.3314,3.904326
328.3314,3.908396
328.4830,3.901274
328.4830,3.904326
328.6346,3.898221
328.6346,3.901274
328.8367,3.894151
328.8367,3.898221
329.4935,3.877871
329.4935,3.880924
329.6451,3.877871
329.8472,3.870749
329.8472,3.873801
330.3524,3.857521
330.3524,3.860574
330.5040,3.853451
330.5040,3.857521
330.6556,3.850399
330.6556,3.853451
330.8576,3.847346
330.8576,3.850399
331.1608,3.837171
331.1608,3.840224
331.8681,3.819874
331.8681,3.822926
332.0197,3.816821
332.0197,3.819874
332.3734,3.806646
332.3734,3.809699
333.0302,3.789349
333.0302,3.792401
333.1818,3.786296
333.1818,3.789349
333.3839,3.779174
333.3839,3.782226
333.5354,3.776121
333.5354,3.779174
333.6870,3.768999
333.6870,3.772051
334.1922,3.755771
334.1922,3.758824
334.3943,3.751701
334.3943,3.755771
334.6975,3.741526
334.6975,3.745596
335.2027,3.728299
335.2027,3.731351
335.5564,3.718124
335.5564,3.721176
335.7080,3.715071
335.7080,3.718124
336.0616,3.704896
336.0616,3.707949
336.2132,3.700826
336.2132,3.704896
336.4153,3.697774
336.4153,3.700826
336.5669,3.690651
336.5669,3.694721
336.9206,3.680476
336.9206,3.684546
337.2237,3.670301
337.2237,3.674371
337.5774,3.660126
337.5774,3.664196
337.9310,3.649951
337.9310,3.654021
338.0826,3.646899
338.0826,3.649951
338.4363,3.636724
338.4363,3.639776
338.9415,3.623496
338.9415,3.626549
339.2447,3.613321
339.2447,3.616374
339.7499,3.599076
339.7499,3.603146
340.1036,3.588901
340.1036,3.592971
340.6088,3.575674
340.6088,3.578726
340.7604,3.568551
340.7604,3.572621
340.9625,3.565499
340.9625,3.568551
341.2656,3.555324
341.2656,3.558376
341.6193,3.542096
341.6193,3.548201
341.7709,3.534974
341.7709,3.538026
342.1245,3.524799
342.1245,3.527851
342.2761,3.521746
342.2761,3.524799
342.4782,3.514624
342.4782,3.517676
342.6298,3.511571
342.7814,3.507501
342.7814,3.511571
342.9835,3.501396
342.9835,3.504449
343.1350,3.494274
343.1350,3.501396
343.2866,3.491221
343.2866,3.494274
343.4887,3.487151
343.4887,3.491221
343.6403,3.481046
343.6403,3.484098
343.7918,3.476976
343.7918,3.481046
344.1455,3.466801
344.1455,3.470871
344.2971,3.463748
344.2971,3.466801
344.6508,3.453573
344.6508,3.456626
344.8023,3.450521
344.8023,3.453573
345.0044,3.443398
345.0044,3.446451
345.1560,3.436276
345.1560,3.440346
345.3076,3.430171
345.3076,3.436276
345.5097,3.426101
345.5097,3.430171
345.6612,3.415926
345.6612,3.423048
345.8128,3.412873
345.8128,3.415926
346.0149,3.405751
346.0149,3.409821
346.1665,3.399646
346.1665,3.402698
346.3180,3.392523
346.3180,3.395576
346.5201,3.385401
346.5201,3.392523
346.6717,3.379296
346.6717,3.382348
346.8233,3.372173
346.8233,3.379296
347.0254,3.361998
347.0254,3.369121
347.1770,3.358946
347.1770,3.361998
347.3285,3.348771
347.3285,3.354876
347.5306,3.341648
347.5306,3.348771
347.6822,3.331473
347.6822,3.338596
347.8338,3.328421
347.8338,3.331473
348.0359,3.318246
348.0359,3.324351
348.1874,3.311123
348.1874,3.318246
348.3390,3.304001
348.3390,3.311123
348.5411,3.293826
348.5411,3.300948
348.6927,3.287721
348.6927,3.293826
348.8443,3.280598
348.8443,3.287721
349.0464,3.273476
349.0464,3.277546
355.7661,3.033346
355.7661,3.036398
355.9176,3.029276
355.9176,3.033346
356.2713,3.019101
356.2713,3.023171
356.6250,3.008926
356.6250,3.012996
356.7766,3.005873
356.7766,3.008926
357.2818,2.992645
357.2818,2.995698
357.6355,2.982471
357.6355,2.985523
357.7870,2.978400
357.7870,2.982471
358.6460,2.958050
358.6460,2.962120
358.9491,2.951945
359.1512,2.947875
359.1512,2.951945
359.8080,2.931595
359.8080,2.934648
359.9596,2.927525
359.9596,2.931595
360.3132,2.917350
360.3132,2.921420
360.4648,2.914298
360.4648,2.917350
360.8185,2.904123
360.8185,2.907175
360.9701,2.901070
360.9701,2.904123
361.1722,2.893948
361.1722,2.897000
361.4753,2.883773
361.4753,2.886825
361.6774,2.880720
361.6774,2.883773
361.8290,2.876650
361.8290,2.880720
361.9805,2.870545
361.9805,2.873598
362.1826,2.863423
362.1826,2.870545
362.3342,2.856300
362.3342,2.860370
362.4858,2.850195
362.4858,2.856300
362.6879,2.843073
362.6879,2.850195
362.8395,2.835950
362.8395,2.843073
362.9910,2.829845
362.9910,2.835950
363.1931,2.819670
363.1931,2.825775
363.3447,2.809495
363.3447,2.819670
363.4963,2.799320
363.4963,2.805425
363.6984,2.789145
363.6984,2.795250
363.8499,2.778970
363.8499,2.789145
364.0015,2.764725
364.0015,2.774900
364.2036,2.748445
364.2036,2.761673
364.3552,2.731148
364.3552,2.744375
364.5068,2.717920
364.5068,2.728095
364.7089,2.700623
364.7089,2.713850
364.8604,2.687395
364.8604,2.697570
365.0120,2.670098
365.0120,2.683325
365.2141,2.652800
365.2141,2.667045
365.3657,2.636520
365.3657,2.649748
365.5172,2.619223
365.5172,2.632450
365.7193,2.601925
365.7193,2.616170
365.8709,2.588698
365.8709,2.598873
366.0225,2.571400
366.0225,2.585645
366.2246,2.555120
366.2246,2.568348
366.3762,2.537822
366.3762,2.551050
366.5277,2.524595
366.5277,2.534770
366.7298,2.510350
366.7298,2.520525
366.8814,2.494070
366.8814,2.507298
367.0330,2.473720
367.0330,2.490000
367.2351,2.463545
367.2351,2.469650
367.3866,2.449300
367.3866,2.459475
367.5382,2.428950
367.5382,2.446247
367.7403,2.412670
367.7403,2.425897
367.8919,2.395372
367.8919,2.408600
368.0435,2.382145
368.0435,2.395372
368.2455,2.367900
368.2455,2.378075
368.3971,2.351620
368.3971,2.364847
368.5487,2.334322
368.5487,2.347550
368.7508,2.317025
368.7508,2.331270
368.9024,2.300745
368.9024,2.313972
369.0539,2.286500
369.0539,2.296675
369.2560,2.266150
369.2560,2.283447
369.4076,2.252922
369.4076,2.263097
369.5592,2.239695
369.5592,2.249870
369.7613,2.222397
369.7613,2.235625
369.9128,2.209170
369.9128,2.219345
370.0644,2.188820
370.0644,2.205100
370.2665,2.174575
370.2665,2.184750
370.4181,2.161347
370.4181,2.171522
370.5697,2.148120
370.5697,2.158295
370.7718,2.130822
370.7718,2.148120
370.9233,2.113525
370.9233,2.127770
371.0749,2.097244
371.0749,2.113525
371.2770,2.076894
371.2770,2.093175
371.4286,2.062650
371.4286,2.072825
371.5801,2.049422
371.5801,2.059597
371.7822,2.036194
371.7822,2.046370
371.9338,2.015845
371.9338,2.032125
372.0854,1.998547
372.0854,2.011775
372.2875,1.985320
372.2875,1.995494
372.4391,1.968022
372.4391,1.981249
372.5906,1.954795
372.5906,1.964970
372.7927,1.940549
372.7927,1.950725
372.9443,1.924269
372.9443,1.937497
373.0959,1.914094
373.0959,1.920200
373.2980,1.896797
373.2980,1.910024
373.4495,1.883569
373.4495,1.893745
373.6011,1.866272
373.6011,1.879500
373.8032,1.853044
373.8032,1.863219
373.9548,1.838799
373.9548,1.853044
374.1064,1.825572
374.1064,1.835747
374.3085,1.805222
##END=
