##TITLE=Phenanthro[4,5-bcd]furan
##JCAMP-DX=4.24
##DATA TYPE=UV/VIS SPECTRUM
##ORIGIN=INSTITUTE OF ENERGY PROBLEMS OF CHEMICAL PHYSICS, RAS
##OWNER=INEP CP RAS, NIST OSRD
Collection (C) 2007 copyright by the U.S. Secretary of Commerce
on behalf of the United States of America. All rights reserved.
##CAS REGISTRY NO=203-67-8
##MOLFORM=C14H8O
##MP=90-91
##SOURCE REFERENCE=RAS UV No. 22436
##$NIST SQUIB=1977HOR3329
##$NIST SOURCE=TYUGLMTE
##SPECTROMETER/DATA SYSTEM=Shimadzu UV-200
##XUNITS=Wavelength (nm)
##YUNITS=Logarithm epsilon
##XFACTOR=1.0
##YFACTOR=1.0
##FIRSTX=206.12
##LASTX=324.25
##FIRSTY=4.09
##MAXX=324.25
##MINX=206.12
##MAXY=4.682
##MINY=2.243
##NPOINTS=84
##$REF AUTHOR=Horaguchi, T.
##$REF JOURNAL=Bull. Chem. Soc. Japan
##$REF VOLUME=50
##$REF PAGE=3329
##$REF DATE=1977
##XYPOINTS=(XY..XY)
206.120,4.090
207.620,4.112
209.120,4.129
210.620,4.144
212.120,4.158
213.620,4.174
215.120,4.193
216.620,4.217
218.120,4.245
219.620,4.278
221.120,4.316
222.620,4.358
224.120,4.404
225.620,4.451
227.120,4.498
228.427,4.537
229.927,4.578
231.427,4.617
232.888,4.658
234.427,4.682
236.234,4.682
237.362,4.642
239.022,4.592
240.510,4.544
241.811,4.479
243.510,4.341
245.010,4.221
246.510,4.188
248.010,4.238
249.432,4.305
250.932,4.360
252.432,4.385
254.265,4.386
255.765,4.383
257.265,4.405
258.765,4.451
258.913,4.454
260.413,4.477
261.913,4.504
263.188,4.517
263.842,4.546
264.675,4.517
265.618,4.450
267.118,4.327
268.618,4.166
270.252,3.957
271.752,3.770
273.252,3.660
274.752,3.611
276.252,3.609
277.752,3.637
279.252,3.685
280.752,3.742
282.252,3.801
282.335,3.801
283.835,3.876
285.335,3.952
286.700,3.953
288.283,3.941
289.771,3.948
291.426,3.954
292.821,3.984
294.046,4.020
295.546,4.092
297.046,4.126
298.546,4.133
300.046,4.122
301.296,4.110
302.796,4.083
304.296,4.077
305.796,4.089
307.296,4.115
308.545,4.146
310.045,4.177
311.545,4.200
313.045,4.165
313.750,4.057
315.250,3.731
316.750,3.386
318.250,3.080
319.750,2.838
321.250,2.650
322.750,2.476
324.250,2.243
##END=
