##TITLE=4H-Cyclopenta(def)phenanthrene
##JCAMP-DX=4.24
##DATA TYPE=UV/VIS SPECTRUM
##ORIGIN=INSTITUTE OF ENERGY PROBLEMS OF CHEMICAL PHYSICS, RAS
##OWNER=INEP CP RAS, NIST OSRD
Collection (C) 2007 copyright by the U.S. Secretary of Commerce
on behalf of the United States of America. All rights reserved.
##CAS REGISTRY NO=203-64-5
##MOLFORM=C15H10
##MP=122.5
##SOURCE REFERENCE=RAS UV No. 19813
##$NIST SQUIB=1967PERe3/7
##$NIST SOURCE=TYUGLMTE
##SPECTROMETER/DATA SYSTEM=Zeiss PMQ II
##XUNITS=Wavelength (nm)
##YUNITS=Logarithm epsilon
##XFACTOR=1.0
##YFACTOR=1.0
##FIRSTX=182.39
##LASTX=342.94
##FIRSTY=4.003
##MAXX=342.94
##MINX=182.39
##MAXY=4.711
##MINY=1.76
##NPOINTS=767
##$REF AUTHOR=Perkampus, H.-H.
##$REF JOURNAL=UV atlas of organic compounds
##$REF VOLUME=3
##$REF PAGE=E3/7
##$REF DATE=1967
##XYPOINTS=(XY..XY)
182.39,4.003
182.61,4.020
182.97,4.037
183.19,4.057
183.41,4.074
183.78,4.091
184.15,4.108
184.44,4.125
184.81,4.142
185.18,4.157
185.63,4.172
186.01,4.189
186.46,4.202
186.99,4.215
187.37,4.230
187.83,4.243
188.36,4.253
189.06,4.258
189.76,4.255
190.31,4.245
190.78,4.232
191.18,4.215
191.58,4.200
191.90,4.183
192.22,4.166
192.46,4.149
192.70,4.131
192.94,4.114
193.19,4.097
193.43,4.080
193.59,4.061
193.84,4.042
194.08,4.022
194.33,4.005
194.41,3.986
194.57,3.967
194.82,3.947
195.07,3.930
195.15,3.911
195.40,3.894
195.57,3.875
195.82,3.858
196.07,3.840
196.40,3.823
196.65,3.806
197.16,3.793
197.92,3.795
198.43,3.808
198.78,3.825
199.12,3.843
199.38,3.862
199.72,3.879
200.07,3.896
200.33,3.915
200.59,3.935
200.86,3.954
201.12,3.973
201.38,3.992
201.74,4.009
202.00,4.029
202.27,4.048
202.54,4.067
202.89,4.084
203.25,4.101
203.52,4.119
203.97,4.134
204.33,4.151
204.88,4.166
205.34,4.183
205.89,4.196
206.35,4.213
206.91,4.226
207.46,4.238
208.12,4.249
208.78,4.260
209.54,4.270
210.31,4.281
211.08,4.290
211.95,4.294
212.74,4.283
213.33,4.270
213.92,4.258
214.52,4.245
215.19,4.240
215.72,4.241
216.05,4.243
216.40,4.246
216.65,4.250
216.86,4.253
217.03,4.255
217.26,4.255
217.36,4.255
217.43,4.255
217.55,4.253
217.67,4.251
217.77,4.249
217.85,4.248
217.96,4.246
218.07,4.246
218.20,4.247
218.28,4.249
218.39,4.253
218.49,4.258
218.60,4.262
218.70,4.264
218.80,4.268
218.91,4.270
219.01,4.273
219.10,4.274
219.22,4.277
219.35,4.278
219.43,4.281
219.53,4.283
219.64,4.288
219.74,4.294
219.86,4.300
219.95,4.305
220.06,4.311
220.16,4.318
220.28,4.322
220.38,4.326
220.48,4.330
220.58,4.333
220.67,4.335
220.76,4.335
220.90,4.332
220.97,4.329
221.12,4.322
221.22,4.320
221.31,4.318
221.43,4.316
221.55,4.315
221.64,4.316
221.77,4.317
221.92,4.318
222.03,4.320
222.13,4.322
222.22,4.325
222.29,4.328
222.40,4.335
222.51,4.347
222.55,4.354
222.72,4.371
222.83,4.380
222.94,4.386
223.04,4.392
223.11,4.396
223.23,4.402
223.33,4.406
223.48,4.410
223.58,4.411
223.70,4.413
223.80,4.412
223.91,4.410
224.02,4.407
224.13,4.401
224.24,4.390
224.35,4.371
224.46,4.358
224.57,4.347
224.68,4.335
224.79,4.326
224.90,4.320
224.97,4.315
225.07,4.310
225.17,4.307
225.37,4.304
225.52,4.303
225.66,4.304
225.82,4.305
225.92,4.308
226.03,4.311
226.11,4.315
226.22,4.326
226.33,4.341
226.39,4.347
226.56,4.358
226.66,4.362
226.75,4.363
226.88,4.359
226.99,4.349
227.14,4.336
227.23,4.326
227.34,4.313
227.45,4.300
227.56,4.288
227.66,4.281
227.72,4.273
227.82,4.264
227.95,4.253
228.14,4.238
228.29,4.229
228.41,4.218
228.58,4.193
228.70,4.168
228.81,4.142
228.83,4.130
228.85,4.118
228.87,4.108
228.90,4.096
228.92,4.084
228.94,4.077
228.99,4.065
229.04,4.050
229.07,4.035
229.08,4.025
229.10,4.014
229.13,4.004
229.15,3.997
229.20,3.985
229.38,3.965
229.49,3.947
229.61,3.935
229.69,3.928
229.80,3.920
229.90,3.914
230.01,3.910
230.13,3.906
230.23,3.905
230.39,3.904
230.52,3.904
230.65,3.904
230.87,3.909
231.05,3.914
231.28,3.922
231.48,3.930
231.69,3.939
232.01,3.958
232.27,3.977
232.56,3.996
232.86,4.016
233.21,4.035
233.57,4.054
233.92,4.074
234.28,4.091
234.64,4.108
235.00,4.125
235.36,4.144
235.72,4.163
236.08,4.183
236.45,4.202
236.69,4.221
236.81,4.241
237.06,4.260
237.42,4.279
237.79,4.298
238.16,4.318
238.53,4.337
239.03,4.354
239.40,4.371
239.90,4.388
240.40,4.405
240.65,4.424
241.15,4.442
241.66,4.459
242.17,4.476
242.68,4.493
243.06,4.512
243.45,4.531
243.84,4.551
244.22,4.570
244.74,4.587
245.40,4.602
246.32,4.615
247.11,4.630
247.77,4.647
248.71,4.658
249.79,4.666
250.88,4.675
251.66,4.688
252.14,4.696
252.67,4.703
252.81,4.703
252.95,4.705
253.09,4.705
253.23,4.707
253.36,4.707
253.50,4.709
253.64,4.709
253.78,4.711
253.92,4.711
254.06,4.711
254.20,4.709
254.34,4.705
254.49,4.703
254.63,4.700
254.77,4.698
254.91,4.692
255.05,4.688
255.19,4.679
255.33,4.673
255.47,4.668
255.62,4.656
255.76,4.647
255.90,4.636
256.04,4.623
256.18,4.604
256.33,4.583
256.47,4.568
256.61,4.549
256.76,4.546
256.90,4.529
257.04,4.508
257.19,4.491
257.33,4.482
257.47,4.469
257.62,4.452
257.76,4.442
257.91,4.429
258.05,4.416
258.20,4.395
258.34,4.384
258.49,4.367
258.63,4.354
258.78,4.320
258.92,4.309
259.07,4.303
259.21,4.292
259.36,4.281
259.51,4.273
259.65,4.266
259.80,4.260
259.95,4.255
260.09,4.253
260.24,4.251
260.39,4.247
260.53,4.243
260.68,4.241
260.83,4.232
260.98,4.232
261.13,4.230
261.27,4.226
261.42,4.226
261.57,4.226
261.72,4.226
261.87,4.226
262.02,4.228
262.17,4.236
262.32,4.243
262.47,4.243
262.62,4.243
262.76,4.243
262.91,4.241
263.07,4.241
263.22,4.238
263.37,4.234
263.52,4.230
263.67,4.221
263.82,4.211
263.97,4.204
264.12,4.196
264.27,4.185
264.43,4.181
264.58,4.170
264.73,4.161
264.88,4.153
265.03,4.142
265.19,4.131
265.34,4.127
265.49,4.119
265.65,4.108
265.80,4.099
265.95,4.095
266.11,4.084
266.26,4.076
266.41,4.067
266.57,4.059
266.72,4.054
266.88,4.046
267.03,4.037
267.19,4.033
267.34,4.024
267.50,4.020
267.65,4.014
267.81,3.999
267.97,3.999
268.12,3.994
268.28,3.990
268.43,3.984
268.59,3.979
268.75,3.973
268.90,3.967
269.06,3.962
269.22,3.960
269.38,3.952
269.53,3.950
269.69,3.943
269.85,3.937
270.01,3.932
270.17,3.926
270.33,3.920
270.48,3.913
270.64,3.909
270.80,3.905
270.96,3.900
271.12,3.894
271.28,3.890
271.44,3.887
271.60,3.885
271.76,3.883
271.92,3.877
272.08,3.875
272.24,3.873
272.40,3.870
272.57,3.868
272.73,3.864
272.89,3.862
273.05,3.860
273.21,3.855
273.38,3.849
273.54,3.843
273.70,3.834
273.86,3.828
274.03,3.815
274.19,3.804
274.35,3.795
274.52,3.787
274.67,3.780
274.85,3.781
275.01,3.787
275.21,3.798
275.34,3.813
275.50,3.847
275.67,3.862
275.79,3.872
275.91,3.877
276.06,3.885
276.31,3.896
276.49,3.902
276.66,3.907
276.83,3.909
276.97,3.911
277.14,3.912
277.33,3.913
277.50,3.911
277.66,3.905
277.83,3.890
278.00,3.881
278.17,3.873
278.33,3.864
278.50,3.855
278.67,3.849
278.84,3.845
279.01,3.838
279.18,3.834
279.35,3.830
279.52,3.823
279.69,3.819
279.86,3.815
279.96,3.812
280.20,3.806
280.37,3.802
280.54,3.800
280.71,3.798
280.88,3.795
281.05,3.791
281.22,3.789
281.40,3.787
281.55,3.785
281.74,3.783
281.91,3.781
282.09,3.781
282.26,3.781
282.43,3.781
282.64,3.782
282.80,3.785
282.95,3.787
283.13,3.791
283.30,3.795
283.48,3.800
283.65,3.802
283.83,3.808
283.97,3.813
284.18,3.819
284.35,3.825
284.53,3.833
284.70,3.838
284.88,3.845
285.06,3.849
285.23,3.855
285.41,3.860
285.59,3.864
285.76,3.873
285.94,3.911
286.12,3.947
286.30,3.962
286.47,3.982
286.65,3.994
286.83,4.012
287.01,4.020
287.13,4.026
287.27,4.035
287.41,4.044
287.63,4.052
287.80,4.058
287.97,4.062
288.19,4.062
288.38,4.057
288.61,4.050
288.83,4.039
288.97,4.031
289.17,4.014
289.33,3.998
289.54,3.986
289.72,3.965
289.90,3.945
290.09,3.925
290.20,3.902
290.31,3.874
290.51,3.856
290.82,3.838
291.00,3.832
291.19,3.828
291.37,3.825
291.55,3.823
291.74,3.819
291.92,3.813
292.11,3.808
292.29,3.800
292.48,3.789
292.67,3.781
292.85,3.768
293.04,3.759
293.23,3.753
293.33,3.748
293.49,3.742
293.79,3.736
294.02,3.733
294.19,3.733
294.39,3.734
294.54,3.738
294.73,3.744
294.92,3.753
295.11,3.763
295.29,3.781
295.48,3.791
295.67,3.802
295.86,3.813
296.05,3.834
296.24,3.909
296.42,3.932
296.63,3.941
296.82,3.945
297.01,3.947
297.18,3.948
297.34,3.950
297.59,3.950
297.76,3.950
297.97,3.947
298.15,3.945
298.36,3.945
298.52,3.947
298.68,3.951
298.80,3.963
298.82,3.986
298.88,4.015
298.91,4.044
298.94,4.063
299.02,4.077
299.13,4.092
299.24,4.115
299.47,4.131
299.61,4.147
299.86,4.163
300.16,4.172
300.44,4.176
300.67,4.174
300.89,4.168
301.06,4.161
301.25,4.151
301.45,4.136
301.56,4.123
301.67,4.108
301.84,4.092
302.06,4.060
302.28,4.014
302.48,3.983
302.70,3.950
302.93,3.909
303.27,3.849
303.47,3.795
303.60,3.756
303.82,3.693
303.96,3.640
304.10,3.594
304.29,3.537
304.49,3.481
304.66,3.429
304.85,3.372
305.08,3.310
305.27,3.251
305.47,3.192
305.63,3.133
305.83,3.045
306.05,2.972
306.30,2.893
306.58,2.832
306.82,2.775
307.19,2.704
307.67,2.620
307.94,2.570
308.14,2.540
308.35,2.499
308.56,2.473
308.76,2.456
308.97,2.448
309.18,2.448
309.38,2.441
309.59,2.439
309.80,2.439
310.01,2.439
310.22,2.439
310.43,2.446
310.64,2.446
310.85,2.454
311.03,2.482
311.24,2.502
311.50,2.519
311.69,2.535
311.90,2.548
312.13,2.566
312.29,2.583
312.54,2.595
312.75,2.597
312.96,2.600
313.17,2.602
313.39,2.602
313.60,2.602
313.81,2.602
313.92,2.599
314.20,2.592
314.46,2.585
314.67,2.578
314.82,2.571
315.10,2.557
315.27,2.550
315.43,2.543
315.60,2.537
315.77,2.525
315.94,2.516
316.16,2.504
316.33,2.497
316.62,2.488
316.84,2.480
317.00,2.472
317.27,2.463
317.49,2.452
317.71,2.450
317.93,2.443
318.15,2.433
318.37,2.422
318.59,2.409
318.81,2.405
319.03,2.405
319.25,2.401
319.48,2.394
319.70,2.394
319.92,2.392
320.14,2.392
320.36,2.392
320.59,2.392
320.78,2.404
321.04,2.418
321.26,2.420
321.48,2.424
321.71,2.424
321.93,2.424
322.16,2.424
322.38,2.420
322.61,2.418
322.84,2.411
323.06,2.409
323.29,2.398
323.42,2.369
323.57,2.354
323.97,2.336
324.20,2.336
324.43,2.336
324.66,2.336
324.89,2.336
325.12,2.339
325.35,2.343
325.58,2.347
325.81,2.351
326.04,2.381
326.23,2.425
326.44,2.472
326.69,2.527
326.95,2.583
327.25,2.642
327.35,2.664
327.46,2.691
327.61,2.713
327.66,2.730
327.90,2.740
328.15,2.749
328.51,2.751
328.76,2.753
329.09,2.751
329.34,2.747
329.57,2.743
329.78,2.734
330.01,2.715
330.25,2.696
330.48,2.674
330.72,2.655
330.96,2.634
331.20,2.612
331.44,2.593
331.67,2.572
331.91,2.552
332.15,2.540
332.39,2.529
332.39,2.518
332.63,2.514
332.87,2.510
333.11,2.508
333.36,2.503
333.60,2.501
333.68,2.497
333.73,2.489
333.78,2.472
333.88,2.440
334.03,2.410
334.19,2.367
334.34,2.331
334.43,2.299
334.57,2.256
334.72,2.212
334.83,2.179
334.94,2.142
335.10,2.103
335.30,2.080
335.51,2.073
335.87,2.071
336.43,2.083
336.77,2.099
336.99,2.120
337.26,2.155
337.51,2.210
337.76,2.238
337.91,2.248
338.16,2.258
338.43,2.264
338.72,2.265
339.03,2.256
339.25,2.245
339.48,2.232
339.69,2.208
340.00,2.157
340.25,2.125
340.46,2.093
340.75,2.037
340.93,1.993
341.07,1.964
341.25,1.927
341.38,1.899
341.54,1.872
341.70,1.845
341.80,1.828
341.91,1.810
342.04,1.790
342.28,1.767
342.41,1.763
342.65,1.760
342.78,1.764
342.94,1.770
##END=
