##TITLE=2-Iodobiphenyl
##JCAMP-DX=4.24
##DATA TYPE=UV/VIS SPECTRUM
##ORIGIN=INSTITUTE OF ENERGY PROBLEMS OF CHEMICAL PHYSICS, RAS
##OWNER=INEP CP RAS, NIST OSRD
Collection (C) 2007 copyright by the U.S. Secretary of Commerce
on behalf of the United States of America. All rights reserved.
##CAS REGISTRY NO=20442-79-9
##MOLFORM=C12H9I
##MP=26.5
##BP=188(16)
##SOURCE REFERENCE=RAS UV No. 594
##$NIST SQUIB=1952DUN/IRE1592-1597
##$NIST SOURCE=TSGMTE
##SPECTROMETER/DATA SYSTEM=n.i.g.
##XUNITS=Wavelength (nm)
##YUNITS=Logarithm epsilon
##XFACTOR=1.000000
##YFACTOR=1.000000
##FIRSTX=214.4293
##LASTX=289.0761
##FIRSTY=4.36446
##MAXX=289.076
##MINX=214.429
##MAXY=4.36446
##MINY=2.63805
##NPOINTS=633
##$REF AUTHOR=Dunn, T.M.; Iredale, T.
##$REF TITLE=Absorption spectra of substances containing the carbon-iodine bond. Part II.
##$REF JOURNAL=J. Chem. Soc.
##$REF PAGE=1592-1597
##$REF DATE=1952
##XYPOINTS=(XY..XY)
214.4293,4.364456
214.5441,4.360544
214.6589,4.356625
214.7736,4.352725
214.7736,4.352725
214.8701,4.350364
214.9378,4.348468
215.0347,4.345406
215.0347,4.345406
215.0835,4.344297
215.1323,4.343242
215.1810,4.342214
215.1810,4.342214
215.2832,4.339212
215.3894,4.335581
215.5904,4.328139
215.5904,4.328139
215.6832,4.325887
215.7689,4.323654
215.8509,4.321468
215.8509,4.321468
215.9001,4.319581
215.9493,4.317685
215.9985,4.315781
215.9985,4.315781
216.0465,4.315004
216.0909,4.314287
216.1281,4.313598
216.1281,4.313598
216.3280,4.307799
216.4338,4.304476
216.5362,4.300814
216.5362,4.300814
216.6777,4.297280
216.8121,4.293749
216.9429,4.290254
216.9429,4.290254
217.0361,4.286960
217.1222,4.283707
217.2047,4.280461
217.2047,4.280461
217.2533,4.279618
217.3018,4.278840
217.3503,4.278094
217.3503,4.278094
217.6709,4.269284
217.9843,4.260361
218.2941,4.251285
218.2941,4.251285
218.3420,4.250384
218.3864,4.249551
218.4236,4.248752
218.4236,4.248752
218.4718,4.247366
218.5164,4.246047
218.5539,4.244760
218.5539,4.244760
218.6504,4.242880
218.7433,4.241064
218.8291,4.239276
218.8291,4.239276
218.9259,4.236833
219.0191,4.234376
219.1052,4.231905
219.1052,4.231905
219.1531,4.231128
219.1974,4.230424
219.2345,4.229755
219.2345,4.229755
219.2827,4.228307
219.3273,4.226929
219.3648,4.225584
219.3648,4.225584
219.5266,4.222270
219.6885,4.219008
219.8503,4.215758
219.8503,4.215758
219.9422,4.214783
220.0269,4.213881
220.1081,4.213015
220.1081,4.213015
220.2855,4.210598
220.4630,4.208167
220.6405,4.205723
220.6405,4.205723
220.7529,4.205208
220.8653,4.204731
220.9777,4.204333
220.9777,4.204333
221.3138,4.204351
221.6463,4.204369
221.9716,4.204387
221.9716,4.204387
222.1956,4.205404
222.4196,4.206341
222.6436,4.207236
222.6436,4.207236
222.7075,4.207765
222.7714,4.208293
222.8352,4.208820
222.8352,4.208820
222.9945,4.209824
223.1502,4.210747
223.2988,4.211629
223.2988,4.211629
223.5059,4.213365
223.7093,4.215055
223.9057,4.216662
223.9057,4.216662
224.2565,4.220555
224.6074,4.224339
224.9583,4.228053
224.9583,4.228053
225.6754,4.234486
226.0023,4.237479
226.2191,4.239651
226.2191,4.239651
226.3144,4.240143
226.4062,4.240635
226.4909,4.241125
226.4909,4.241125
226.5878,4.242089
226.6706,4.242763
226.8102,4.243726
226.8102,4.243726
227.0175,4.244696
227.2213,4.245628
227.4180,4.246486
227.4180,4.246486
227.6214,4.246970
227.8177,4.247418
228.0105,4.247794
228.0105,4.247794
228.3264,4.247810
228.6351,4.247825
228.9403,4.247840
228.9403,4.247840
229.1923,4.247214
229.4372,4.246587
229.6786,4.245958
229.6786,4.245958
229.8187,4.244842
229.9517,4.243723
230.0811,4.242600
230.0811,4.242600
230.2583,4.240829
230.4355,4.239051
230.6127,4.237266
230.6127,4.237266
230.7090,4.235845
230.8017,4.234493
230.8872,4.233174
230.8872,4.233174
230.9517,4.232400
231.0162,4.231699
231.0806,4.231033
231.0806,4.231033
231.1769,4.229592
231.2696,4.228220
231.3551,4.226881
231.3551,4.226881
231.4029,4.226387
231.4470,4.225930
231.4840,4.225547
231.4840,4.225547
231.5320,4.224590
231.5763,4.223706
231.6136,4.222858
231.6136,4.222858
231.6452,4.222571
231.6732,4.222360
231.6940,4.222186
231.6940,4.222186
231.8717,4.219315
232.0494,4.216462
232.2270,4.213668
232.2270,4.213668
232.2750,4.212640
232.3194,4.211648
232.3566,4.210731
232.3566,4.210731
232.6050,4.206502
232.7600,4.203681
232.9547,4.199854
232.9547,4.199854
233.0510,4.198306
233.1437,4.196832
233.2293,4.195392
233.2293,4.195392
233.3701,4.192335
233.5039,4.189297
233.6340,4.186319
233.6340,4.186319
233.6818,4.185777
233.7259,4.185275
233.7629,4.184854
233.7629,4.184854
233.9523,4.180657
234.1346,4.176502
234.3133,4.172349
234.3133,4.172349
234.3610,4.171789
234.4052,4.171271
234.4422,4.170836
234.4422,4.170836
234.6683,4.165489
234.8908,4.160120
235.1061,4.154770
235.1061,4.154770
235.1544,4.154180
235.2028,4.153589
235.2511,4.152997
235.2511,4.152997
235.5152,4.145808
235.7864,4.138637
236.0613,4.131066
236.0613,4.131066
236.5099,4.119102
236.8111,4.110599
237.0006,4.105328
237.0006,4.105328
237.0932,4.102230
237.1786,4.099160
237.2604,4.096168
237.2604,4.096168
237.3089,4.095106
237.3573,4.094142
237.4057,4.093227
237.4057,4.093227
237.4982,4.090331
237.5835,4.087517
237.6652,4.084736
237.6652,4.084736
237.7136,4.082177
237.7584,4.079602
237.7961,4.077012
237.7961,4.077012
237.8443,4.076551
237.8925,4.076143
237.9407,4.075839
237.9407,4.075839
237.9893,4.072820
238.0342,4.069887
238.0719,4.066988
238.0719,4.066988
238.1196,4.066579
238.1636,4.066277
238.2005,4.066028
238.2005,4.066028
238.2488,4.065304
238.2972,4.064578
238.3455,4.063851
238.3455,4.063851
238.5716,4.057000
238.7941,4.050094
239.0094,4.043190
239.0094,4.043190
239.0578,4.042171
239.1062,4.041149
239.1546,4.040124
239.1546,4.040124
239.2028,4.037882
239.2474,4.035743
239.2849,4.033652
239.2849,4.033652
239.3325,4.033210
239.3766,4.032885
239.4134,4.032616
239.4134,4.032616
239.4613,4.031571
239.5055,4.030523
239.5426,4.029473
239.5426,4.029473
239.7800,4.021964
239.9850,4.015653
240.2223,4.007899
240.2223,4.007899
240.3186,4.005684
240.4112,4.003457
240.4968,4.001218
240.4968,4.001218
240.5448,3.999540
240.5892,3.997919
240.6264,3.996417
240.6264,3.996417
240.6741,3.995577
240.7183,3.994799
240.7553,3.994146
240.7553,3.994146
240.8315,3.991292
240.9005,3.988484
240.9660,3.985787
240.9660,3.985787
241.0137,3.984915
241.0579,3.984041
241.0949,3.983165
241.0949,3.983165
241.2088,3.979168
241.4017,3.973077
241.8387,3.959412
241.8387,3.959412
241.8864,3.958497
241.9306,3.957649
241.9676,3.956937
241.9676,3.956937
242.0155,3.955079
242.0599,3.953282
242.0972,3.951618
242.0972,3.951618
242.1455,3.950687
242.1938,3.949824
242.2421,3.949100
242.2421,3.949100
242.2900,3.947291
242.3344,3.945616
242.3716,3.944005
242.3716,3.944005
242.4193,3.943045
242.4635,3.942083
242.5006,3.941118
242.5006,3.941118
242.5970,3.937895
242.6898,3.934720
242.7754,3.931668
242.7754,3.931668
242.8674,3.929358
242.9523,3.927036
243.0336,3.924700
243.0336,3.924700
243.0821,3.922786
243.1306,3.921014
243.1791,3.919310
243.1791,3.919310
243.2269,3.918294
243.2711,3.917275
243.3081,3.916253
243.3081,3.916253
243.3561,3.914301
243.4004,3.912494
243.4376,3.910755
243.4376,3.910755
243.5337,3.908693
243.6262,3.906699
243.7115,3.904851
243.7115,3.904851
243.7595,3.902847
243.8038,3.900991
243.8410,3.899205
243.8410,3.899205
243.9168,3.897535
243.9854,3.896018
244.0505,3.894575
244.0505,3.894575
244.0984,3.892523
244.1428,3.890622
244.1800,3.888793
244.1800,3.888793
244.3202,3.885623
244.4533,3.882594
244.5828,3.879626
244.5828,3.879626
244.7877,3.873761
244.9854,3.867985
245.1796,3.862217
245.1796,3.862217
245.3681,3.857954
245.5494,3.853648
245.7272,3.849299
245.7272,3.849299
245.9046,3.844217
246.0819,3.839257
246.2592,3.834332
246.2592,3.834332
246.4052,3.831478
246.5263,3.828788
246.7261,3.823933
246.7261,3.823933
246.8219,3.822673
246.9142,3.821410
246.9993,3.820141
246.9993,3.820141
247.0471,3.818880
247.0912,3.817710
247.1282,3.816728
247.1282,3.816728
247.2240,3.815463
247.3163,3.814291
247.4014,3.813307
247.4014,3.813307
247.4491,3.812010
247.4933,3.810708
247.5303,3.809402
247.5303,3.809402
247.6220,3.808115
247.7065,3.806921
247.7875,3.805920
247.7875,3.805920
247.8358,3.804617
247.8841,3.803409
247.9324,3.802395
247.9324,3.802395
248.1569,3.798536
248.3778,3.794844
248.5916,3.791220
248.5916,3.791220
248.7684,3.788514
248.9452,3.785894
249.1220,3.783465
249.1220,3.783465
249.4114,3.778364
249.7008,3.773203
249.9903,3.767980
249.9903,3.767980
250.1027,3.766567
250.2152,3.765258
250.3276,3.764161
250.3276,3.764161
250.4033,3.761880
250.4720,3.759805
250.5370,3.757829
250.5370,3.757829
250.6287,3.756380
250.7132,3.755035
250.7941,3.753907
250.7941,3.753907
250.8419,3.752419
250.8860,3.750926
250.9231,3.749426
250.9231,3.749426
251.0189,3.747949
251.1112,3.746579
251.1962,3.745429
251.1962,3.745429
251.2440,3.743931
251.2881,3.742540
251.3251,3.741372
251.3251,3.741372
251.4209,3.739867
251.5132,3.738471
251.5983,3.737300
251.5983,3.737300
251.8938,3.730887
252.0855,3.726956
252.3380,3.722168
252.3380,3.722168
252.3857,3.720567
252.4299,3.718960
252.4670,3.717346
252.4670,3.717346
252.6921,3.712648
252.9172,3.708144
253.1422,3.703718
253.1422,3.703718
253.2067,3.701489
253.2711,3.699249
253.3356,3.696998
253.3356,3.696998
253.4756,3.693627
253.6084,3.690357
253.7377,3.687320
253.7377,3.687320
253.8335,3.685615
253.9258,3.684033
254.0108,3.682705
254.0108,3.682705
254.1028,3.679213
254.1875,3.675823
254.2687,3.672672
254.2687,3.672672
254.3645,3.670909
254.4568,3.669273
254.5419,3.667899
254.5419,3.667899
254.6522,3.663925
254.8233,3.658690
255.2017,3.647539
255.2017,3.647539
255.2775,3.644554
255.3461,3.641834
255.4112,3.639239
255.4112,3.639239
255.5029,3.637334
255.5874,3.635564
255.6683,3.634078
255.6683,3.634078
255.7644,3.630342
255.8568,3.626870
255.9421,3.623517
255.9421,3.623517
256.0379,3.621517
256.1302,3.619507
256.2153,3.617487
256.2153,3.617487
256.2631,3.615474
256.3072,3.613604
256.3442,3.612031
256.3442,3.612031
256.4401,3.610003
256.5323,3.608119
256.6174,3.606537
256.6174,3.606537
256.7296,3.601644
256.8382,3.596695
256.9397,3.591687
256.9397,3.591687
257.0355,3.589535
257.1278,3.587371
257.2129,3.585195
257.2129,3.585195
257.3048,3.581011
257.3895,3.577117
257.4707,3.573355
257.4707,3.573355
257.6107,3.568868
257.7435,3.564505
257.8728,3.560441
257.8728,3.560441
257.9485,3.557342
258.0171,3.554218
258.0822,3.551071
258.0822,3.551071
258.1780,3.548736
258.2702,3.546567
258.3553,3.544743
258.3553,3.544743
258.4472,3.539937
258.5320,3.535259
258.6132,3.530899
258.6132,3.530899
258.7090,3.528453
258.8012,3.526179
258.8863,3.524268
258.8863,3.524268
259.0468,3.515785
259.2038,3.507133
259.3536,3.498303
259.3536,3.498303
259.4453,3.495665
259.5298,3.493211
259.6107,3.491147
259.6107,3.491147
259.8193,3.482034
260.0244,3.472935
260.2222,3.464071
260.2222,3.464071
260.3180,3.461218
260.4103,3.458562
260.4954,3.456328
260.4954,3.456328
260.6241,3.450441
260.7528,3.444699
260.8815,3.439336
260.8815,3.439336
261.2172,3.427380
261.3923,3.420545
261.5567,3.413113
261.5567,3.413113
261.6692,3.409908
261.7816,3.406925
261.8940,3.404417
261.8940,3.404417
262.0227,3.397777
262.1514,3.391289
262.2801,3.385220
262.2801,3.385220
262.4884,3.378613
262.6930,3.372436
262.8905,3.366437
262.8905,3.366437
263.0674,3.359204
263.2442,3.352127
263.4209,3.345500
263.4209,3.345500
263.8541,3.330650
264.1123,3.322128
264.4168,3.312844
264.4168,3.312844
264.7256,3.301797
265.0771,3.290160
265.4287,3.277540
265.4287,3.277540
265.5887,3.273177
265.7450,3.269106
265.8942,3.265676
265.8942,3.265676
265.9859,3.261159
266.0704,3.256938
266.1514,3.253376
266.1514,3.253376
266.8047,3.236027
267.4510,3.217953
268.0937,3.199092
268.0937,3.199092
268.3827,3.188480
268.6717,3.178019
268.9607,3.168154
268.9607,3.168154
269.6827,3.148617
270.4040,3.128260
271.1238,3.107113
271.8412,3.085215
272.5555,3.062622
272.5555,3.062622
273.9933,3.032753
274.7003,3.016043
275.2827,2.999185
275.2827,2.999185
275.3951,2.990824
275.5075,2.982951
275.6199,2.976261
275.6199,2.976261
276.3738,2.958838
277.1277,2.941404
277.8816,2.924737
277.8816,2.924737
278.6187,2.911892
279.3523,2.898651
280.9768,2.839726
281.3461,2.835945
281.3461,2.835945
281.8611,2.819665
282.3129,2.805854
282.8809,2.789559
283.7446,2.764997
285.0832,2.724661
285.0832,2.724661
285.9325,2.710059
286.7781,2.696207
287.6166,2.684490
287.6166,2.684490
288.1091,2.667772
288.5944,2.651770
289.0761,2.638050
##END=
