##TITLE=Benzenamine, N-methyl-2,4-dinitro-
##JCAMP-DX=4.24
##DATA TYPE=UV/VIS SPECTRUM
##ORIGIN=INSTITUTE OF ENERGY PROBLEMS OF CHEMICAL PHYSICS, RAS
##OWNER=INEP CP RAS, NIST OSRD
Collection (C) 2007 copyright by the U.S. Secretary of Commerce
on behalf of the United States of America. All rights reserved.
##CAS REGISTRY NO=2044-88-4
##MOLFORM=C7H7N3O4
##SOURCE REFERENCE=RAS UV No. 7280
##$NIST SQUIB=1964KAM/ADO4018-4021
##$NIST SOURCE=TSGMTE
##SPECTROMETER/DATA SYSTEM=n.i.g.
##XUNITS=Wavelength (nm)
##YUNITS=Logarithm epsilon
##XFACTOR=1.000000
##YFACTOR=1.000000
##FIRSTX=312.6847
##LASTX=447.0574
##FIRSTY=3.72717
##MAXX=447.057
##MINX=312.685
##MAXY=4.2041
##MINY=3.18033
##NPOINTS=386
##$REF AUTHOR=Kamlet, M.J.; Adolph, H.G.; Hoppsommer, J.C.
##$REF TITLE=Steric enhancement of resonance. II. Absorption spectra of N-alkyl- and N,N-dialkyl-2,4-dinitroanilines
##$REF JOURNAL=J. Am. Chem. Soc.
##$REF VOLUME=86
##$REF PAGE=4018-4021
##$REF DATE=1964
##XYPOINTS=(XY..XY)
312.6847,3.727168
313.0739,3.739608
313.1059,3.750045
313.8760,3.756210
314.0104,3.763022
314.2114,3.767802
314.5739,3.779233
314.6091,3.783645
314.6286,3.772823
314.6286,3.772823
314.7645,3.789846
315.5325,3.796641
315.6004,3.800655
315.6683,3.804631
315.7361,3.808572
315.7361,3.808572
316.1770,3.824847
316.2339,3.817303
316.7902,3.830469
316.7902,3.830469
317.2985,3.842775
317.7811,3.854265
318.0400,3.865663
318.0400,3.865663
318.6334,3.869869
318.7926,3.878630
318.7926,3.878630
318.8017,3.873312
319.2902,3.884904
319.5248,3.890938
319.6816,3.897406
320.3017,3.901796
320.5917,3.910788
320.9860,3.919231
321.3363,3.927771
321.8538,3.937028
322.1035,3.939415
322.3566,3.941788
322.6162,3.944150
322.6162,3.944150
322.6893,3.949389
322.8620,3.953360
322.9555,3.964075
323.2872,3.957635
323.3105,3.966231
323.6688,3.968345
324.0338,3.970434
324.0338,3.970434
324.0547,3.975949
324.2222,3.980171
324.6485,3.990477
324.7027,3.987936
324.7769,3.984176
324.7769,3.984176
324.8256,3.993705
324.8256,3.993705
325.4377,3.996147
325.5802,4.002738
325.5802,4.002738
325.5816,3.999083
325.9713,4.006801
326.1707,4.010268
326.2511,4.014544
327.0056,4.023159
327.1718,4.026284
327.3449,4.028215
327.6731,4.030613
327.6731,4.030613
327.7723,4.035631
327.8661,4.038006
328.0349,4.039807
328.5505,4.047630
328.7863,4.049654
329.0075,4.051012
329.4038,4.052872
329.4038,4.052872
329.4402,4.055724
329.4800,4.058533
329.5266,4.061311
329.8171,4.068749
330.0981,4.069948
330.3792,4.071130
330.6603,4.072285
330.6603,4.072285
330.9098,4.077883
331.2310,4.082902
331.4617,4.088040
331.8293,4.094454
332.4340,4.098763
332.7705,4.102552
332.9554,4.106763
332.9554,4.106763
333.3755,4.109480
333.5361,4.112055
333.5562,4.114756
334.3165,4.120053
334.6646,4.125355
335.1286,4.130415
335.5534,4.135396
335.7836,4.140457
335.7836,4.140457
336.5070,4.143960
336.8424,4.147798
337.4655,4.151332
337.4655,4.151332
337.4793,4.152721
337.4999,4.154085
337.5239,4.155435
337.5239,4.155435
338.3099,4.159382
338.9682,4.163554
339.4685,4.167815
339.7804,4.172036
339.7804,4.172036
340.4902,4.174696
340.9890,4.176822
341.3071,4.179877
341.3071,4.179877
341.9166,4.182428
342.1908,4.184683
342.3688,4.187564
342.3688,4.187564
342.8026,4.188857
343.2431,4.190127
343.6870,4.191384
343.6870,4.191384
344.0738,4.194600
344.6775,4.197624
345.4690,4.200269
346.4194,4.202350
347.4997,4.203687
348.6806,4.204097
349.9332,4.203393
349.9332,4.203393
350.0892,4.201556
350.3790,4.200377
350.9734,4.198879
350.9734,4.198879
351.3139,4.195898
351.6948,4.193559
352.6371,4.192385
352.6371,4.192385
352.7287,4.189744
352.9901,4.187121
353.7489,4.185079
353.7489,4.185079
353.8607,4.183519
353.9724,4.181944
354.0843,4.180344
354.0843,4.180344
354.4968,4.179876
354.7812,4.179772
355.1090,4.179241
355.1809,4.179946
355.1809,4.179946
355.1967,4.175974
355.2535,4.180636
355.3295,4.181306
355.4123,4.181966
355.4335,4.173726
356.2386,4.171040
356.2386,4.171040
356.3334,4.168151
356.5730,4.165700
357.4226,4.164049
357.4226,4.164049
357.6367,4.161979
357.6897,4.157416
357.6897,4.157416
357.6939,4.159944
358.4199,4.154620
358.7840,4.151647
359.0492,4.147570
359.0492,4.147570
359.2306,4.147339
359.4155,4.147098
359.6071,4.146836
359.6071,4.146836
359.6082,4.146538
359.6095,4.146219
359.6108,4.145889
360.2510,4.139467
360.5360,4.137163
360.9958,4.132741
361.5385,4.128409
361.8748,4.122760
362.4163,4.118610
362.8680,4.113488
363.1720,4.108584
363.6601,4.102152
364.1550,4.097176
364.5479,4.090812
364.8151,4.085040
364.8151,4.085040
365.2716,4.082792
365.3013,4.078800
365.3013,4.078800
365.3267,4.076228
365.4050,4.079190
365.4784,4.081464
365.4907,4.074045
365.5087,4.079567
365.6125,4.079919
365.6125,4.079919
365.9556,4.071578
365.9556,4.071578
366.0896,4.068689
366.2304,4.065755
366.3746,4.062790
366.3746,4.062790
367.1855,4.060090
367.1976,4.054965
367.7370,4.049567
367.7370,4.049567
367.9233,4.047568
368.0718,4.044855
368.3099,4.039054
368.3099,4.039054
369.1095,4.034637
369.4181,4.029433
369.6032,4.023127
369.6032,4.023127
370.2108,4.019808
370.5183,4.015354
370.6599,4.010614
370.6599,4.010614
371.2241,4.008195
371.4886,4.006806
371.6802,4.005263
371.9425,3.997408
372.4729,3.990508
373.1473,3.982767
373.9588,3.975131
374.9006,3.968612
374.9006,3.968612
375.0152,3.964945
375.1299,3.961216
375.2446,3.957437
375.2446,3.957437
375.7451,3.953332
376.1454,3.949215
376.4483,3.944064
377.3878,3.940182
377.6110,3.934812
377.8342,3.929339
378.0574,3.923779
378.0574,3.923779
378.6129,3.919570
379.0222,3.915095
379.4103,3.909647
379.4103,3.909647
379.9177,3.906177
380.3287,3.904017
380.5764,3.896878
380.6734,3.901656
380.6734,3.901656
380.7785,3.893916
381.4776,3.890761
381.4776,3.890761
381.9546,3.884017
382.4790,3.879879
383.4630,3.874301
385.3571,3.865130
385.6151,3.863945
385.8765,3.862716
386.1446,3.861464
387.5530,3.854859
387.9167,3.853306
388.2837,3.851727
388.6575,3.850100
390.2288,3.844378
390.3041,3.844260
390.3794,3.844101
390.4547,3.843921
392.2669,3.837653
392.5728,3.836877
392.8855,3.836057
393.2016,3.835214
395.0850,3.830788
395.3120,3.829993
395.5425,3.829153
395.7797,3.828291
397.5879,3.823886
397.8268,3.822414
398.0108,3.821756
398.2977,3.821350
400.2561,3.816785
400.7053,3.815676
400.9675,3.814750
401.2676,3.813215
402.5942,3.809539
402.8394,3.809442
403.0859,3.808635
403.5448,3.806421
405.2661,3.800101
405.7842,3.798008
406.3091,3.795858
406.8374,3.793675
408.4087,3.787152
408.6668,3.785656
408.9283,3.784156
409.1964,3.782651
410.6027,3.775944
410.9589,3.774547
411.3495,3.772502
411.7052,3.771467
411.7052,3.771467
411.7783,3.772595
411.7957,3.773794
411.8199,3.774940
411.8474,3.776059
412.0592,3.765990
412.8614,3.761559
413.7539,3.756936
415.4802,3.746650
415.5871,3.745465
415.6940,3.744251
415.8010,3.742981
417.8469,3.729305
417.9149,3.726974
418.0179,3.725660
418.1543,3.720632
418.1774,3.718948
418.2082,3.722150
418.2445,3.724245
418.2445,3.724245
419.7545,3.707173
419.7564,3.705865
419.7583,3.704523
419.7603,3.703119
419.8908,3.716589
420.5981,3.704600
421.2657,3.692117
421.5108,3.673689
421.5553,3.674496
421.6032,3.675239
421.6548,3.678183
421.6578,3.675950
421.6578,3.675950
421.8413,3.675811
422.0061,3.674704
422.2934,3.671667
422.3041,3.663540
422.5977,3.656860
422.8914,3.650009
423.1852,3.643016
423.9026,3.632877
423.9172,3.620660
424.0867,3.629455
424.1418,3.625255
424.8596,3.610010
425.1225,3.603600
425.3887,3.597020
425.6617,3.590302
426.1433,3.574937
426.3533,3.574968
426.5632,3.574999
426.7732,3.575030
436.2133,3.474136
436.4270,3.469634
436.6409,3.464983
436.8548,3.460232
438.1246,3.428542
438.3291,3.421782
438.5404,3.414803
438.7550,3.407653
440.3381,3.374314
440.3393,3.372547
440.3406,3.370647
440.3419,3.368675
441.6080,3.335373
441.7156,3.331089
441.8232,3.326762
441.9308,3.322392
443.1930,3.292343
443.4065,3.285927
443.6200,3.279415
443.8335,3.272803
445.2486,3.232859
445.4014,3.228227
445.5575,3.223547
445.7203,3.218817
446.9797,3.186826
447.0000,3.184671
447.0271,3.182508
447.0574,3.180335
##END=
