##TITLE=Hydantoin, 5,5-dimethyl-2,4-dithio-
##JCAMP-DX=4.24
##DATA TYPE=UV/VIS SPECTRUM
##ORIGIN=INSTITUTE OF ENERGY PROBLEMS OF CHEMICAL PHYSICS, RAS
##OWNER=INEP CP RAS, NIST OSRD
Collection (C) 2007 copyright by the U.S. Secretary of Commerce
on behalf of the United States of America. All rights reserved.
##CAS REGISTRY NO=20513-25-1
##MOLFORM=C5H8N2S2
##MP=144.5
##SOURCE REFERENCE=RAS UV No. 3062
##$NIST SQUIB=1963EDW/CHI1650-1651
##$NIST SOURCE=TSGMTE
##SPECTROMETER/DATA SYSTEM=n.i.g.
##XUNITS=Wavelength (nm)
##YUNITS=Logarithm epsilon
##XFACTOR=1.000000
##YFACTOR=1.000000
##FIRSTX=230.2875
##LASTX=337.8649
##FIRSTY=3.4931
##MAXX=337.865
##MINX=230.287
##MAXY=4.44219
##MINY=2.82347
##NPOINTS=209
##$REF AUTHOR=Edward, J.T.; Chin, O.J.
##$REF TITLE=Thiohydantoins. V. Ionization of 2,4-dithiohydantoins as acids
##$REF JOURNAL=Can. J. Chem.
##$REF VOLUME=41
##$REF PAGE=1650-1651
##$REF DATE=1963
##XYPOINTS=(XY..XY)
230.2875,3.493102
231.2553,3.453626
232.1870,3.410064
233.1099,3.362525
234.0515,3.311298
235.0389,3.256992
236.0997,3.200738
237.2610,3.144476
238.5503,3.091289
239.9950,3.045635
240.2805,3.032655
241.1639,3.042308
242.0532,3.050626
242.9539,3.058238
242.9539,3.058238
243.9274,3.116351
245.0255,3.175904
246.2122,3.234392
247.4514,3.290330
248.7068,3.342907
249.9424,3.391732
251.1218,3.436665
252.2091,3.477702
253.1680,3.514908
253.9625,3.548377
254.5562,3.578204
254.8417,3.593682
254.8417,3.593682
254.9205,3.586353
255.0051,3.578732
255.1013,3.570635
255.9717,3.634379
256.9533,3.666920
257.8111,3.693577
258.5700,3.715996
259.2546,3.735442
259.8897,3.752938
260.5001,3.769335
261.1105,3.785364
261.7456,3.801653
262.4302,3.818739
263.1891,3.837072
264.0469,3.857010
265.0285,3.878819
266.1585,3.902671
266.1585,3.902671
266.6840,3.919358
267.2730,3.937206
268.5909,3.972067
269.2944,3.987313
270.0105,4.000124
270.7267,4.009851
270.7267,4.009851
271.5470,4.030032
272.3453,4.048949
273.1191,4.066648
273.8661,4.083165
274.5838,4.098535
275.2700,4.112786
275.9221,4.125939
276.5380,4.138015
277.1151,4.149025
277.6511,4.158980
278.1437,4.167883
278.5904,4.175733
278.9889,4.182524
279.3367,4.188246
279.6316,4.192879
279.8712,4.196402
280.0530,4.198784
280.1747,4.199986
280.1747,4.199986
280.2765,4.205073
280.4005,4.209757
280.5666,4.214878
280.7943,4.221237
281.1036,4.229581
281.5142,4.240579
282.0459,4.254784
282.7183,4.272611
282.7183,4.272611
283.1392,4.280566
283.5844,4.288413
284.0424,4.296146
284.5016,4.303762
284.9505,4.311254
285.3777,4.318619
285.7715,4.325854
286.1204,4.332954
286.4130,4.339916
286.6377,4.346738
286.6377,4.346738
287.4114,4.358540
287.9912,4.368100
288.4124,4.375551
288.7103,4.380989
288.9202,4.384482
289.0775,4.386071
289.0775,4.386071
289.3067,4.393132
289.6062,4.399660
289.9776,4.405736
290.4227,4.411437
290.9431,4.416836
291.5406,4.422002
292.2170,4.426998
292.9738,4.431887
293.8129,4.436728
294.7359,4.441577
294.7359,4.441577
295.2291,4.441782
295.7222,4.441987
296.2154,4.442193
296.2154,4.442193
296.6576,4.440235
297.1056,4.438245
297.5651,4.436199
297.5651,4.436199
298.0940,4.431453
298.5987,4.426607
299.0806,4.421661
299.5414,4.416615
299.9824,4.411469
300.4052,4.406224
300.8113,4.400879
301.2022,4.395434
301.5794,4.389889
301.9444,4.384245
302.2988,4.378502
302.6440,4.372659
302.9815,4.366717
303.3129,4.360675
303.6396,4.354535
303.9631,4.348297
304.2851,4.341960
304.6069,4.335526
304.9300,4.328994
305.2561,4.322365
305.5865,4.315640
305.9229,4.308819
305.9229,4.308819
306.1254,4.301980
306.3274,4.295029
306.5289,4.287963
306.7300,4.280779
306.9307,4.273471
307.1312,4.266037
307.3315,4.258470
307.5316,4.250767
307.7318,4.242922
307.9319,4.234931
308.1322,4.226787
308.3328,4.218485
308.5335,4.210018
308.7346,4.201380
308.9362,4.192563
309.1382,4.183560
309.3408,4.174363
309.5441,4.164964
309.7481,4.155354
309.9529,4.145522
310.1586,4.135458
310.3653,4.125151
310.5730,4.114590
310.7818,4.103761
310.9919,4.092650
311.2031,4.081243
311.4158,4.069523
311.6298,4.057472
311.8454,4.045072
312.0625,4.032302
312.2813,4.019138
312.5018,4.005557
312.7241,3.991531
312.9483,3.977030
313.1744,3.962020
313.4026,3.946465
313.6329,3.930325
313.8654,3.913552
313.8654,3.913552
314.0641,3.909930
314.3845,3.898743
315.0553,3.869788
316.3052,3.808137
316.3052,3.808137
316.5223,3.803441
316.7911,3.795271
317.1511,3.782442
317.6420,3.763498
318.3031,3.736519
319.1742,3.698759
320.2946,3.645939
321.7041,3.570635
321.7041,3.570635
321.7450,3.561319
322.0313,3.546252
322.8085,3.514556
324.3221,3.450389
326.8174,3.320561
326.8174,3.320561
328.0822,3.275164
329.2898,3.227683
330.4606,3.177957
331.6153,3.125816
332.7742,3.071088
333.9581,3.013608
335.1875,2.953229
336.4829,2.889854
337.8649,2.823474
##END=
