##TITLE=Benzoic acid, 2-hydroxy-, butyl ester
##JCAMP-DX=4.24
##DATA TYPE=UV/VIS SPECTRUM
##ORIGIN=INSTITUTE OF ENERGY PROBLEMS OF CHEMICAL PHYSICS, RAS
##OWNER=INEP CP RAS, NIST OSRD
Collection (C) 2007 copyright by the U.S. Secretary of Commerce
on behalf of the United States of America. All rights reserved.
##CAS REGISTRY NO=2052-14-4
##MOLFORM=C11H14O3
##BP=264
##SOURCE REFERENCE=RAS UV No. 19631
##$NIST SQUIB=1965LAN59
##$NIST SOURCE=TYUGLMTE
##SPECTROMETER/DATA SYSTEM=Unicam SP 500
##XUNITS=Wavelength (nm)
##YUNITS=Logarithm epsilon
##XFACTOR=1.0
##YFACTOR=1.0
##FIRSTX=202.51
##LASTX=347.32
##FIRSTY=4.426
##MAXX=347.32
##MINX=202.51
##MAXY=4.504
##MINY=0.977
##NPOINTS=152
##$REF AUTHOR=Lang (editor), L.
##$REF JOURNAL=Absorption Spectra in the Ultraviolet and Visible Region
##$REF VOLUME=5
##$REF PAGE=59
##$REF DATE=1965
##XYPOINTS=(XY..XY)
202.51,4.426
202.68,4.429
202.85,4.433
203.02,4.436
203.18,4.439
203.35,4.443
203.52,4.446
203.69,4.450
203.85,4.453
204.53,4.470
205.53,4.487
206.54,4.501
207.54,4.504
208.55,4.504
209.55,4.487
210.56,4.453
211.56,4.392
212.57,4.330
213.58,4.255
214.58,4.176
215.59,4.022
216.59,3.889
217.60,3.797
218.60,3.739
219.61,3.705
220.62,3.684
221.62,3.674
222.63,3.674
223.63,3.684
224.64,3.694
225.64,3.711
226.65,3.735
227.65,3.759
228.66,3.787
229.67,3.817
230.67,3.838
231.68,3.869
232.68,3.889
233.69,3.916
234.69,3.937
235.70,3.957
236.71,3.978
237.71,3.988
238.72,3.998
239.72,4.002
240.73,3.992
241.73,3.981
242.74,3.954
243.74,3.920
244.75,3.882
245.76,3.821
246.76,3.752
247.77,3.660
248.77,3.564
249.78,3.458
250.78,3.346
251.79,3.182
252.81,3.036
253.67,2.929
254.81,2.812
255.81,2.706
256.82,2.621
257.82,2.542
258.83,2.474
259.83,2.419
260.84,2.371
261.85,2.348
262.85,2.337
263.85,2.340
264.89,2.350
265.87,2.371
266.87,2.409
267.88,2.457
268.89,2.498
269.89,2.542
270.90,2.597
271.90,2.652
272.91,2.703
273.91,2.747
274.92,2.795
275.92,2.843
276.93,2.894
277.94,2.932
278.94,2.980
279.95,3.021
280.95,3.065
281.96,3.106
282.96,3.144
283.97,3.185
284.98,3.223
285.98,3.257
286.99,3.288
287.99,3.322
289.00,3.356
290.00,3.390
291.01,3.421
292.01,3.452
293.02,3.476
294.03,3.503
295.03,3.523
296.04,3.544
297.04,3.561
298.05,3.578
299.05,3.592
300.06,3.609
301.07,3.626
302.07,3.636
303.08,3.646
304.08,3.653
305.09,3.657
306.09,3.660
307.10,3.660
308.10,3.657
309.11,3.653
310.12,3.650
311.12,3.640
312.13,3.629
313.13,3.619
314.14,3.599
315.14,3.575
316.15,3.554
317.16,3.523
318.16,3.496
319.17,3.455
320.17,3.414
321.18,3.366
322.18,3.315
323.19,3.250
324.19,3.182
325.20,3.113
326.21,3.045
327.21,2.973
328.22,2.884
329.22,2.799
330.23,2.713
331.23,2.618
332.24,2.481
333.25,2.375
334.25,2.269
335.24,2.168
336.34,2.059
337.26,1.964
338.53,1.852
339.33,1.761
340.28,1.664
341.29,1.558
342.30,1.445
343.34,1.335
344.31,1.247
345.31,1.158
346.32,1.076
347.32,0.977
##END=
