##TITLE=1,2-Cyclohexanedione, 3,3,6,6-tetramethyl-
##JCAMP-DX=4.24
##DATA TYPE=UV/VIS SPECTRUM
##ORIGIN=INSTITUTE OF ENERGY PROBLEMS OF CHEMICAL PHYSICS, RAS
##OWNER=INEP CP RAS, NIST OSRD
Collection (C) 2007 copyright by the U.S. Secretary of Commerce
on behalf of the United States of America. All rights reserved.
##CAS REGISTRY NO=20651-89-2
##MOLFORM=C10H16O2
##MP=114.2-114.8
##SOURCE REFERENCE=RAS UV No. 9894
##$NIST SQUIB=1950LEO/MAD5388
##$NIST SOURCE=TYUGLMTE
##SPECTROMETER/DATA SYSTEM=Beckman DU
##XUNITS=Wavelength (nm)
##YUNITS=Logarithm epsilon
##XFACTOR=1.0
##YFACTOR=1.0
##FIRSTX=260.28
##LASTX=472.85
##FIRSTY=1.465
##MAXX=472.85
##MINX=260.28
##MAXY=1.498
##MINY=0.591
##NPOINTS=293
##$REF AUTHOR=Leonard, N.J.; Mader, P.M.
##$REF JOURNAL=J. Am. Chem. Soc.
##$REF VOLUME=72
##$REF PAGE=5388
##$REF DATE=1950
##XYPOINTS=(XY..XY)
260.28,1.465
260.55,1.464
260.83,1.463
261.38,1.450
261.93,1.443
262.48,1.436
263.04,1.425
263.59,1.421
264.14,1.416
264.69,1.406
265.25,1.402
265.80,1.402
266.35,1.396
266.90,1.391
267.45,1.389
268.56,1.381
269.11,1.377
269.62,1.370
270.21,1.364
270.69,1.361
271.22,1.358
271.87,1.358
272.42,1.358
272.98,1.358
273.53,1.358
274.07,1.358
274.60,1.360
275.26,1.361
275.74,1.364
276.29,1.369
276.98,1.371
277.94,1.369
278.46,1.367
279.05,1.364
280.71,1.358
281.24,1.356
281.81,1.353
282.96,1.350
284.02,1.347
284.57,1.347
285.12,1.346
285.67,1.346
286.78,1.345
287.29,1.343
287.83,1.342
288.44,1.339
289.54,1.333
290.09,1.327
290.56,1.324
291.20,1.319
291.75,1.312
292.85,1.300
293.40,1.296
294.51,1.285
295.06,1.281
296.00,1.272
296.72,1.265
297.42,1.259
297.96,1.255
298.73,1.249
299.48,1.241
300.03,1.237
300.51,1.233
301.13,1.227
302.24,1.215
303.34,1.202
303.90,1.193
304.48,1.187
305.00,1.178
305.55,1.172
306.77,1.157
307.23,1.151
307.76,1.146
308.87,1.131
309.42,1.126
309.97,1.120
311.63,1.106
312.18,1.099
312.73,1.097
313.83,1.090
314.39,1.085
314.98,1.079
315.49,1.073
316.50,1.060
317.15,1.048
317.70,1.042
318.25,1.032
318.80,1.021
319.41,1.009
319.91,0.995
320.46,0.986
321.01,0.980
321.46,0.973
322.12,0.961
322.78,0.950
323.44,0.935
323.94,0.926
324.52,0.917
325.10,0.906
325.98,0.892
326.53,0.884
327.09,0.877
328.19,0.857
328.74,0.849
329.55,0.834
330.13,0.824
330.71,0.813
331.50,0.801
333.71,0.752
334.16,0.741
334.76,0.727
335.27,0.713
335.77,0.700
336.27,0.690
336.88,0.680
337.58,0.670
338.59,0.660
340.34,0.647
341.81,0.643
343.65,0.640
344.43,0.639
345.64,0.638
346.35,0.638
346.95,0.639
347.66,0.638
348.76,0.637
349.77,0.636
350.78,0.636
351.38,0.636
352.09,0.642
353.00,0.645
354.14,0.647
354.69,0.647
355.31,0.647
356.02,0.645
356.92,0.640
358.56,0.627
359.66,0.620
360.75,0.612
361.76,0.608
362.57,0.603
363.53,0.598
364.88,0.594
366.29,0.591
366.84,0.591
367.39,0.591
367.94,0.591
368.50,0.591
369.05,0.591
370.02,0.593
371.03,0.597
371.81,0.598
372.34,0.601
372.91,0.606
374.05,0.617
374.75,0.623
376.78,0.640
377.33,0.647
377.88,0.654
378.44,0.660
380.64,0.685
381.20,0.691
381.75,0.697
382.21,0.705
383.01,0.714
383.96,0.725
384.93,0.738
385.61,0.747
386.17,0.752
386.64,0.759
387.27,0.767
388.15,0.777
389.36,0.793
390.03,0.801
390.58,0.805
391.13,0.814
391.69,0.819
393.34,0.840
394.00,0.848
394.80,0.857
395.00,0.861
396.11,0.876
396.92,0.887
397.21,0.892
398.87,0.914
399.42,0.921
399.97,0.931
400.85,0.945
402.18,0.964
402.76,0.971
403.28,0.977
405.49,1.004
406.04,1.015
406.60,1.023
407.70,1.045
408.25,1.053
408.80,1.061
409.91,1.083
410.46,1.085
411.01,1.095
412.67,1.122
413.22,1.129
413.77,1.137
414.88,1.156
415.43,1.162
415.98,1.170
416.53,1.178
417.09,1.187
417.64,1.199
418.19,1.206
418.78,1.215
419.29,1.222
419.85,1.229
420.95,1.246
421.50,1.252
422.06,1.257
422.81,1.270
423.41,1.277
423.71,1.281
424.82,1.296
425.37,1.303
425.93,1.312
426.47,1.319
427.02,1.324
427.58,1.331
428.25,1.338
428.68,1.343
429.23,1.349
429.79,1.355
430.36,1.363
430.89,1.368
431.87,1.379
432.55,1.386
433.48,1.398
434.20,1.406
434.89,1.414
435.40,1.419
435.86,1.423
436.41,1.426
437.01,1.432
438.07,1.439
438.62,1.443
439.17,1.448
439.83,1.451
440.28,1.454
440.83,1.457
441.34,1.460
441.93,1.461
442.75,1.465
443.59,1.468
444.14,1.470
445.17,1.474
445.98,1.477
446.98,1.481
447.79,1.484
448.39,1.487
449.10,1.490
449.90,1.493
450.77,1.496
451.32,1.498
451.87,1.498
453.13,1.497
454.08,1.497
454.63,1.496
455.18,1.495
455.74,1.495
457.39,1.489
457.94,1.487
458.50,1.487
460.15,1.479
460.71,1.477
461.19,1.474
461.81,1.470
462.30,1.467
462.91,1.464
463.50,1.460
464.02,1.455
464.57,1.451
465.12,1.446
465.67,1.438
466.22,1.433
466.78,1.425
467.37,1.416
467.88,1.406
468.44,1.393
468.99,1.383
469.54,1.370
470.19,1.352
470.64,1.337
471.20,1.322
471.75,1.313
472.30,1.303
472.85,1.285
##END=
