##TITLE=Fluoranthene
##JCAMP-DX=4.24
##DATA TYPE=UV/VIS SPECTRUM
##ORIGIN=INSTITUTE OF ENERGY PROBLEMS OF CHEMICAL PHYSICS, RAS
##OWNER=INEP CP RAS, NIST OSRD
Collection (C) 2007 copyright by the U.S. Secretary of Commerce
on behalf of the United States of America. All rights reserved.
##CAS REGISTRY NO=206-44-0
##MOLFORM=C16H10
##MP=107.8
##BP=384
##SOURCE REFERENCE=RAS UV No. 382
##$NIST SQUIB=1961STR/SUZ153-168
##$NIST SOURCE=TSGMTE
##SPECTROMETER/DATA SYSTEM=n.i.g.
##XUNITS=Wavelength (nm)
##YUNITS=Logarithm epsilon
##XFACTOR=1.000000
##YFACTOR=1.000000
##FIRSTX=243.0667
##LASTX=389.2258
##FIRSTY=4.72644
##MAXX=389.226
##MINX=243.067
##MAXY=4.73486
##MINY=3.35963
##NPOINTS=420
##$REF AUTHOR=Streitwieser, A., Jr.; Suzuki, S.
##$REF TITLE=An HMO treatment of the reduction of aromatic hydrocarbons with alkali metals; reduction of fluoranthene
##$REF JOURNAL=Tetrahedron
##$REF VOLUME=16
##$REF PAGE=153-168
##$REF DATE=1961
##XYPOINTS=(XY..XY)
243.0667,4.726441
243.2283,4.728256
243.3890,4.728247
244.8990,4.734856
245.7427,4.734814
247.2276,4.731295
247.5683,4.729657
247.5691,4.731278
247.7290,4.729649
247.9090,4.728020
249.7303,4.714356
249.8910,4.714348
250.2308,4.710887
252.0497,4.692361
252.3912,4.692344
252.7311,4.689086
253.2325,4.687237
253.2334,4.689060
253.3932,4.687229
253.5531,4.685601
253.8904,4.677076
253.8929,4.682140
254.0503,4.675447
254.0511,4.677068
254.2102,4.673819
254.2110,4.675439
254.3901,4.671986
254.3910,4.673809
254.5500,4.670358
254.5508,4.671978
255.0489,4.663648
255.0497,4.665268
255.2088,4.662019
256.7079,4.646751
257.3675,4.640033
259.2064,4.621304
259.2073,4.623127
259.3663,4.619675
259.5270,4.619667
259.6870,4.618039
261.6916,4.609430
262.1938,4.609404
262.3553,4.611017
262.8575,4.610991
264.8714,4.621018
265.2129,4.621001
267.0494,4.637722
267.2101,4.637714
267.3918,4.639528
267.5525,4.639519
269.0658,4.652813
269.2265,4.652805
269.3880,4.654417
269.5487,4.654409
271.2437,4.669516
271.4044,4.669508
271.7275,4.672935
271.9083,4.672926
274.2469,4.689622
274.5884,4.689604
274.5892,4.691225
274.9107,4.691209
277.0835,4.697784
277.7465,4.697750
277.9265,4.696121
278.0872,4.696113
278.4287,4.696096
280.2501,4.682634
280.4108,4.682626
280.7506,4.679165
282.5745,4.670565
282.7545,4.668936
283.0759,4.668920
283.2559,4.667290
283.4166,4.667282
283.7380,4.667266
285.4230,4.662116
286.0859,4.662083
286.9078,4.658598
287.0878,4.656968
287.4084,4.655332
287.4092,4.656952
287.5883,4.653499
288.0705,4.653475
288.2487,4.648402
288.2504,4.651845
288.5685,4.645145
289.2448,4.631538
289.2457,4.633362
289.4039,4.628289
289.4047,4.629910
289.7437,4.624829
290.3975,4.606362
290.5557,4.601290
290.5574,4.604733
290.7139,4.596217
290.7156,4.599661
291.3878,4.577750
291.3894,4.580991
291.5468,4.574298
291.5476,4.575919
291.7058,4.570846
291.7067,4.572669
292.3579,4.548936
292.3596,4.552380
292.5363,4.544065
292.5379,4.547306
292.6953,4.540614
292.6961,4.542234
293.1866,4.518712
293.1883,4.522155
293.3456,4.515260
293.3465,4.517083
293.8329,4.485053
293.8370,4.493358
293.9927,4.483221
294.1618,4.459715
294.1652,4.466399
294.4708,4.434581
294.4741,4.441265
294.6491,4.429508
294.6507,4.432749
294.9613,4.410856
295.1379,4.402541
295.1413,4.409226
295.2979,4.400913
295.6309,4.383880
295.6326,4.387324
295.7892,4.379010
295.7916,4.383872
296.2830,4.361970
296.2839,4.363793
296.4413,4.357100
296.4429,4.360341
296.6011,4.355269
297.0934,4.335190
297.2725,4.331737
297.2733,4.333358
297.4307,4.326665
297.4324,4.330109
298.0845,4.308198
298.0853,4.309819
298.2427,4.303126
298.2443,4.306367
298.4225,4.301294
299.0755,4.281207
299.0771,4.284448
299.2345,4.277755
299.2353,4.279376
299.4145,4.276125
300.0682,4.257456
300.0699,4.260900
300.2273,4.254207
300.2281,4.255827
300.3872,4.252578
301.0610,4.233908
301.2201,4.230659
301.2209,4.232279
301.3791,4.227207
301.3799,4.228828
301.5582,4.223755
301.5591,4.225578
302.3735,4.206900
302.5317,4.201828
302.5334,4.205272
302.7109,4.198578
302.7117,4.200198
303.5278,4.184965
304.1866,4.176626
304.1874,4.178247
305.5275,4.166430
306.0272,4.161341
306.1879,4.161333
306.3478,4.159704
308.1893,4.146039
308.3500,4.146031
309.1896,4.137683
310.5079,4.122424
310.8469,4.117343
310.8477,4.118963
311.0076,4.117335
311.1666,4.113883
311.1675,4.115706
312.5059,4.100446
313.0056,4.095357
314.4856,4.081912
315.1652,4.074991
316.3270,4.068247
317.1506,4.068206
317.6537,4.070004
317.9952,4.069986
318.6615,4.076638
319.3277,4.083289
319.6709,4.086715
319.6718,4.088336
321.5090,4.106677
321.5099,4.108500
322.0145,4.113336
322.0154,4.115159
322.1761,4.115151
322.1769,4.116772
322.3577,4.116762
322.3594,4.120206
322.5201,4.120198
322.5209,4.121818
322.6824,4.123431
322.6850,4.128495
323.0290,4.133542
323.1897,4.133534
323.3713,4.135145
323.3722,4.136968
323.5337,4.138581
323.5345,4.140201
323.6952,4.140193
323.6961,4.142016
323.8769,4.142007
323.8777,4.143627
324.0392,4.145240
324.0401,4.147063
324.2016,4.148675
324.2042,4.153739
324.3657,4.155352
324.3674,4.158795
325.0545,4.167066
325.2161,4.168881
325.3768,4.168873
325.3776,4.170493
325.5584,4.170484
325.7200,4.172097
325.7217,4.175540
325.8832,4.177153
325.8840,4.178773
326.0456,4.180588
326.0464,4.182209
326.2272,4.182200
326.2280,4.183820
326.3896,4.185635
326.3912,4.188876
327.9046,4.202372
328.4093,4.207411
328.4101,4.209031
330.4014,4.213995
332.2496,4.213902
332.4095,4.212273
332.5702,4.212265
333.0724,4.212240
333.2540,4.213851
335.0821,4.213759
336.2472,4.213700
336.4087,4.215313
337.2525,4.215270
337.2533,4.216891
337.7555,4.216865
339.2646,4.221853
339.5861,4.221837
339.9293,4.225264
340.0900,4.225256
341.9432,4.235291
342.2662,4.238515
342.4269,4.238507
342.4278,4.240330
342.7693,4.240313
344.7823,4.248517
345.4444,4.246863
345.4452,4.248484
347.6107,4.240069
347.9505,4.236608
349.9292,4.216252
350.1109,4.218066
350.2699,4.214614
350.2716,4.218057
350.4298,4.212985
350.4314,4.216226
350.5905,4.212977
350.5921,4.216218
352.4345,4.204376
352.7559,4.204360
352.9359,4.202730
353.0958,4.201102
353.0966,4.202722
353.2565,4.201094
353.4364,4.199262
355.0996,4.190872
355.9233,4.190831
357.2692,4.190763
357.4307,4.192375
357.5914,4.192367
357.7730,4.193979
358.2753,4.193953
358.2762,4.195776
358.5976,4.195760
360.2708,4.207425
360.4516,4.207416
360.6131,4.209028
360.7738,4.209020
362.1231,4.215637
362.6052,4.215612
362.7852,4.213983
362.9459,4.213975
363.1058,4.212346
364.6074,4.202142
364.9464,4.197061
364.9472,4.198681
365.2678,4.197044
365.4436,4.186907
365.4478,4.195415
365.7625,4.181827
365.7634,4.183650
366.1007,4.175125
366.1024,4.178569
366.2581,4.168432
366.2606,4.173496
366.4364,4.163359
366.4381,4.166803
366.5954,4.159907
366.5963,4.161731
366.9152,4.156650
367.5857,4.131295
367.5882,4.136359
367.7448,4.128046
367.7464,4.131287
368.5776,4.106127
368.5793,4.109368
368.7349,4.099232
368.7374,4.104296
369.5469,4.075693
369.5494,4.080757
369.7252,4.070619
369.7269,4.074063
370.3765,4.047089
370.3790,4.052153
370.5347,4.042016
370.5364,4.045460
370.6929,4.036944
370.6946,4.040388
371.3668,4.018477
371.3684,4.021718
371.5250,4.013404
371.5266,4.016645
371.6848,4.011573
372.5143,3.982969
372.5168,3.988033
372.6725,3.977897
372.6742,3.981341
372.8324,3.976268
373.6653,3.954349
373.6670,3.957793
373.8235,3.949277
373.8252,3.952720
374.8155,3.924108
374.9728,3.917213
374.9753,3.922277
375.1520,3.913963
375.1528,3.915583
376.1405,3.881907
376.1430,3.886971
376.2987,3.876835
376.3004,3.880278
377.1098,3.851473
377.1123,3.856537
377.2881,3.846400
377.2898,3.849843
377.7820,3.829562
377.7837,3.833005
377.9394,3.822869
377.9419,3.827933
378.0993,3.821240
378.7488,3.794266
378.7506,3.797709
378.9271,3.789193
378.9288,3.792636
379.0870,3.787564
379.5775,3.763839
379.7349,3.757146
379.7374,3.762210
380.4055,3.731994
380.5619,3.723478
380.5653,3.730163
381.2115,3.696504
381.3681,3.688190
381.3714,3.694875
382.0386,3.662836
382.1960,3.656143
382.1985,3.661207
382.3550,3.652691
382.3559,3.654514
383.1828,3.620644
383.1845,3.624087
383.3411,3.615774
383.3427,3.619015
383.9923,3.592041
384.1690,3.583726
384.1723,3.590411
384.3272,3.578654
384.3288,3.581895
384.9775,3.553300
384.9800,3.558364
385.1357,3.548228
385.1374,3.551672
385.3157,3.546598
385.9628,3.514560
385.9661,3.521245
386.1219,3.511311
386.1227,3.512931
386.9514,3.482504
386.9539,3.487568
387.1095,3.477432
387.1113,3.480876
387.2687,3.474183
387.2695,3.475803
387.7567,3.445596
387.7600,3.452281
387.9350,3.440523
387.9375,3.445587
388.4213,3.408493
388.4247,3.415177
388.5778,3.399977
388.5812,3.406864
389.2208,3.359633
389.2258,3.369761
##END=
