##TITLE=Pyridine, 2-methoxy-, 1-oxide
##JCAMP-DX=4.24
##DATA TYPE=UV/VIS SPECTRUM
##ORIGIN=INSTITUTE OF ENERGY PROBLEMS OF CHEMICAL PHYSICS, RAS
##OWNER=INEP CP RAS, NIST OSRD
Collection (C) 2007 copyright by the U.S. Secretary of Commerce
on behalf of the United States of America. All rights reserved.
##CAS REGISTRY NO=20773-98-2
##MOLFORM=C6H7NO2
##MP=78-79
##SOURCE REFERENCE=RAS UV No. 22192
##$NIST SQUIB=1985CIG/1287
##$NIST SOURCE=TYUGLMTE
##SPECTROMETER/DATA SYSTEM=Varian 2000
##XUNITS=Wavelength (nm)
##YUNITS=Logarithm epsilon
##XFACTOR=1.0
##YFACTOR=1.0
##FIRSTX=227.064
##LASTX=384.624
##FIRSTY=4.204
##MAXX=384.624
##MINX=227.064
##MAXY=4.325
##MINY=2.785
##NPOINTS=160
##$REF AUTHOR=Cignitti, M.; et al.
##$REF JOURNAL=Spectrochim. Acta
##$REF VOLUME=41A
##$REF PAGE=1287
##$REF DATE=1985
##XYPOINTS=(XY..XY)
227.064,4.204
228.064,4.243
229.064,4.266
230.064,4.282
231.064,4.295
232.064,4.308
233.064,4.319
234.064,4.325
235.064,4.318
236.064,4.284
237.147,4.225
238.147,4.089
239.147,3.955
240.147,3.823
241.147,3.693
242.147,3.565
243.147,3.439
244.147,3.316
245.147,3.194
246.147,3.075
247.147,2.957
247.441,2.922
248.441,2.850
249.441,2.830
250.441,2.842
251.441,2.868
252.441,2.902
253.441,2.941
254.164,2.974
255.164,3.042
256.164,3.101
257.164,3.153
258.164,3.200
259.164,3.242
260.164,3.280
261.164,3.316
262.164,3.349
263.164,3.382
264.164,3.413
265.164,3.443
266.164,3.472
267.164,3.501
268.164,3.529
269.164,3.557
270.164,3.585
271.164,3.612
272.164,3.638
273.164,3.665
274.164,3.690
275.164,3.716
276.164,3.740
277.164,3.764
278.164,3.788
279.164,3.810
280.164,3.832
281.164,3.853
282.164,3.873
283.164,3.891
284.164,3.909
285.164,3.924
286.164,3.939
287.164,3.951
288.164,3.961
289.164,3.968
290.164,3.973
291.164,3.975
292.164,3.973
293.164,3.968
294.164,3.959
295.164,3.946
296.164,3.928
297.164,3.907
298.164,3.881
299.164,3.851
300.164,3.817
301.164,3.780
302.164,3.741
302.903,3.709
303.953,3.677
304.903,3.650
305.903,3.621
306.903,3.589
307.903,3.554
308.903,3.519
309.903,3.485
310.903,3.451
311.903,3.420
312.903,3.392
313.903,3.368
314.903,3.348
315.903,3.332
316.903,3.321
317.903,3.315
318.903,3.314
319.903,3.317
320.903,3.325
321.903,3.336
322.903,3.351
323.903,3.368
324.903,3.387
325.903,3.406
326.852,3.425
327.852,3.441
328.852,3.457
329.852,3.471
330.852,3.484
331.852,3.496
332.852,3.507
333.852,3.516
334.852,3.524
335.852,3.531
336.852,3.538
337.852,3.544
338.852,3.549
339.852,3.554
340.852,3.558
341.852,3.563
342.852,3.567
343.852,3.572
344.852,3.577
345.852,3.582
346.852,3.586
347.852,3.591
348.852,3.596
349.852,3.601
350.852,3.606
351.852,3.610
352.852,3.613
353.852,3.615
354.852,3.617
355.852,3.617
356.852,3.615
357.852,3.612
358.852,3.607
359.852,3.600
360.852,3.591
361.852,3.580
362.852,3.567
363.852,3.552
364.852,3.537
365.927,3.519
366.927,3.502
367.927,3.481
368.927,3.457
369.927,3.430
370.927,3.400
371.927,3.366
372.927,3.330
373.927,3.291
374.927,3.251
375.927,3.208
376.927,3.163
377.927,3.116
378.927,3.069
379.927,3.020
380.927,2.970
381.927,2.920
382.927,2.870
383.927,2.820
384.624,2.785
##END=
