##TITLE=Acenaphthylene
##JCAMP-DX=4.24
##DATA TYPE=UV/VIS SPECTRUM
##ORIGIN=INSTITUTE OF ENERGY PROBLEMS OF CHEMICAL PHYSICS, RAS
##OWNER=INEP CP RAS, NIST OSRD
Collection (C) 2007 copyright by the U.S. Secretary of Commerce
on behalf of the United States of America. All rights reserved.
##CAS REGISTRY NO=208-96-8
##MOLFORM=C12H8
##MP=92.5
##BP=280; 150(28)
##SOURCE REFERENCE=RAS UV No. 6717
##$NIST SQUIB=1969ZAN3599-3602
##$NIST SOURCE=TSGMTE
##SPECTROMETER/DATA SYSTEM=n.i.g.
##XUNITS=Wavelength (nm)
##YUNITS=Logarithm epsilon
##XFACTOR=1.000000
##YFACTOR=1.000000
##FIRSTX=236.8961
##LASTX=427.3867
##FIRSTY=3.8287
##MAXX=427.387
##MINX=236.896
##MAXY=4.03935
##MINY=2.02337
##NPOINTS=187
##$REF AUTHOR=Zander, M.
##$REF TITLE=Notiz uber dimeres biacenaphthylenyl-(1.1') (,,Di-perinaphthylenbutadien'')
##$REF JOURNAL=Chem. Ber.
##$REF VOLUME=102
##$REF PAGE=3599-3602
##$REF DATE=1969
##XYPOINTS=(XY..XY)
236.8961,3.828702
236.8961,3.833283
236.8961,3.837792
236.8961,3.842154
237.2233,3.780798
237.4524,3.752569
237.6814,3.724266
237.9105,3.695818
238.5977,3.638071
238.8268,3.615432
239.0558,3.592793
239.2849,3.570153
240.2993,3.509125
240.8568,3.487701
241.4216,3.466131
242.0009,3.444488
244.3898,3.393303
244.6055,3.386267
245.3521,3.375294
247.2694,3.350978
253.3887,3.359508
254.6673,3.369352
255.6769,3.375476
257.2828,3.383132
261.7005,3.410365
262.2580,3.411665
262.8228,3.412893
263.4021,3.413974
263.4021,3.413974
264.7595,3.401275
265.5570,3.392003
266.4781,3.378210
269.8813,3.345728
271.5999,3.350212
272.5041,3.360165
273.0882,3.378210
273.0882,3.378210
273.4821,3.378855
273.8833,3.379426
274.2990,3.379851
275.6407,3.332275
276.0406,3.316672
276.5060,3.291663
277.0151,3.269279
278.7167,3.233515
278.9457,3.230222
279.1748,3.226856
279.4039,3.223344
279.7311,3.223344
280.1892,3.223344
280.6474,3.223344
281.1055,3.223344
281.1055,3.223344
281.9369,3.233503
282.7611,3.245995
283.1343,3.257467
284.8360,3.301761
285.5001,3.326698
286.1788,3.351634
286.8648,3.376570
288.5664,3.427427
289.5324,3.453432
290.3165,3.474042
291.2825,3.505516
292.9841,3.546529
293.6483,3.568087
294.3270,3.589499
295.0130,3.610838
297.2382,3.657102
298.5774,3.683618
299.6839,3.705613
300.8050,3.733222
303.1938,3.782767
304.2179,3.805297
305.3657,3.833295
305.9099,3.855606
308.6259,3.908432
310.0888,3.923950
311.5589,3.935896
313.3708,3.947477
317.6249,3.969788
318.4757,3.988478
319.3265,4.007095
320.1773,4.025566
324.2677,4.039347
325.5100,4.019113
326.5487,3.985974
326.9838,3.957648
327.3110,3.937305
327.6395,3.918178
327.9752,3.898905
328.3255,3.879558
329.6998,3.764065
329.7992,3.784407
329.9059,3.804750
330.0271,3.825093
330.3870,3.729941
330.5858,3.704945
331.7590,3.685708
333.7903,3.665304
334.1175,3.617729
334.8568,3.581625
335.2980,3.566228
335.8191,3.558341
337.8480,3.595746
338.3570,3.618628
338.7133,3.628751
339.2224,3.634790
339.2224,3.634790
339.6150,3.633794
340.0077,3.632725
340.4004,3.631509
340.4004,3.631509
340.4428,3.626916
340.4998,3.622322
340.5640,3.617729
340.9240,3.604276
341.2597,3.580227
341.6027,3.559095
341.9384,3.525859
342.9528,3.461550
343.2764,3.426503
343.5346,3.408008
343.6400,3.393303
344.3272,3.335557
344.5333,3.311921
344.7538,3.288212
344.9817,3.264357
345.3417,3.206610
345.4410,3.179377
345.5477,3.152145
345.6689,3.124912
346.0288,3.070446
346.1282,3.038850
346.2349,3.007109
346.3561,2.927719
346.3561,2.975295
346.5851,2.901787
346.8142,2.875781
347.0433,2.849630
348.0577,2.798445
348.4928,2.775806
348.9424,2.753166
349.3994,2.730527
351.7882,2.669499
352.8038,2.646847
353.8267,2.624123
354.8642,2.601253
357.2203,2.560567
358.3001,2.547674
359.3800,2.534635
360.4599,2.521522
365.7284,2.475587
367.3658,2.468357
369.0104,2.461054
370.6696,2.453604
377.2798,2.428012
378.5596,2.417002
379.5777,2.410367
381.2066,2.402420
385.7879,2.404060
387.7464,2.403623
389.6105,2.399248
391.7435,2.392248
395.9976,2.366984
397.5659,2.356375
399.1415,2.341173
400.0553,2.322690
402.4441,2.285285
403.3240,2.266656
403.9857,2.255683
404.9965,2.242959
405.4874,2.240991
406.0449,2.240991
406.6097,2.240991
407.1890,2.240991
411.2794,2.261333
413.1168,2.249983
414.4161,2.231779
415.5335,2.208836
418.4132,2.166182
420.3814,2.142668
421.4843,2.128122
422.6672,2.110076
424.8924,2.067750
425.9759,2.046071
427.3867,2.023371
##END=
