##TITLE=Glutarimide, 3-[2-(3,5-dimethyl-2-oxocyclohexyl)-2-hydroxyethyl]-
##JCAMP-DX=4.24
##DATA TYPE=UV/VIS SPECTRUM
##ORIGIN=INSTITUTE OF ENERGY PROBLEMS OF CHEMICAL PHYSICS, RAS
##OWNER=INEP CP RAS, NIST OSRD
Collection (C) 2007 copyright by the U.S. Secretary of Commerce
on behalf of the United States of America. All rights reserved.
##CAS REGISTRY NO=21059-09-6
##MOLFORM=C15H23NO4
##SOURCE REFERENCE=RAS UV No. 699
##$NIST SQUIB=1949KOR/JON150-159
##$NIST SOURCE=TSGMTE
##SPECTROMETER/DATA SYSTEM=Beckman DU
##XUNITS=Wavelength (nm)
##YUNITS=Logarithm epsilon
##XFACTOR=1.000000
##YFACTOR=1.000000
##FIRSTX=240.0000
##LASTX=329.0000
##FIRSTY=3.28001
##MAXX=329
##MINX=240
##MAXY=3.28001
##MINY=1.1
##NPOINTS=90
##$REF AUTHOR=Kornfield, E.C.; Jones, R.G.; Parke, T.V.
##$REF TITLE=The structure and chemistry of actidione, and antibiotic from streptomyces griseus
##$REF JOURNAL=J. Am. Chem. Soc.
##$REF VOLUME=71
##$REF PAGE=150-159
##$REF DATE=1949
##XYPOINTS=(XY..XY)
240.0000,3.280009
241.0000,3.250000
242.0000,3.220000
243.0000,3.190000
244.0000,3.170000
245.0000,3.150000
246.0000,3.140000
247.0000,3.130000
248.0000,3.120000
249.0000,3.110000
250.0000,3.099991
251.0000,3.090000
252.0000,3.080000
253.0000,3.070000
254.0000,3.060000
255.0000,3.040000
256.0000,3.030000
257.0000,3.020000
258.0000,3.000000
259.0000,2.990000
260.0000,2.969998
261.0000,2.950000
262.0000,2.940000
263.0000,2.920000
264.0000,2.900000
265.0000,2.880000
266.0000,2.850000
267.0000,2.830000
268.0000,2.800000
269.0000,2.770000
270.0000,2.739999
271.0000,2.720000
272.0000,2.690000
273.0000,2.660000
274.0000,2.630000
275.0000,2.610000
276.0000,2.590000
277.0000,2.560000
278.0000,2.550000
279.0000,2.550000
280.0000,2.549996
281.0000,2.550000
282.0000,2.550000
283.0000,2.550000
284.0000,2.550000
285.0000,2.550000
286.0000,2.550000
287.0000,2.550000
288.0000,2.550000
289.0000,2.550000
290.0000,2.549996
291.0000,2.540000
292.0000,2.540000
293.0000,2.540000
294.0000,2.530000
295.0000,2.530000
296.0000,2.510000
297.0000,2.500000
298.0000,2.490000
299.0000,2.470000
300.0000,2.459995
301.0000,2.440000
302.0000,2.430000
303.0000,2.410000
304.0000,2.390000
305.0000,2.360000
306.0000,2.340000
307.0000,2.320000
308.0000,2.300000
309.0000,2.250000
310.0000,2.229989
311.0000,2.200000
312.0000,2.170000
313.0000,2.140000
314.0000,2.110000
315.0000,2.040000
316.0000,2.000000
317.0000,1.950000
318.0000,1.900000
319.0000,1.900000
320.0000,1.839999
321.0000,1.770000
322.0000,1.770000
323.0000,1.690000
324.0000,1.600000
325.0000,1.600000
326.0000,1.470000
327.0000,1.470000
328.0000,1.299999
329.0000,1.100002
##END=
