##TITLE=Benzene, 1-azido-4-bromo-
##JCAMP-DX=4.24
##DATA TYPE=UV/VIS SPECTRUM
##ORIGIN=INSTITUTE OF ENERGY PROBLEMS OF CHEMICAL PHYSICS, RAS
##OWNER=INEP CP RAS, NIST OSRD
Collection (C) 2007 copyright by the U.S. Secretary of Commerce
on behalf of the United States of America. All rights reserved.
##CAS REGISTRY NO=2101-88-4
##MOLFORM=C6H4BrN3
##MP=20
##BP=105/ 10 mm; 69/ 2 mm
##SOURCE REFERENCE=RAS UV No. 11318
##$NIST SQUIB=1951SHE1043
##$NIST SOURCE=TYUGLMTE
##SPECTROMETER/DATA SYSTEM=Zeiss quartz spectrograph
##XUNITS=Wavelength (nm)
##YUNITS=Logarithm epsilon
##XFACTOR=1.0
##YFACTOR=1.0
##FIRSTX=218.22
##LASTX=385.89
##FIRSTY=4.146
##MAXX=385.89
##MINX=218.22
##MAXY=4.146
##MINY=0.677
##NPOINTS=158
##$REF AUTHOR=Sheinker, Y.N.
##$REF JOURNAL=Doklady Akad. Nauk S.S.S.R. (in Rus.)
##$REF VOLUME=77
##$REF PAGE=1043
##$REF DATE=1951
##XYPOINTS=(XY..XY)
218.22,4.146
218.64,4.137
218.98,4.125
219.44,4.113
219.91,4.099
220.41,4.072
221.51,3.982
222.60,3.824
223.70,3.688
224.79,3.564
225.89,3.462
226.99,3.411
228.08,3.389
229.18,3.377
230.27,3.377
231.37,3.383
232.36,3.397
233.56,3.418
234.66,3.451
235.75,3.473
236.85,3.502
238.02,3.537
239.04,3.575
240.15,3.616
241.23,3.666
242.35,3.720
243.42,3.778
244.52,3.824
245.62,3.869
246.71,3.920
247.81,3.959
248.90,4.005
250.00,4.038
251.10,4.072
252.19,4.089
253.29,4.106
254.38,4.112
255.48,4.112
256.58,4.118
257.67,4.118
258.77,4.112
259.86,4.112
260.96,4.112
262.05,4.106
263.15,4.095
264.25,4.078
265.26,4.048
266.44,4.005
267.53,3.965
268.39,3.927
269.73,3.875
270.79,3.836
271.92,3.795
273.01,3.750
274.11,3.711
274.93,3.672
275.95,3.624
277.40,3.547
278.49,3.502
279.59,3.462
280.68,3.423
281.78,3.389
282.88,3.360
283.97,3.349
285.07,3.332
286.16,3.332
287.05,3.370
287.95,3.386
288.84,3.357
289.45,3.321
290.55,3.304
291.64,3.264
292.54,3.205
293.84,3.163
295.09,3.192
295.98,3.227
297.12,3.242
298.28,3.208
299.32,3.112
300.41,2.897
301.51,2.756
302.60,2.620
303.70,2.524
304.79,2.468
305.89,2.417
306.99,2.383
308.08,2.360
309.18,2.338
310.27,2.327
311.37,2.310
312.47,2.304
313.56,2.287
314.66,2.276
315.75,2.259
316.85,2.242
317.95,2.225
319.04,2.214
320.14,2.197
321.23,2.180
322.33,2.174
323.42,2.151
324.52,2.140
325.62,2.123
326.71,2.112
327.81,2.095
328.90,2.078
330.00,2.067
331.10,2.044
332.19,2.021
333.29,2.010
334.38,1.993
335.48,1.965
336.58,1.954
337.67,1.931
338.77,1.914
339.86,1.897
340.96,1.875
341.79,1.859
343.15,1.824
344.25,1.795
345.34,1.773
346.44,1.739
347.53,1.716
348.63,1.688
349.73,1.666
350.82,1.649
351.92,1.620
353.01,1.592
354.11,1.575
355.21,1.547
356.30,1.524
357.40,1.496
358.49,1.473
359.59,1.440
360.68,1.411
361.78,1.383
362.88,1.349
363.97,1.321
365.07,1.287
366.16,1.253
367.26,1.225
368.36,1.185
369.45,1.157
370.55,1.129
371.64,1.095
372.74,1.067
373.84,1.027
374.93,0.999
376.03,0.971
377.12,0.942
378.22,0.914
379.32,0.886
380.41,0.846
381.51,0.818
382.60,0.790
383.70,0.762
384.79,0.728
385.89,0.677
##END=
