##TITLE=2-amino-3H-phenothiazin-3-one
##JCAMP-DX=4.24
##DATA TYPE=UV/VIS SPECTRUM
##ORIGIN=INSTITUTE OF ENERGY PROBLEMS OF CHEMICAL PHYSICS, RAS
##OWNER=INEP CP RAS, NIST OSRD
Collection (C) 2007 copyright by the U.S. Secretary of Commerce
on behalf of the United States of America. All rights reserved.
##CAS REGISTRY NO=21033-44-3
##MOLFORM=C12H8N2OS
##BP=sub. 250
##SOURCE REFERENCE=RAS UV No. 23864
##$NIST SQUIB=1974SEV/STE1318
##$NIST SOURCE=TYUGLMTE
##SPECTROMETER/DATA SYSTEM=unknown
##XUNITS=Wavelength (nm)
##YUNITS=Logarithm epsilon
##XFACTOR=1.0
##YFACTOR=1.0
##FIRSTX=226.558
##LASTX=493.954
##FIRSTY=4.134
##MAXX=493.954
##MINX=226.558
##MAXY=4.546
##MINY=2.977
##NPOINTS=141
##$REF AUTHOR=Sevbo, D.P.; Stepanova, T.F.
##$REF JOURNAL=Zhur. Organ. Khim.
##$REF VOLUME=10
##$REF PAGE=1318
##$REF DATE=1974
##XYPOINTS=(XY..XY)
226.558,4.134
228.558,4.137
230.558,4.142
232.558,4.148
234.558,4.155
236.558,4.163
238.558,4.173
240.558,4.187
242.558,4.205
244.558,4.229
246.558,4.258
248.558,4.294
250.558,4.335
252.558,4.379
254.085,4.414
256.085,4.453
258.085,4.487
260.085,4.517
262.085,4.539
264.085,4.546
266.085,4.532
268.085,4.499
269.894,4.461
271.818,4.420
273.894,4.381
275.894,4.348
277.894,4.336
279.894,4.335
281.959,4.340
283.959,4.345
285.959,4.342
287.870,4.325
289.550,4.293
290.810,4.257
292.070,4.220
292.909,4.188
293.749,4.156
294.589,4.123
295.849,4.082
297.109,4.036
297.949,3.995
298.789,3.953
299.718,3.925
300.567,3.893
302.888,3.786
304.888,3.680
306.888,3.588
308.888,3.508
310.888,3.439
312.888,3.379
314.888,3.327
316.888,3.281
318.888,3.240
320.888,3.204
322.888,3.172
324.888,3.143
326.888,3.116
328.888,3.092
330.888,3.070
332.888,3.050
334.888,3.032
336.888,3.016
338.888,3.003
340.888,2.992
342.888,2.984
344.888,2.979
346.888,2.977
348.888,2.979
350.888,2.983
352.888,2.991
354.888,3.001
356.888,3.015
358.888,3.032
360.888,3.050
362.888,3.071
364.300,3.086
366.300,3.111
368.300,3.135
370.300,3.158
372.300,3.182
374.300,3.206
376.300,3.232
378.300,3.259
380.300,3.287
382.300,3.317
384.300,3.348
386.300,3.381
388.300,3.416
390.300,3.451
392.300,3.488
394.300,3.526
396.300,3.565
398.300,3.604
400.300,3.643
402.300,3.681
404.300,3.720
406.300,3.758
407.954,3.788
409.954,3.824
411.954,3.859
413.954,3.893
415.954,3.925
417.954,3.957
419.954,3.987
421.954,4.016
423.954,4.044
425.954,4.072
427.954,4.098
429.954,4.123
431.954,4.146
433.954,4.169
435.954,4.191
437.954,4.211
439.954,4.230
441.954,4.248
443.954,4.264
445.954,4.279
447.954,4.292
449.954,4.304
451.954,4.314
453.954,4.322
455.954,4.329
457.954,4.333
459.954,4.336
461.954,4.336
463.954,4.334
465.954,4.330
467.954,4.323
469.954,4.314
471.954,4.302
473.954,4.288
475.954,4.270
477.954,4.249
479.954,4.226
481.954,4.199
483.954,4.168
485.954,4.134
487.954,4.097
489.954,4.056
491.954,4.011
493.954,3.962
##END=
