##TITLE=1,1'-Biphenyl, 3-nitro-
##JCAMP-DX=4.24
##DATA TYPE=UV/VIS SPECTRUM
##ORIGIN=INSTITUTE OF ENERGY PROBLEMS OF CHEMICAL PHYSICS, RAS
##OWNER=INEP CP RAS, NIST OSRD
Collection (C) 2007 copyright by the U.S. Secretary of Commerce
on behalf of the United States of America. All rights reserved.
##CAS REGISTRY NO=2113-58-8
##MOLFORM=C12H9NO2
##MP=62
##BP=227(35); 143(9)
##SOURCE REFERENCE=RAS UV No. 3792
##$NIST SQUIB=1955GRA59-61
##$NIST SOURCE=TSGMTE
##SPECTROMETER/DATA SYSTEM=n.i.g.
##XUNITS=Wavelength (nm)
##YUNITS=Logarithm epsilon
##XFACTOR=1.000000
##YFACTOR=1.000000
##FIRSTX=400.6309
##LASTX=230.8456
##FIRSTY=1.12139
##MAXX=400.631
##MINX=230.846
##MAXY=4.30644
##MINY=1.12139
##NPOINTS=112
##$REF AUTHOR=Grammaticakis, P.
##$REF TITLE=Remarques sur l'absorption des derives du diphenyle dans l'ultraviolet moyen et le visible
##$REF JOURNAL=Compt. Rend.
##$REF VOLUME=241
##$REF PAGE=59-61
##$REF DATE=1955
##XYPOINTS=(XY..XY)
400.6309,1.121389
400.1736,1.142615
399.6917,1.163722
399.1980,1.184592
399.1980,1.184592
398.9110,1.185655
398.6117,1.186603
398.2873,1.187318
394.3155,1.281479
394.2999,1.289156
394.1447,1.293431
393.7176,1.297962
376.5603,1.882077
375.2890,1.898707
374.9345,1.917844
374.7848,1.940025
374.7848,1.940025
374.5319,1.941089
374.2680,1.942036
373.9820,1.942749
371.4565,2.025155
371.4538,2.021818
371.4509,2.018245
371.4478,2.014554
355.0989,2.483205
354.9119,2.493121
354.6111,2.498099
353.9401,2.502410
353.9401,2.502410
353.7270,2.518179
353.5141,2.533712
353.3013,2.549128
345.0288,2.728660
344.3835,2.738803
343.7217,2.748948
343.0530,2.759094
334.1607,2.875666
334.0271,2.889092
333.5161,2.895729
332.4999,2.897595
316.1081,2.993444
315.5980,3.007902
314.7426,3.010861
313.5207,3.010216
301.1217,3.141266
300.9613,3.147650
300.7938,3.154036
300.6120,3.160424
297.5021,3.229260
297.4419,3.235631
297.3818,3.242001
297.3216,3.248372
297.3216,3.248372
297.1220,3.248401
296.9085,3.248432
296.6883,3.248465
293.3342,3.348098
293.0782,3.348136
292.8089,3.348177
292.5333,3.348219
287.5698,3.508552
287.3885,3.519694
287.1941,3.530720
286.9934,3.541511
281.0626,3.734900
280.9791,3.740589
280.8893,3.746042
280.7870,3.751380
279.3457,3.800920
279.2044,3.800256
279.0569,3.799358
278.8970,3.798344
274.8236,3.917251
274.5079,3.929066
274.2862,3.934739
273.9684,3.939133
263.3247,4.183312
263.1506,4.183344
262.9767,4.183377
262.8030,4.183409
258.7749,4.244610
258.5339,4.244657
258.2880,4.244704
258.0319,4.244754
252.7140,4.295110
252.1151,4.297411
251.8679,4.300348
251.7589,4.306437
244.6222,4.258102
244.1747,4.250325
243.7343,4.244786
243.2900,4.236655
242.1844,4.220464
241.9482,4.215607
241.7769,4.208498
241.5239,4.193042
235.1267,4.084760
235.0261,4.080385
234.9255,4.075775
234.8249,4.071047
234.5078,4.068471
234.3098,4.068517
234.1078,4.068565
233.8974,4.068614
232.8699,4.035460
232.8682,4.030139
232.8664,4.024701
232.8646,4.019027
232.2575,4.002737
231.7030,4.002890
231.2093,3.998199
230.8456,3.981342
##END=
