##TITLE=4-Benzoylbiphenyl
##JCAMP-DX=4.24
##DATA TYPE=UV/VIS SPECTRUM
##ORIGIN=INSTITUTE OF ENERGY PROBLEMS OF CHEMICAL PHYSICS, RAS
##OWNER=INEP CP RAS, NIST OSRD
Collection (C) 2007 copyright by the U.S. Secretary of Commerce
on behalf of the United States of America. All rights reserved.
##CAS REGISTRY NO=2128-93-0
##MOLFORM=C19H14O
##MP=101.5-102
##SOURCE REFERENCE=RAS UV No. 9036
##$NIST SQUIB=1965BAR/SZO98B
##$NIST SOURCE=TSGMTE
##SPECTROMETER/DATA SYSTEM=Unicam SP 700
##XUNITS=Wavelength (nm)
##YUNITS=Logarithm epsilon
##XFACTOR=1.000000
##YFACTOR=1.000000
##FIRSTX=208.2765
##LASTX=361.3959
##FIRSTY=4.47127
##MAXX=361.396
##MINX=208.277
##MAXY=4.47127
##MINY=2.49531
##NPOINTS=1000
##$REF AUTHOR=Bartecki, A.; Szoke, J.; Varsanyi, G. Vizesy
##$REF TITLE=Absorption spectra in the ultraviolet and visible region. Volume 6
##$REF PAGE=98
##$REF DATE=1965
##$REF PUBLISHER=Academic Press Inc.
##$REF LOCATION=New York
##XYPOINTS=(XY..XY)
208.2765,4.471267
208.5982,4.467975
208.5998,4.471203
208.7801,4.467939
209.1001,4.461015
209.2804,4.457751
209.2820,4.460979
209.6019,4.454055
209.6038,4.457686
209.7822,4.450791
209.7838,4.454018
209.9423,4.447530
209.9439,4.450758
210.1022,4.443867
210.2825,4.440603
210.2841,4.443830
210.4442,4.440570
210.9428,4.427154
210.9444,4.430382
211.1027,4.423491
211.1045,4.427122
211.2829,4.420227
211.2846,4.423455
211.4430,4.416966
211.4446,4.420194
211.6013,4.410075
211.6029,4.413303
211.7832,4.410039
212.1015,4.399887
212.1031,4.403115
212.2800,4.392991
212.2834,4.399851
212.4401,4.389731
212.4417,4.392959
212.5983,4.382840
212.6018,4.389699
212.7786,4.379576
212.7802,4.382804
213.0969,4.369424
213.0986,4.372652
213.4355,4.359268
213.4371,4.362496
213.5937,4.352377
213.5954,4.355605
213.9323,4.342221
213.9339,4.345449
214.0924,4.338961
214.0940,4.342189
214.2506,4.332069
214.2522,4.335297
214.7493,4.318654
214.7509,4.321881
215.0878,4.308498
215.0894,4.311726
215.2477,4.304834
215.2495,4.308466
215.4263,4.298342
215.4280,4.301570
215.5862,4.294679
215.5880,4.298310
215.7447,4.288191
215.7479,4.294646
215.9248,4.284523
215.9266,4.288154
216.0848,4.281263
216.2449,4.278003
216.2465,4.281230
216.4234,4.271107
216.4268,4.277966
216.5835,4.267847
216.5851,4.271075
216.7433,4.264183
216.7452,4.267815
216.9236,4.260919
216.9252,4.264147
217.0837,4.257659
217.0853,4.260887
217.2436,4.253995
217.4239,4.250731
217.4255,4.253959
217.5839,4.247471
217.5856,4.250699
217.7438,4.243807
217.7456,4.247439
217.9241,4.240543
217.9257,4.243771
218.0842,4.237283
218.0858,4.240511
218.2441,4.233619
218.2459,4.237251
218.4260,4.233583
218.9060,4.223399
219.0863,4.220135
219.0879,4.223363
219.2480,4.220103
219.4078,4.216439
219.5897,4.216403
220.0900,4.206215
220.2501,4.202955
220.2517,4.206182
220.5937,4.202886
220.9136,4.195962
221.0955,4.195926
221.4157,4.189406
221.7574,4.185706
221.7593,4.189337
222.2611,4.182377
222.2627,4.185605
222.7648,4.179048
222.7664,4.182276
223.1066,4.175348
223.1084,4.178980
223.2683,4.175316
223.4283,4.172056
223.7719,4.171987
223.9320,4.168727
224.1139,4.168691
224.2738,4.165027
224.5956,4.161735
224.5972,4.164963
224.9376,4.158438
224.9392,4.161666
225.4410,4.154706
225.4428,4.158337
225.9463,4.154605
226.1064,4.151345
226.4484,4.148048
226.4500,4.151276
226.6101,4.148016
226.7902,4.144349
227.1135,4.144284
227.2938,4.141020
227.6156,4.137727
227.6172,4.140955
228.1209,4.137626
228.3010,4.133959
228.6228,4.130666
228.6244,4.133894
228.8047,4.130630
228.9647,4.127370
229.3083,4.127301
229.4682,4.123638
229.8118,4.123569
229.9719,4.120309
230.4772,4.120208
230.6373,4.116948
230.9790,4.113248
230.9809,4.116879
231.4827,4.109919
231.4843,4.113147
231.8061,4.109855
231.9864,4.106590
232.4917,4.106490
232.6515,4.102826
233.3169,4.099465
233.3185,4.102693
233.6589,4.096168
233.6605,4.099396
234.0025,4.096100
234.1624,4.092436
234.8294,4.092303
235.0096,4.089039
236.0000,4.088841
236.1803,4.085577
237.5143,4.085311
237.6944,4.081643
238.1997,4.081542
238.3632,4.085141
239.2121,4.084972
239.3754,4.088167
240.5476,4.087933
240.5493,4.091161
241.2365,4.091024
241.4000,4.094623
241.9053,4.094522
241.9069,4.097750
242.2303,4.097686
242.4138,4.100877
242.7372,4.100813
242.9209,4.104408
243.2443,4.104343
243.2459,4.107571
243.5895,4.107502
243.7528,4.110698
243.9347,4.110662
244.0982,4.114261
244.4418,4.114192
244.4435,4.117420
245.1104,4.117287
245.1121,4.120515
245.7790,4.120381
245.9628,4.123977
246.4681,4.123876
246.6314,4.127071
246.9548,4.127007
247.1383,4.130198
247.8053,4.130065
247.9688,4.133664
248.9794,4.133462
249.1629,4.136654
250.1735,4.136452
250.3368,4.139648
250.6804,4.139579
250.8439,4.143178
251.6928,4.143009
251.8561,4.146204
252.8667,4.146003
253.0300,4.149198
254.0406,4.148996
254.2041,4.152596
254.7094,4.152495
254.8929,4.155686
255.3982,4.155585
255.5615,4.158781
256.0668,4.158680
256.2303,4.162279
256.9175,4.162142
257.0808,4.165338
258.2531,4.165104
258.4164,4.168299
259.7706,4.168029
259.9341,4.171628
260.7830,4.171458
260.9463,4.174654
262.6441,4.174315
262.8074,4.177511
263.8180,4.177309
263.9815,4.180908
264.4868,4.180807
264.6501,4.184003
264.9937,4.183934
264.9953,4.187162
265.1570,4.187130
265.3407,4.190725
265.6641,4.190660
265.6657,4.193888
266.0093,4.193819
266.1726,4.197015
266.3545,4.196979
266.5181,4.200578
266.6797,4.200545
267.0266,4.206933
267.1883,4.206900
267.3720,4.210495
267.5337,4.210463
267.5353,4.213691
267.6970,4.213659
268.0440,4.220449
268.2057,4.220417
268.3893,4.223609
268.5509,4.223576
268.7145,4.227175
268.8964,4.227139
268.8980,4.230367
269.0597,4.230335
269.0613,4.233563
269.2230,4.233530
269.4067,4.237125
269.5684,4.237093
269.7317,4.240289
269.8934,4.240256
269.8950,4.243484
270.0769,4.243448
270.0787,4.247079
270.4054,4.253470
270.5873,4.253434
270.7508,4.257033
271.0944,4.256965
271.0960,4.260192
271.2577,4.260160
271.2593,4.263388
271.4210,4.263356
271.7680,4.270146
271.9297,4.270114
272.4401,4.280100
272.6220,4.280064
272.7853,4.283260
272.9470,4.283227
273.1307,4.286822
273.2924,4.286790
273.4557,4.289986
273.6376,4.289949
274.1480,4.299936
274.3097,4.299903
274.4730,4.303099
274.6549,4.303063
274.6567,4.306694
274.8184,4.306662
274.9817,4.309857
275.1636,4.309821
275.4904,4.316616
275.8340,4.316547
275.8356,4.319775
276.1590,4.319710
276.1606,4.322938
276.3426,4.322902
276.5061,4.326501
276.6678,4.326469
277.0146,4.332856
277.3582,4.332787
277.5217,4.336386
277.6834,4.336354
278.1937,4.346340
278.5373,4.346272
278.5390,4.349500
279.0442,4.349399
279.2076,4.352594
279.3895,4.352558
279.7163,4.359353
279.8982,4.359316
279.9000,4.362948
280.4053,4.362847
280.4069,4.366075
280.7303,4.366010
280.9138,4.369202
281.0755,4.369169
281.2390,4.372768
281.4007,4.372736
281.4023,4.375964
281.9076,4.375863
281.9093,4.379091
282.2529,4.379022
282.4164,4.382621
282.7600,4.382553
282.9233,4.385748
283.1052,4.385712
283.2685,4.388908
283.4302,4.388875
283.6139,4.392471
283.9373,4.392406
283.9389,4.395634
284.6261,4.395497
284.6277,4.398725
284.9511,4.398660
285.1348,4.402255
285.4582,4.402190
285.6417,4.405382
286.6523,4.405180
286.8156,4.408376
287.8262,4.408174
287.9897,4.411773
291.3651,4.411099
291.5250,4.407436
292.8589,4.407169
293.0392,4.403905
293.3610,4.400613
293.3626,4.403841
293.8663,4.400512
294.0464,4.396844
294.3698,4.396780
294.5501,4.393515
295.2170,4.393382
295.3771,4.390122
295.8824,4.390021
296.0625,4.386354
296.2242,4.386321
296.3843,4.383061
296.5662,4.383025
296.7262,4.379765
297.0698,4.379696
297.2297,4.376032
297.5733,4.375964
297.7334,4.372704
298.0754,4.369407
298.0770,4.372635
298.3969,4.365711
298.3988,4.369343
298.5586,4.365679
298.7389,4.362415
298.9006,4.362383
299.0607,4.359122
299.4025,4.355423
299.4043,4.359054
299.5642,4.355390
299.7445,4.352126
299.9043,4.348462
299.9061,4.352094
300.0644,4.345202
300.0660,4.348430
300.4064,4.341906
300.4080,4.345134
300.7482,4.338206
300.7500,4.341837
300.9099,4.338174
301.2502,4.331649
301.4101,4.327986
301.4119,4.331617
301.7521,4.324689
301.7537,4.327917
301.9122,4.321429
301.9138,4.324657
302.0720,4.317765
302.0739,4.321397
302.2523,4.314501
302.2539,4.317729
302.5741,4.311209
302.5757,4.314437
302.7542,4.307541
302.7560,4.311172
302.9143,4.304281
302.9159,4.307509
303.0743,4.301021
303.0759,4.304249
303.2544,4.297353
303.2562,4.300984
303.5762,4.294061
303.5778,4.297289
303.7565,4.290796
303.7581,4.294024
303.9163,4.287133
303.9182,4.290764
304.0764,4.283873
304.0780,4.287101
304.2365,4.280613
304.2381,4.283840
304.5783,4.276913
304.5801,4.280544
304.7384,4.273652
304.7400,4.276880
304.9186,4.270388
305.0785,4.266725
305.0803,4.270356
305.2386,4.263464
305.2402,4.266692
305.4189,4.260200
305.4205,4.263428
305.5788,4.256537
305.5806,4.260168
305.7388,4.253277
305.7405,4.256504
305.9191,4.250012
305.9207,4.253240
306.0790,4.246349
306.0808,4.249980
306.2407,4.246316
306.5792,4.236161
306.5811,4.239792
306.7393,4.232901
306.7409,4.236128
306.9196,4.229636
306.9212,4.232864
307.0813,4.229604
307.2396,4.222713
307.2412,4.225940
307.4198,4.219448
307.4215,4.222676
307.5797,4.215785
307.5815,4.219416
307.7414,4.215753
308.0800,4.205597
308.0818,4.209228
308.2400,4.202337
308.2416,4.205565
308.4201,4.198669
308.4219,4.202300
308.5802,4.195409
308.5818,4.198637
308.7403,4.192149
308.7419,4.195377
309.2387,4.178329
309.2405,4.181961
309.4174,4.171837
309.4206,4.178293
309.5791,4.171805
309.7373,4.164914
309.7389,4.168141
309.8974,4.161653
309.8990,4.164881
310.0759,4.154758
310.0775,4.157986
310.2359,4.151498
310.2376,4.154726
310.3958,4.147834
310.3976,4.151465
310.5745,4.141342
310.5777,4.147798
310.7344,4.137678
310.7362,4.141310
310.8944,4.134418
310.8960,4.137646
311.0729,4.127523
311.0763,4.134382
311.2330,4.124263
311.2346,4.127490
311.3912,4.117371
311.3931,4.121002
311.5699,4.110879
311.5731,4.117335
311.7282,4.103987
311.7316,4.110847
311.8882,4.100727
311.8899,4.103955
312.0667,4.093832
312.0683,4.097060
312.3834,4.080452
312.3867,4.086908
312.5635,4.076785
312.5653,4.080416
312.7220,4.070297
312.7252,4.076752
312.8802,4.063405
312.8837,4.070264
313.3786,4.049586
313.3805,4.053217
313.5573,4.043094
313.5589,4.046322
313.7172,4.039430
313.7190,4.043061
313.8757,4.032942
313.8773,4.036170
314.2142,4.022786
314.2158,4.026014
314.3725,4.015895
314.3741,4.019123
314.7110,4.005739
314.7126,4.008967
314.8693,3.998848
314.8711,4.002479
315.2078,3.988692
315.2096,3.992323
315.3663,3.982204
315.3679,3.985432
315.5261,3.978540
315.5280,3.982172
315.7030,3.968417
315.7064,3.975276
315.8631,3.965157
315.8647,3.968385
316.0231,3.961897
316.0248,3.965124
316.2000,3.951773
316.2032,3.958229
316.3599,3.948110
316.3617,3.951741
316.5183,3.941622
316.5199,3.944849
316.6968,3.934726
316.7002,3.941585
317.0135,3.921346
317.0168,3.927802
317.8470,3.890512
318.0071,3.887252
318.0087,3.890480
318.1856,3.880357
318.1874,3.883988
318.3441,3.873869
318.3473,3.880324
318.6826,3.863713
318.6842,3.866941
318.8409,3.856821
318.8425,3.860049
318.9991,3.849930
319.0009,3.853561
319.1778,3.843438
319.1810,3.849894
319.4961,3.833286
319.4977,3.836514
319.6746,3.826391
319.6780,3.833250
319.9929,3.816239
319.9945,3.819467
320.1714,3.809343
320.1732,3.812975
320.3298,3.802855
320.3315,3.806083
320.4881,3.795964
320.4897,3.799192
320.8267,3.785808
320.8283,3.789036
320.9849,3.778917
320.9867,3.782548
321.1434,3.772429
321.1450,3.775657
321.3235,3.768761
321.3253,3.772392
321.4817,3.761869
321.4835,3.765501
321.6402,3.755381
321.6418,3.758609
321.8170,3.745258
321.8203,3.751714
321.9787,3.745226
322.3138,3.728211
322.3189,3.738298
322.4739,3.724951
322.4755,3.728179
322.6322,3.718059
322.6338,3.721287
322.8106,3.711164
322.8124,3.714795
322.9707,3.707903
322.9723,3.711131
323.1290,3.701012
323.1308,3.704643
323.3076,3.694520
323.3093,3.697748
323.4675,3.690856
323.4693,3.694488
323.6260,3.684368
323.6276,3.687596
323.8044,3.677473
323.8061,3.680701
323.9627,3.670581
323.9645,3.674213
324.1212,3.664093
324.1228,3.667321
324.2996,3.657198
324.3012,3.660426
324.4579,3.650306
324.4597,3.653938
324.7948,3.636923
324.7982,3.643782
324.9531,3.630031
324.9549,3.633662
325.1131,3.626771
325.1148,3.629999
325.2900,3.616648
325.2932,3.623103
325.4499,3.612984
325.4517,3.616615
325.6065,3.602865
325.6099,3.609724
325.9451,3.592709
325.9469,3.596340
326.1035,3.586221
326.1051,3.589449
326.2618,3.579329
326.2634,3.582557
326.4386,3.569206
326.4421,3.576065
326.5987,3.565946
326.6003,3.569174
326.7553,3.555826
326.7586,3.562282
326.9354,3.552159
326.9372,3.555790
327.0955,3.548899
327.0971,3.552126
327.2505,3.535551
327.2556,3.545638
327.4306,3.531884
327.4324,3.535515
327.5891,3.525396
327.5907,3.528624
327.7473,3.518504
327.7489,3.521732
327.9242,3.508381
327.9292,3.518468
328.0824,3.501489
328.0859,3.508348
328.2409,3.495001
328.2441,3.501457
328.4194,3.488106
328.4228,3.494965
328.5776,3.481214
328.5794,3.484846
328.7359,3.474323
328.7393,3.481182
328.9146,3.467831
328.9162,3.471058
329.0728,3.460939
329.0762,3.467798
329.2311,3.454048
329.2329,3.457679
329.4097,3.447556
329.4114,3.450783
329.5680,3.440664
329.5714,3.447523
329.7263,3.433773
329.7281,3.437404
329.9049,3.427280
329.9082,3.433736
330.0632,3.420389
330.0648,3.423617
330.2214,3.413497
330.2249,3.420357
330.4001,3.407005
330.4033,3.413461
330.5600,3.403342
330.5618,3.406973
330.7184,3.396854
330.7217,3.403309
330.8969,3.389958
330.8985,3.393186
331.0552,3.383067
331.0586,3.389926
331.2136,3.376579
331.2169,3.383034
331.3921,3.369683
331.3955,3.376542
331.5522,3.366423
331.5538,3.369651
331.7104,3.359531
331.7121,3.362759
331.8687,3.352640
331.8721,3.359499
332.0490,3.349376
332.0506,3.352604
332.2072,3.342484
332.2091,3.346116
332.3655,3.335593
332.3673,3.339224
332.5442,3.329101
332.5474,3.335556
332.7024,3.322209
332.7059,3.329068
332.8625,3.318949
332.8641,3.322177
333.0410,3.312054
333.0444,3.318913
333.1992,3.305162
333.2027,3.312021
333.3593,3.301902
333.3609,3.305130
333.5378,3.295006
333.5396,3.298638
333.6979,3.291746
333.6995,3.294974
333.8561,3.284855
333.8579,3.288486
334.0348,3.278363
334.0364,3.281590
334.1930,3.271471
334.1965,3.278330
334.3531,3.268211
334.3547,3.271439
334.5316,3.261315
334.5332,3.264543
334.6898,3.254424
334.6917,3.258055
334.8483,3.247936
334.8515,3.254392
335.0284,3.244268
335.0302,3.247900
335.1868,3.237780
335.1901,3.244236
335.3451,3.230889
335.3485,3.237748
335.5254,3.227625
335.5270,3.230852
335.6836,3.220733
335.6871,3.227592
335.8419,3.213842
335.8453,3.220701
336.0222,3.210577
336.0238,3.213805
336.1823,3.207317
336.1839,3.210545
336.3389,3.197198
336.3421,3.203654
336.5190,3.193530
336.5208,3.197162
336.6791,3.190270
336.6807,3.193498
336.8357,3.180151
336.8389,3.186606
337.0158,3.176483
337.0176,3.180114
337.1759,3.173223
337.1775,3.176451
337.3341,3.166331
337.3360,3.169963
337.4926,3.159843
337.4942,3.163071
337.6727,3.156176
337.6745,3.159807
337.8311,3.149688
337.8328,3.152915
337.9910,3.146024
337.9928,3.149655
338.1697,3.139532
338.1713,3.142760
338.3279,3.132640
338.3314,3.139500
338.4880,3.129380
338.4896,3.132608
338.6681,3.125713
338.6699,3.129344
338.8266,3.119225
338.8282,3.122452
338.9848,3.112333
338.9864,3.115561
339.1651,3.109069
339.1667,3.112297
339.3234,3.102177
339.3250,3.105405
339.8202,3.085130
339.8236,3.091989
339.9802,3.081870
339.9819,3.085098
340.3188,3.071714
340.3204,3.074942
340.4770,3.064823
340.4789,3.068454
340.6573,3.061559
340.6590,3.064787
340.8174,3.058298
340.8190,3.061526
340.9757,3.051407
340.9773,3.054635
341.1541,3.044511
341.1560,3.048143
341.3142,3.041251
341.3158,3.044479
341.4725,3.034360
341.4741,3.037588
341.6528,3.031096
341.6544,3.034323
341.8110,3.024204
341.8126,3.027432
341.9693,3.017313
341.9711,3.020944
342.1496,3.014048
342.1512,3.017276
342.3096,3.010788
342.3113,3.014016
342.4679,3.003897
342.4695,3.007125
342.6464,2.997001
342.6482,3.000633
342.8064,2.993741
342.8081,2.996969
342.9647,2.986850
342.9665,2.990481
343.4633,2.973434
343.4649,2.976662
343.6216,2.966542
343.6234,2.970174
343.8019,2.963278
343.8035,2.966506
344.1186,2.949899
344.1218,2.956354
344.2987,2.946231
344.3005,2.949862
344.6170,2.936079
344.6188,2.939711
344.9556,2.925923
344.9574,2.929555
345.1140,2.919435
345.1156,2.922663
345.6124,2.905616
345.6143,2.909248
345.7909,2.898721
345.7927,2.902352
345.9510,2.895460
345.9526,2.898688
346.1111,2.892200
346.1127,2.895428
346.2895,2.885305
346.2911,2.888533
346.4496,2.882045
346.4512,2.885272
346.6095,2.878381
346.6113,2.882012
346.7881,2.871889
346.7898,2.875117
346.9480,2.868225
346.9498,2.871857
347.1081,2.864965
347.1097,2.868193
347.2884,2.861701
347.2900,2.864929
347.6067,2.851549
347.6083,2.854777
347.7868,2.847882
347.7886,2.851513
347.9469,2.844621
347.9485,2.847849
348.2854,2.834466
348.2870,2.837694
348.4471,2.834434
348.9457,2.821018
348.9474,2.824246
349.6042,2.803938
349.6059,2.807166
349.7643,2.800678
349.7659,2.803906
349.9444,2.797010
349.9462,2.800642
350.2627,2.786859
350.2646,2.790490
350.4430,2.783595
350.4446,2.786822
350.6047,2.783562
350.9433,2.773407
350.9449,2.776634
351.2632,2.766483
351.4435,2.763219
351.4451,2.766446
351.6036,2.759958
351.6052,2.763186
351.7618,2.753067
351.7635,2.756295
352.1036,2.749367
352.1054,2.752998
352.2621,2.742879
352.2637,2.746107
352.6006,2.732723
352.6022,2.735951
352.7623,2.732691
352.9408,2.725795
352.9424,2.729023
353.1009,2.722535
353.1025,2.725763
353.2607,2.718872
353.4410,2.715608
353.4426,2.718835
353.6011,2.712347
353.6027,2.715575
353.7594,2.705456
353.7610,2.708684
353.9396,2.702192
353.9413,2.705420
354.0995,2.698528
354.1013,2.702159
354.2596,2.695268
354.2612,2.698496
354.4179,2.688376
354.4197,2.692008
354.5981,2.685112
354.5998,2.688340
354.7582,2.681852
354.7598,2.685080
354.9181,2.678188
354.9199,2.681820
355.0968,2.671696
355.0984,2.674924
355.2566,2.668033
355.2585,2.671664
355.4167,2.664773
355.4183,2.668000
355.5952,2.657877
355.5970,2.661508
355.7553,2.654617
355.7569,2.657845
355.9153,2.651357
355.9170,2.654585
356.0954,2.647689
356.0972,2.651320
356.2539,2.641201
356.2555,2.644429
356.4138,2.637537
356.5940,2.634273
356.5957,2.637501
356.7523,2.627382
356.7541,2.631013
356.9108,2.620894
356.9124,2.624122
357.0908,2.617226
357.0927,2.620857
357.2509,2.613966
357.2525,2.617194
357.4092,2.607074
357.4110,2.610706
357.5895,2.603810
357.5911,2.607038
357.7493,2.600147
357.7512,2.603778
357.9094,2.596886
357.9110,2.600114
358.0879,2.589991
358.0897,2.593622
358.2463,2.583503
358.2496,2.589959
358.4062,2.579839
358.4080,2.583471
358.5849,2.573347
358.5865,2.576575
358.7448,2.569684
358.7466,2.573315
358.9048,2.566423
358.9065,2.569651
359.0851,2.563159
359.0868,2.566387
359.2434,2.556268
359.2450,2.559496
359.4035,2.553007
359.4051,2.556235
359.5836,2.549340
359.5854,2.552971
359.7402,2.539221
359.7436,2.546080
359.9003,2.535960
359.9019,2.539188
360.0620,2.535928
360.2404,2.529033
360.2423,2.532664
360.3989,2.522545
360.4005,2.525772
360.5588,2.518881
360.5606,2.522512
360.7391,2.515617
360.7407,2.518845
360.8957,2.505497
360.8991,2.512357
361.0558,2.502237
361.0574,2.505465
361.2359,2.498570
361.2377,2.502201
361.3959,2.495309
##END=
