##TITLE=1,2,3,4-Tetrahydroanthracene
##JCAMP-DX=4.24
##DATA TYPE=UV/VIS SPECTRUM
##ORIGIN=INSTITUTE OF ENERGY PROBLEMS OF CHEMICAL PHYSICS, RAS
##OWNER=INEP CP RAS, NIST OSRD
Collection (C) 2007 copyright by the U.S. Secretary of Commerce
on behalf of the United States of America. All rights reserved.
##CAS REGISTRY NO=2141-42-6
##MOLFORM=C14H14
##MP=100.8-101
##SOURCE REFERENCE=RAS UV No. 19803
##$NIST SQUIB=1967JOHe1/15
##$NIST SOURCE=TYUGLMTE
##SPECTROMETER/DATA SYSTEM=Unicam SP 500
##XUNITS=Wavelength (nm)
##YUNITS=Logarithm epsilon
##XFACTOR=1.0
##YFACTOR=1.0
##FIRSTX=199.94
##LASTX=330.87
##FIRSTY=4.046
##MAXX=330.87
##MINX=199.94
##MAXY=5.021
##MINY=1.027
##NPOINTS=401
##$REF AUTHOR=Johnson E.A.
##$REF JOURNAL=UV atlas of organic compounds
##$REF VOLUME=3
##$REF PAGE=E1/15
##$REF DATE=1967
##XYPOINTS=(XY..XY)
199.94,4.046
200.03,4.046
200.11,4.048
200.20,4.050
200.29,4.052
200.37,4.055
200.46,4.055
200.55,4.057
200.63,4.059
200.72,4.061
200.81,4.061
200.98,4.065
201.25,4.074
201.51,4.082
201.77,4.084
202.04,4.093
202.31,4.099
202.57,4.106
202.84,4.114
203.11,4.121
203.38,4.129
203.65,4.136
203.92,4.144
204.19,4.149
204.46,4.155
204.73,4.161
205.00,4.166
205.28,4.172
205.55,4.181
205.83,4.187
206.10,4.193
206.38,4.198
206.65,4.206
206.93,4.217
207.21,4.226
207.49,4.230
207.77,4.236
208.05,4.243
208.33,4.251
208.62,4.258
208.90,4.266
209.18,4.273
209.47,4.285
209.76,4.292
210.04,4.298
210.33,4.307
210.62,4.315
210.91,4.324
211.20,4.335
211.49,4.341
211.78,4.352
212.07,4.365
212.36,4.373
212.66,4.379
212.95,4.394
213.24,4.403
213.54,4.412
213.84,4.424
214.14,4.433
214.43,4.444
214.73,4.452
215.03,4.461
215.33,4.476
215.64,4.486
215.94,4.501
216.24,4.514
216.55,4.518
216.85,4.529
217.16,4.540
217.47,4.553
217.77,4.565
218.08,4.576
218.39,4.591
218.70,4.602
219.01,4.613
219.33,4.632
219.64,4.640
219.95,4.653
220.27,4.666
220.58,4.685
220.90,4.700
221.22,4.711
221.54,4.741
221.86,4.752
222.18,4.777
222.50,4.801
222.82,4.820
223.15,4.833
223.47,4.841
223.79,4.856
224.12,4.865
224.45,4.871
224.78,4.876
225.10,4.884
225.43,4.888
225.77,4.897
226.10,4.905
226.43,4.914
226.76,4.923
227.10,4.931
227.43,4.944
227.77,4.946
228.11,4.957
228.45,4.967
228.79,4.980
229.13,4.989
229.47,4.997
229.81,5.006
230.16,5.014
230.50,5.019
230.85,5.021
231.20,5.012
231.54,4.995
231.89,4.969
232.24,4.936
232.70,4.886
233.04,4.841
233.50,4.781
233.92,4.722
234.38,4.654
234.77,4.592
235.11,4.527
235.43,4.472
235.80,4.407
236.16,4.324
236.62,4.227
237.01,4.136
237.38,4.061
237.75,3.988
238.12,3.916
238.48,3.845
238.86,3.774
239.23,3.689
239.60,3.635
239.97,3.588
240.35,3.548
240.72,3.494
241.10,3.464
241.48,3.426
241.86,3.392
242.24,3.362
242.62,3.332
243.01,3.310
243.39,3.285
243.78,3.261
244.16,3.242
244.47,3.228
244.94,3.208
245.31,3.197
245.72,3.188
246.13,3.183
246.51,3.180
246.91,3.178
247.30,3.178
247.70,3.178
248.10,3.178
248.50,3.178
248.91,3.180
249.34,3.184
249.71,3.189
250.12,3.195
250.53,3.201
250.94,3.208
251.37,3.215
251.76,3.225
252.17,3.234
252.58,3.244
252.99,3.256
253.42,3.270
253.83,3.285
254.25,3.300
254.68,3.313
255.10,3.330
255.52,3.343
255.95,3.353
256.37,3.364
256.80,3.370
257.23,3.375
257.66,3.372
258.09,3.370
258.53,3.375
258.96,3.377
259.40,3.383
259.84,3.385
260.28,3.392
260.72,3.396
261.16,3.405
261.61,3.415
262.05,3.426
262.50,3.439
262.95,3.458
263.40,3.471
263.85,3.488
264.30,3.501
264.76,3.511
265.22,3.522
265.67,3.531
266.13,3.541
266.59,3.550
267.06,3.552
267.52,3.554
267.99,3.554
268.46,3.558
268.93,3.558
269.40,3.561
269.87,3.561
270.34,3.561
270.82,3.563
271.30,3.569
271.78,3.573
272.26,3.582
272.74,3.595
273.22,3.618
273.71,3.638
274.20,3.648
274.69,3.659
275.18,3.668
275.67,3.676
276.17,3.683
276.67,3.683
277.16,3.683
277.66,3.672
278.17,3.668
278.67,3.659
279.18,3.648
279.68,3.640
280.19,3.633
280.70,3.625
281.22,3.623
281.73,3.623
282.25,3.623
282.77,3.629
283.29,3.633
283.81,3.644
284.34,3.653
284.86,3.665
285.39,3.678
285.92,3.687
286.46,3.691
286.99,3.689
287.53,3.685
288.06,3.674
288.61,3.659
289.15,3.638
289.69,3.606
290.24,3.580
290.79,3.544
291.34,3.516
291.89,3.501
292.45,3.488
293.00,3.477
293.56,3.469
294.12,3.462
294.69,3.456
295.25,3.456
295.82,3.456
296.39,3.460
296.96,3.471
297.54,3.484
298.12,3.488
298.69,3.486
299.26,3.473
299.88,3.454
300.41,3.431
301.03,3.402
301.23,3.392
301.43,3.379
301.62,3.368
301.82,3.351
302.02,3.334
302.22,3.321
302.41,3.300
302.61,3.287
302.81,3.268
303.03,3.243
303.24,3.214
303.41,3.184
303.61,3.157
303.80,3.131
304.01,3.095
304.21,3.073
304.41,3.054
304.61,3.033
304.80,3.015
305.01,2.998
305.21,2.973
305.42,2.956
305.62,2.936
305.82,2.917
306.02,2.900
306.23,2.879
306.38,2.870
306.51,2.856
306.83,2.832
307.11,2.815
307.49,2.797
307.84,2.784
308.15,2.776
308.48,2.774
308.71,2.783
308.89,2.795
309.10,2.809
309.31,2.829
309.51,2.849
309.68,2.864
309.93,2.876
310.14,2.881
310.35,2.887
310.56,2.889
310.76,2.889
310.97,2.887
311.18,2.881
311.39,2.876
311.60,2.868
311.81,2.857
312.03,2.847
312.24,2.829
312.45,2.808
312.66,2.787
312.81,2.765
312.96,2.743
313.13,2.716
313.29,2.692
313.51,2.665
313.72,2.654
313.94,2.646
314.15,2.646
314.36,2.643
314.58,2.643
314.79,2.641
315.01,2.639
315.22,2.635
315.40,2.629
315.61,2.621
315.87,2.605
316.09,2.594
316.30,2.584
316.52,2.573
316.74,2.564
316.96,2.552
317.13,2.542
317.37,2.533
317.60,2.527
317.79,2.523
318.05,2.519
318.27,2.517
318.49,2.519
318.72,2.526
318.95,2.536
319.19,2.547
319.37,2.558
319.59,2.571
319.81,2.579
320.03,2.583
320.26,2.584
320.48,2.584
320.70,2.584
320.92,2.581
321.15,2.577
321.35,2.571
321.59,2.562
321.82,2.554
322.04,2.552
322.27,2.562
322.42,2.584
322.52,2.606
322.75,2.651
322.98,2.689
323.17,2.724
323.40,2.763
323.62,2.791
323.85,2.827
324.09,2.849
324.32,2.864
324.50,2.874
324.79,2.887
324.96,2.893
325.17,2.893
325.43,2.889
325.69,2.880
325.98,2.853
326.14,2.825
326.37,2.785
326.60,2.744
326.80,2.703
327.07,2.614
327.30,2.528
327.53,2.447
327.76,2.365
328.01,2.279
328.40,2.126
328.65,2.013
328.90,1.900
329.12,1.798
329.32,1.710
329.53,1.618
329.80,1.505
330.03,1.413
330.34,1.269
330.60,1.151
330.87,1.027
##END=
