##TITLE=Benzo[b]chrysene
##JCAMP-DX=4.24
##DATA TYPE=UV/VIS SPECTRUM
##ORIGIN=INSTITUTE OF ENERGY PROBLEMS OF CHEMICAL PHYSICS, RAS
##OWNER=INEP CP RAS, NIST OSRD
Collection (C) 2007 copyright by the U.S. Secretary of Commerce
on behalf of the United States of America. All rights reserved.
##CAS REGISTRY NO=214-17-5
##MOLFORM=C22H14
##SOURCE REFERENCE=RAS UV No. 10111
##$NIST SQUIB=1952CLA/STE6235
##$NIST SOURCE=TYUGLMTE
##SPECTROMETER/DATA SYSTEM=n.i.g.
##XUNITS=Wavelength (nm)
##YUNITS=Logarithm epsilon
##XFACTOR=1.0
##YFACTOR=1.0
##FIRSTX=222.01
##LASTX=378.45
##FIRSTY=2
##MAXX=378.45
##MINX=222.01
##MAXY=4.752
##MINY=2
##NPOINTS=277
##$REF AUTHOR=Clar, E.; Stewart, D.G.
##$REF JOURNAL=J. Am. Chem. Soc.
##$REF VOLUME=74
##$REF PAGE=6235
##$REF DATE=1952
##XYPOINTS=(XY..XY)
222.01,2.000
223.63,2.117
225.76,2.274
226.47,2.329
227.63,2.418
228.03,2.432
228.57,2.441
229.32,2.427
230.35,2.393
231.13,2.370
232.32,2.353
233.26,2.358
234.19,2.381
235.13,2.413
236.07,2.460
236.82,2.499
237.79,2.520
238.88,2.525
239.81,2.534
240.75,2.548
241.69,2.585
243.56,2.701
244.50,2.757
245.38,2.805
246.23,2.835
246.88,2.847
247.31,2.845
248.24,2.822
249.18,2.817
249.95,2.847
250.67,2.906
251.19,2.950
251.39,2.969
251.90,3.019
252.29,3.058
252.55,3.086
252.96,3.119
253.36,3.155
253.62,3.183
254.07,3.218
254.47,3.257
254.92,3.298
255.38,3.335
255.84,3.377
256.29,3.420
256.69,3.455
257.27,3.498
257.73,3.540
258.32,3.597
258.78,3.634
259.48,3.690
259.82,3.724
260.28,3.763
260.73,3.795
261.26,3.823
261.71,3.842
262.30,3.862
262.76,3.881
263.22,3.897
263.70,3.904
264.19,3.915
264.72,3.918
265.24,3.922
265.83,3.920
266.35,3.916
266.68,3.911
266.98,3.904
267.52,3.890
267.92,3.876
268.44,3.853
268.83,3.833
269.16,3.814
269.55,3.798
269.94,3.786
270.33,3.770
270.85,3.757
271.31,3.754
271.90,3.752
272.62,3.752
273.07,3.756
273.60,3.761
273.99,3.768
274.47,3.779
275.03,3.805
275.49,3.823
275.82,3.840
276.27,3.867
276.67,3.888
277.28,3.904
277.75,3.909
278.22,3.913
279.15,3.915
280.06,3.913
280.78,3.906
281.50,3.888
282.44,3.858
282.90,3.844
283.37,3.839
283.84,3.839
284.31,3.839
284.78,3.839
285.28,3.840
285.71,3.844
286.18,3.848
286.66,3.853
287.18,3.858
287.59,3.867
288.09,3.878
288.61,3.890
288.99,3.904
289.46,3.916
289.85,3.932
290.31,3.943
290.87,3.950
291.33,3.950
291.80,3.946
292.27,3.932
292.60,3.918
293.21,3.890
293.58,3.879
294.36,3.865
295.08,3.856
295.79,3.850
296.49,3.848
296.96,3.848
297.42,3.848
297.89,3.851
298.37,3.854
298.83,3.858
299.30,3.862
299.77,3.872
300.23,3.881
300.68,3.892
301.20,3.907
301.65,3.920
302.02,3.930
302.58,3.948
303.03,3.961
303.51,3.974
303.98,3.988
304.45,4.006
305.08,4.041
305.60,4.075
305.98,4.099
306.28,4.118
306.68,4.149
307.26,4.192
307.73,4.234
308.37,4.300
308.72,4.329
309.08,4.362
309.60,4.401
310.00,4.435
310.43,4.472
311.01,4.540
311.31,4.560
311.94,4.605
312.35,4.630
312.88,4.661
313.35,4.703
313.91,4.740
314.29,4.749
314.76,4.751
315.25,4.752
315.81,4.747
316.10,4.735
316.63,4.652
317.10,4.601
317.40,4.586
317.86,4.573
318.50,4.563
319.00,4.560
319.44,4.559
319.91,4.559
320.37,4.563
320.84,4.573
321.38,4.590
321.78,4.601
322.16,4.613
322.63,4.626
323.18,4.638
323.63,4.648
324.08,4.659
324.41,4.664
324.74,4.666
325.06,4.666
325.26,4.661
325.74,4.636
326.14,4.606
326.49,4.592
326.96,4.574
327.40,4.563
327.87,4.550
328.34,4.540
328.81,4.531
329.27,4.526
329.74,4.522
330.21,4.517
330.73,4.512
331.34,4.505
332.53,4.493
333.02,4.489
333.49,4.485
334.22,4.475
335.31,4.460
335.83,4.452
336.34,4.446
336.77,4.441
337.31,4.435
337.76,4.430
338.17,4.426
338.64,4.420
339.11,4.415
339.58,4.410
340.04,4.405
340.82,4.397
341.92,4.382
342.39,4.378
343.11,4.373
343.66,4.370
344.50,4.365
345.20,4.359
345.67,4.354
346.14,4.350
346.62,4.343
347.14,4.338
347.59,4.333
348.04,4.328
348.64,4.321
349.41,4.313
349.95,4.309
350.62,4.304
351.54,4.296
352.62,4.288
353.16,4.285
353.72,4.280
354.12,4.277
354.59,4.273
355.04,4.271
355.48,4.269
355.97,4.266
356.50,4.264
357.03,4.260
357.47,4.257
357.85,4.252
358.33,4.248
358.78,4.244
359.28,4.241
359.75,4.237
360.19,4.234
361.82,4.220
363.63,4.201
364.40,4.192
365.77,4.172
366.30,4.165
366.74,4.159
367.18,4.154
367.68,4.146
368.05,4.139
368.62,4.122
368.96,4.111
369.75,4.084
370.13,4.069
370.48,4.055
370.96,4.039
371.38,4.029
371.81,4.019
372.65,4.003
374.71,3.964
375.15,3.957
375.64,3.950
376.10,3.947
376.56,3.943
377.03,3.942
377.52,3.941
377.99,3.941
378.45,3.941
##END=
