##TITLE=Cyclopenta[ij]pyrido[2,1,6-de]quinolizine,3-methyl-
##JCAMP-DX=4.24
##DATA TYPE=UV/VIS SPECTRUM
##ORIGIN=INSTITUTE OF ENERGY PROBLEMS OF CHEMICAL PHYSICS, RAS
##OWNER=INEP CP RAS, NIST OSRD
Collection (C) 2007 copyright by the U.S. Secretary of Commerce
on behalf of the United States of America. All rights reserved.
##CAS REGISTRY NO=21533-76-6
##MOLFORM=C15H11N
##MP=102-103
##SOURCE REFERENCE=RAS UV No. 15240
##$NIST SQUIB=1969CUN/239
##$NIST SOURCE=TYUGLMTE
##SPECTROMETER/DATA SYSTEM=Perkin-Elmer 137-UV
##XUNITS=Wavelength (nm)
##YUNITS=Logarithm epsilon
##XFACTOR=1.0
##YFACTOR=1.0
##FIRSTX=221.61
##LASTX=695.71
##FIRSTY=4.119
##MAXX=695.71
##MINX=221.61
##MAXY=4.541
##MINY=1.977
##NPOINTS=291
##$REF AUTHOR=Cunningham, R.P.; et al.
##$REF JOURNAL=J. Chem. Soc.
##$REF VOLUME=Sect. C
##$REF PAGE=239
##$REF DATE=1969
##XYPOINTS=(XY..XY)
221.61,4.119
222.15,4.124
222.69,4.129
223.23,4.135
223.77,4.140
224.31,4.145
224.84,4.151
225.38,4.156
225.92,4.161
226.46,4.167
227.00,4.172
228.07,4.188
229.15,4.215
231.30,4.268
232.38,4.295
233.45,4.322
234.53,4.348
235.61,4.375
236.68,4.402
237.76,4.428
238.83,4.455
239.91,4.471
240.99,4.493
242.06,4.503
243.14,4.525
244.22,4.530
245.29,4.541
246.37,4.541
247.44,4.530
248.52,4.525
249.60,4.514
250.67,4.493
251.75,4.477
252.83,4.461
253.90,4.455
254.98,4.455
256.05,4.450
257.13,4.450
258.21,4.439
259.28,4.423
260.36,4.412
261.44,4.396
262.51,4.364
263.59,4.338
264.66,4.300
265.74,4.274
266.82,4.247
267.89,4.220
268.97,4.193
270.05,4.167
271.12,4.140
272.20,4.129
273.27,4.113
274.35,4.097
275.43,4.087
276.50,4.076
277.58,4.065
278.66,4.060
279.73,4.060
280.81,4.055
281.88,4.049
282.96,4.028
284.04,4.007
285.11,3.980
286.19,3.942
287.27,3.878
288.34,3.793
289.42,3.686
290.50,3.611
291.57,3.531
292.65,3.488
293.72,3.462
294.80,3.435
295.88,3.424
296.95,3.419
298.03,3.414
299.11,3.419
300.18,3.430
301.26,3.435
302.33,3.456
303.41,3.472
304.49,3.499
305.56,3.510
306.64,3.536
307.72,3.558
308.79,3.585
309.87,3.606
310.94,3.627
312.02,3.649
313.10,3.670
314.17,3.702
315.25,3.723
316.33,3.755
317.40,3.777
318.48,3.798
319.55,3.830
320.63,3.868
321.71,3.894
322.78,3.926
323.86,3.958
324.94,3.996
326.01,4.028
327.09,4.060
328.16,4.087
329.24,4.113
330.32,4.140
331.39,4.167
332.47,4.204
333.55,4.231
334.62,4.247
335.70,4.263
336.77,4.290
337.85,4.300
338.93,4.311
340.00,4.316
341.08,4.322
342.16,4.332
343.23,4.338
344.31,4.343
345.38,4.359
346.46,4.370
347.54,4.386
348.61,4.396
349.69,4.423
350.77,4.450
351.84,4.466
352.92,4.471
353.99,4.477
355.07,4.471
356.15,4.455
357.22,4.434
358.30,4.396
359.38,4.359
360.45,4.295
361.53,4.236
362.60,4.204
363.68,4.135
364.76,4.081
365.83,4.007
366.91,3.932
367.99,3.852
369.06,3.793
370.14,3.718
371.21,3.643
372.29,3.569
373.37,3.510
374.44,3.451
375.52,3.382
376.60,3.334
377.67,3.301
378.75,3.269
379.82,3.227
380.90,3.200
381.98,3.189
383.05,3.168
384.13,3.157
385.21,3.141
386.28,3.141
387.36,3.136
388.43,3.141
389.51,3.141
390.59,3.141
391.66,3.152
392.74,3.163
393.82,3.168
394.89,3.189
395.97,3.195
397.04,3.211
398.12,3.221
399.20,3.243
400.27,3.264
401.35,3.291
402.43,3.301
403.50,3.323
404.58,3.350
405.65,3.371
406.73,3.382
407.81,3.398
408.88,3.430
409.96,3.451
411.04,3.472
412.11,3.499
413.19,3.526
414.27,3.547
415.34,3.574
416.42,3.585
417.49,3.601
418.57,3.638
419.65,3.659
420.72,3.675
421.80,3.686
422.88,3.691
423.95,3.707
425.03,3.713
426.10,3.718
427.18,3.729
428.26,3.734
429.33,3.739
430.41,3.755
431.49,3.766
432.56,3.793
433.64,3.820
434.71,3.846
435.79,3.868
436.87,3.894
437.94,3.921
439.02,3.953
440.10,3.974
441.17,4.001
442.25,4.023
443.32,4.049
444.40,4.065
445.48,4.065
446.55,4.044
447.63,4.007
448.71,3.953
449.78,3.900
450.86,3.809
451.93,3.739
453.01,3.681
454.09,3.601
455.16,3.510
456.24,3.440
457.32,3.344
458.39,3.248
459.47,3.168
460.54,3.104
461.62,3.050
462.70,2.954
463.77,2.901
464.85,2.805
465.93,2.799
467.00,2.762
468.08,2.682
469.15,2.602
470.23,2.527
471.31,2.447
472.38,2.415
473.46,2.383
474.54,2.356
475.61,2.329
480.99,2.271
485.84,2.255
490.68,2.249
495.52,2.255
500.37,2.265
505.21,2.271
510.05,2.276
514.36,2.297
518.66,2.324
522.97,2.351
527.27,2.372
531.58,2.399
536.42,2.409
541.26,2.415
546.11,2.426
550.95,2.436
555.26,2.458
559.02,2.484
563.33,2.506
567.63,2.522
571.94,2.543
576.78,2.538
581.62,2.522
586.47,2.506
590.77,2.484
595.08,2.463
599.92,2.452
604.76,2.458
609.07,2.474
614.45,2.490
618.75,2.511
623.60,2.516
628.44,2.506
632.75,2.479
635.44,2.436
638.67,2.399
641.36,2.361
644.05,2.324
647.28,2.287
649.97,2.244
653.73,2.212
656.96,2.180
660.73,2.148
665.03,2.126
669.34,2.100
674.18,2.094
684.41,2.073
688.71,2.046
692.48,2.014
695.71,1.977
##END=
