##TITLE=N-(1,2,3,4-tetrahydro-7-methyl-2,4-dioxobenzo[g]pteridin-8-yl)acetamide
##JCAMP-DX=4.24
##DATA TYPE=UV/VIS SPECTRUM
##ORIGIN=INSTITUTE OF ENERGY PROBLEMS OF CHEMICAL PHYSICS, RAS
##OWNER=INEP CP RAS, NIST OSRD
Collection (C) 2007 copyright by the U.S. Secretary of Commerce
on behalf of the United States of America. All rights reserved.
##CAS REGISTRY NO=21620-15-5
##MOLFORM=C13H11N5O3
##SOURCE REFERENCE=RAS UV No. 23342
##$NIST SQUIB=1975GLE/BER1140
##$NIST SOURCE=TYUGLMTE
##SPECTROMETER/DATA SYSTEM=Hitachi EPS-3T
##XUNITS=Wavelength (nm)
##YUNITS=Logarithm epsilon
##XFACTOR=1.0
##YFACTOR=1.0
##FIRSTX=246.935
##LASTX=446.227
##FIRSTY=4.466
##MAXX=446.227
##MINX=246.935
##MAXY=4.532
##MINY=2.674
##NPOINTS=202
##$REF AUTHOR=Glebova, G.D.; Berezovskii, B.M.
##$REF JOURNAL=Zhur. Obshchei Khim.
##$REF VOLUME=45
##$REF PAGE=1140
##$REF DATE=1975
##XYPOINTS=(XY..XY)
246.935,4.466
247.935,4.471
248.935,4.476
249.935,4.481
250.935,4.486
251.935,4.492
252.935,4.499
253.935,4.505
254.935,4.512
255.935,4.518
256.935,4.524
257.935,4.528
258.935,4.531
259.935,4.532
260.935,4.530
261.935,4.524
262.985,4.519
263.985,4.496
264.985,4.472
265.985,4.446
266.985,4.420
267.985,4.391
268.985,4.361
269.985,4.329
270.985,4.294
271.985,4.257
272.112,4.249
273.112,4.218
274.112,4.183
275.112,4.144
276.112,4.099
277.112,4.050
278.112,3.995
279.112,3.934
280.112,3.866
281.112,3.791
282.112,3.707
283.112,3.615
284.112,3.515
284.700,3.427
285.700,3.360
286.700,3.292
287.700,3.223
288.700,3.153
289.700,3.083
290.700,3.013
291.700,2.945
292.700,2.879
293.700,2.818
294.700,2.764
295.700,2.720
296.700,2.690
297.700,2.674
298.700,2.674
299.700,2.689
300.700,2.716
301.700,2.753
302.700,2.796
303.700,2.843
304.700,2.891
305.700,2.940
306.700,2.988
307.700,3.035
308.700,3.079
309.700,3.122
310.700,3.162
311.700,3.200
312.700,3.235
313.700,3.269
314.700,3.300
315.700,3.330
316.700,3.357
317.700,3.383
318.700,3.407
319.700,3.429
320.700,3.451
321.700,3.471
322.700,3.491
323.700,3.510
324.700,3.528
325.700,3.546
326.700,3.564
328.500,3.595
329.500,3.623
330.500,3.647
331.500,3.669
332.500,3.688
333.500,3.705
334.500,3.721
335.500,3.735
336.500,3.749
337.500,3.762
338.500,3.774
339.500,3.786
340.500,3.798
341.500,3.809
342.500,3.821
343.500,3.833
344.500,3.845
345.500,3.856
346.500,3.869
347.500,3.881
348.500,3.894
349.500,3.907
350.500,3.920
351.500,3.933
352.500,3.946
353.500,3.960
354.500,3.974
355.500,3.988
356.500,4.002
357.500,4.016
358.500,4.031
359.500,4.045
360.500,4.059
361.500,4.073
362.500,4.087
363.500,4.101
364.500,4.114
365.500,4.128
366.209,4.138
367.209,4.150
368.209,4.162
369.209,4.175
370.209,4.188
371.209,4.201
372.209,4.214
373.209,4.227
374.209,4.239
375.209,4.251
376.209,4.262
377.209,4.272
378.209,4.282
379.209,4.290
380.209,4.297
381.209,4.303
382.209,4.307
383.209,4.310
384.209,4.311
385.209,4.310
386.209,4.307
387.209,4.301
388.209,4.292
389.868,4.273
390.868,4.259
391.868,4.240
392.868,4.217
393.868,4.191
394.868,4.162
395.868,4.132
396.868,4.101
397.868,4.071
398.868,4.042
399.868,4.016
399.883,4.013
400.883,3.992
401.883,3.974
402.883,3.958
403.883,3.943
404.883,3.929
405.883,3.915
406.883,3.901
407.883,3.887
408.883,3.872
409.883,3.856
410.883,3.840
411.883,3.823
412.883,3.806
413.883,3.788
414.883,3.770
415.883,3.752
416.883,3.734
417.883,3.715
418.883,3.697
419.883,3.679
420.883,3.659
421.883,3.637
422.227,3.627
423.227,3.599
424.227,3.571
425.227,3.541
426.227,3.511
427.227,3.481
428.227,3.450
429.227,3.420
430.227,3.389
431.227,3.359
432.227,3.329
433.227,3.299
434.227,3.268
435.227,3.237
436.227,3.204
437.227,3.170
438.227,3.133
439.227,3.093
440.227,3.049
441.227,3.000
442.227,2.946
443.227,2.887
444.227,2.824
445.227,2.762
446.227,2.708
##END=
