##TITLE=Triphenylene
##JCAMP-DX=4.24
##DATA TYPE=UV/VIS SPECTRUM
##ORIGIN=INSTITUTE OF ENERGY PROBLEMS OF CHEMICAL PHYSICS, RAS
##OWNER=INEP CP RAS, NIST OSRD
Collection (C) 2007 copyright by the U.S. Secretary of Commerce
on behalf of the United States of America. All rights reserved.
##CAS REGISTRY NO=217-59-4
##MOLFORM=C18H12
##MP=199
##BP=425
##SOURCE REFERENCE=RAS UV No. 9066
##$NIST SQUIB=1967PER/SCHe5/2C
##$NIST SOURCE=TSGMTE
##SPECTROMETER/DATA SYSTEM=Zeiss PMQ II
##XUNITS=Wavelength (nm)
##YUNITS=Logarithm epsilon
##XFACTOR=1.000000
##YFACTOR=1.000000
##FIRSTX=345.0110
##LASTX=239.3310
##FIRSTY=1.43054
##MAXX=345.011
##MINX=239.331
##MAXY=5.18327
##MINY=1.43054
##NPOINTS=1000
##$REF AUTHOR=Perkampus, H.-H.; Schmiele, C.; Braunschweig, T.H.
##$REF TITLE=Triphenylene
##$REF BOOK TITLE=UV Atlas of Organic Compounds - Vol. 3
##$REF PAGE=E5/2
##$REF DATE=1967
##$REF PUBLISHER=Plenum Press
##$REF LOCATION=New York
##XYPOINTS=(XY..XY)
345.0110,1.430538
345.0110,1.445322
344.7339,1.447363
344.7339,1.462401
344.4881,1.464440
344.4881,1.481520
344.2425,1.483559
344.2425,1.515422
343.9667,1.517716
343.9667,1.524088
343.7219,1.526129
343.7219,1.543207
343.4775,1.545246
343.4775,1.562325
343.2029,1.564364
343.2029,1.581442
342.9591,1.583482
342.9591,1.602600
342.7158,1.604894
342.7158,1.626052
342.4424,1.628090
342.4424,1.655876
342.1998,1.657915
342.1998,1.666582
341.9575,1.668621
341.9575,1.689778
341.6853,1.692072
341.6853,1.713229
341.4438,1.715269
341.4438,1.736681
341.2025,1.738720
341.2025,1.755799
340.9316,1.757838
340.9316,1.766504
340.6911,1.768544
340.6911,1.779250
340.4509,1.781289
340.4509,1.789701
340.1811,1.791995
340.1811,1.800407
339.9417,1.802447
339.9417,1.811113
339.7026,1.811113
339.7026,1.819525
339.4638,1.819525
339.4638,1.825898
339.1956,1.828192
339.1956,1.832271
338.9575,1.834564
338.9575,1.838643
338.7198,1.840937
338.7198,1.849349
338.4528,1.849349
338.4528,1.855722
338.2158,1.855722
338.2158,1.862094
337.9791,1.862094
337.9791,1.895997
337.7132,1.898291
337.7132,1.940860
337.4772,1.942900
337.4772,2.040783
337.2416,2.042823
337.2416,2.110883
336.9769,2.112922
336.9769,2.191688
336.7419,2.193727
336.7419,2.261787
336.5073,2.263827
336.5073,2.327808
336.2437,2.329847
336.2437,2.385162
336.0098,2.387201
336.0098,2.425437
335.7762,2.427731
335.7762,2.450928
335.5138,2.453222
335.5138,2.465967
335.2808,2.468006
335.2808,2.485085
335.0482,2.487124
335.0482,2.491458
334.5551,2.491458
334.5551,2.493497
334.3235,2.493497
334.3235,2.514909
334.3235,2.525360
334.0633,2.516948
334.0633,2.523321
334.0633,2.493497
333.8324,2.491458
333.6018,2.491458
333.3428,2.474379
333.3428,2.489419
333.1129,2.453222
333.1129,2.472340
332.8833,2.427731
332.8833,2.450928
332.6253,2.410653
332.6253,2.425437
332.3964,2.404280
332.3964,2.408613
332.1678,2.359671
332.1678,2.402241
331.9110,2.321435
331.9110,2.357377
331.6830,2.287278
331.6830,2.319141
331.4554,2.255415
331.4554,2.285239
331.2281,2.223551
331.2281,2.253375
330.9727,2.198061
330.9727,2.221512
330.7461,2.174610
330.7461,2.196022
330.5197,2.172570
330.2655,2.172570
330.0398,2.142746
330.0398,2.170276
329.8144,2.170276
329.8144,2.172570
329.5612,2.172570
329.1120,2.176649
329.1120,2.185315
328.8599,2.187355
328.8599,2.206473
328.6362,2.208767
328.6362,2.221512
328.4127,2.223551
328.4127,2.238336
328.1616,2.240630
328.1616,2.253375
327.9388,2.255415
327.9388,2.270454
327.7163,2.272493
327.7163,2.283199
327.4663,2.285239
327.4663,2.304357
327.2444,2.306396
327.2444,2.325514
327.0229,2.327808
327.0229,2.340553
326.5530,2.344632
326.5530,2.366044
326.5530,2.368083
326.3323,2.344632
326.3323,2.364005
326.3323,2.370377
326.0845,2.344632
325.8645,2.342593
325.6447,2.342593
325.3979,2.336220
325.3979,2.340553
325.1788,2.325514
325.1788,2.334181
324.9600,2.317102
324.9600,2.325514
324.7142,2.306396
324.7142,2.315063
324.4961,2.300023
324.4961,2.304357
324.2782,2.295945
324.2782,2.297984
324.0334,2.293651
323.8162,2.293651
323.5992,2.291611
323.3825,2.291611
323.1391,2.291611
322.7073,2.295945
322.7073,2.297984
322.4649,2.300023
322.4649,2.312769
322.2497,2.315063
322.2497,2.321435
322.0349,2.323475
322.0349,2.334181
321.7935,2.336220
321.7935,2.348965
321.5792,2.351004
321.5792,2.364005
321.3652,2.366044
321.3652,2.374456
321.1248,2.376750
321.1248,2.393574
320.9115,2.395868
320.9115,2.406319
320.6984,2.406319
320.6984,2.423398
320.4590,2.425437
320.4590,2.434104
320.4590,2.504203
320.2465,2.436143
320.2465,2.453222
320.0343,2.455261
320.0343,2.465967
319.7959,2.468006
319.7959,2.476673
319.5843,2.478712
319.5843,2.504203
319.3729,2.506242
319.1355,2.508536
318.9248,2.510576
318.9248,2.508536
318.7143,2.512615
318.7143,2.510576
318.4779,2.514909
318.4779,2.523321
318.4779,2.527654
318.4779,2.538106
318.4779,2.542439
318.2680,2.512615
318.2680,2.516948
318.2680,2.521282
318.2680,2.529694
318.2680,2.536066
317.8229,2.499870
317.8229,2.508536
317.6139,2.485085
317.6139,2.497830
317.4052,2.448888
317.4052,2.483046
317.1707,2.427731
317.1707,2.446849
316.9625,2.402241
316.9625,2.425437
316.7547,2.383123
316.7547,2.399946
316.5211,2.368083
316.5211,2.380828
316.3138,2.364005
316.3138,2.366044
315.9000,2.359671
315.6677,2.351004
315.6677,2.359671
315.4615,2.359671
315.4615,2.361710
315.2556,2.361710
314.8189,2.366044
314.8189,2.374456
314.6139,2.376750
314.6139,2.389495
314.3835,2.391535
314.3835,2.402241
314.1790,2.404280
314.1790,2.414986
313.9747,2.417025
313.9747,2.434104
313.7452,2.436143
313.7452,2.446849
313.5416,2.448888
313.5416,2.465967
313.3381,2.468006
313.3381,2.483046
313.1096,2.485085
313.1096,2.491458
312.9068,2.493497
312.9068,2.510576
312.7042,2.510576
312.7042,2.516948
312.4765,2.516948
312.4765,2.518988
312.2745,2.518988
312.2745,2.521282
312.0727,2.521282
312.0727,2.525360
311.8460,2.525360
311.8460,2.527654
311.4438,2.527654
311.4438,2.529694
311.2181,2.529694
310.8175,2.534027
310.8175,2.536066
310.5926,2.536066
310.5926,2.538106
310.3930,2.538106
310.3930,2.540400
310.1936,2.540400
310.1936,2.544733
309.9697,2.546772
309.9697,2.548812
309.7709,2.548812
309.7709,2.555184
309.5723,2.555184
309.5723,2.559518
309.3492,2.559518
309.3492,2.567930
309.1512,2.567930
309.1512,2.574302
308.9535,2.576596
308.9535,2.580675
308.7559,2.580675
308.7559,2.589342
308.5340,2.591381
308.5340,2.599793
308.3371,2.599793
308.3371,2.608460
308.1403,2.608460
308.1403,2.616872
307.9193,2.618911
307.9193,2.627578
307.7231,2.629617
307.7231,2.635990
307.5272,2.638284
307.5272,2.646696
307.3071,2.648735
307.3071,2.657402
307.1116,2.659441
307.1116,2.667853
306.9165,2.670147
306.9165,2.680598
306.6972,2.682892
306.6972,2.697677
306.5026,2.699716
306.5026,2.716795
306.3082,2.718834
306.3082,2.735913
306.0898,2.738207
306.0898,2.748658
305.8959,2.750952
305.8959,2.770070
305.7023,2.772109
305.7023,2.803973
305.4848,2.806012
305.4848,2.819012
305.2917,2.821051
305.2917,2.848581
305.0988,2.850875
305.0988,2.878405
304.8821,2.880445
304.8821,2.918935
304.6898,2.920975
304.6898,2.942132
304.4977,2.944426
304.4977,2.969917
304.2819,2.971956
304.2819,2.984701
304.0903,2.986740
304.0903,3.012486
303.8989,3.014525
303.8989,3.033643
303.6840,3.035682
303.6840,3.052761
303.4931,3.054800
303.4931,3.069840
303.3025,3.071879
303.3025,3.082585
303.0884,3.084624
303.0884,3.093291
302.8983,3.095330
302.8983,3.112409
302.7085,3.114448
302.7085,3.120821
302.4952,3.122860
302.4952,3.131527
302.3058,3.133566
302.3058,3.144272
302.1167,3.146312
302.1167,3.152684
301.9278,3.154724
301.9278,3.161096
301.7157,3.163390
301.7157,3.169763
301.5273,3.171802
301.5273,3.178175
301.3391,3.178175
301.3391,3.186842
301.1278,3.186842
301.1278,3.195254
300.9401,3.195254
300.9401,3.199587
300.7527,3.201626
300.7527,3.205960
300.5422,3.207999
300.5422,3.214372
300.3553,3.216411
300.3553,3.218705
300.1686,3.220744
300.1686,3.225078
299.9589,3.227117
299.9589,3.229156
299.7727,3.231450
299.7727,3.235529
299.5867,3.237823
299.5867,3.239862
299.3778,3.241902
299.3778,3.248274
299.1924,3.248274
299.1924,3.252608
299.0071,3.254647
299.0071,3.256941
298.7990,3.258980
298.7990,3.263314
298.6143,3.263314
298.6143,3.267392
298.4298,3.267392
298.4298,3.274020
298.2224,3.274020
298.2224,3.278098
298.0384,3.278098
298.0384,3.284471
297.8546,3.284471
297.8546,3.288804
297.6481,3.288804
297.6481,3.297216
297.4648,3.297216
297.4648,3.301550
297.2817,3.303589
297.2817,3.307922
297.0760,3.309961
297.0760,3.316334
296.8933,3.316334
296.8933,3.325001
296.7109,3.325001
296.7109,3.333413
296.5060,3.333413
296.5060,3.339785
296.3241,3.341825
296.3241,3.350492
296.1424,3.352531
296.1424,3.363237
295.9382,3.365276
295.9382,3.375982
295.7570,3.378021
295.7570,3.388727
295.5760,3.390767
295.5760,3.407845
295.3952,3.409885
295.3952,3.429003
295.1921,3.431297
295.1921,3.450415
295.0118,3.452454
295.0118,3.477945
294.8317,3.480239
294.8317,3.484317
294.6294,3.484317
294.6294,3.509808
294.4497,3.512102
294.4497,3.533259
294.2703,3.535299
294.2703,3.569456
294.0688,3.571495
294.0688,3.580162
293.8898,3.582201
293.8898,3.596986
293.7111,3.599280
293.7111,3.622476
293.5103,3.624771
293.5103,3.641849
293.3320,3.643889
293.3320,3.665046
293.1540,3.667340
293.1540,3.684164
292.9539,3.686458
292.9539,3.705576
292.7763,3.707615
292.7763,3.722400
292.5989,3.724694
292.5989,3.735400
292.3997,3.737439
292.3997,3.752224
292.2227,3.754518
292.2227,3.764969
292.0460,3.767263
292.0460,3.782048
291.8475,3.784087
291.8475,3.796832
291.6712,3.799126
291.6712,3.809578
291.4952,3.809578
291.4952,3.820284
291.2974,3.822578
291.2974,3.837362
291.1218,3.839402
291.1218,3.848068
290.9464,3.850108
290.9464,3.860814
290.7494,3.860814
290.7494,3.871265
290.5745,3.871265
290.5745,3.881971
290.3998,3.884010
290.3998,3.892677
290.2034,3.892677
290.2034,3.903128
290.0292,3.903128
290.0292,3.913834
289.8551,3.913834
289.8551,3.926579
289.6595,3.926579
289.6595,3.939325
289.4859,3.941619
289.4859,3.952070
289.3125,3.954364
289.3125,3.962776
289.1393,3.964815
289.1393,3.973482
288.9447,3.975521
288.9447,4.001012
288.7719,4.001012
288.7719,4.005346
288.5994,4.005346
288.5994,4.022424
288.4055,4.024463
288.4055,4.032875
288.2334,4.035170
288.2334,4.054287
288.0615,4.056327
288.0615,4.071111
287.8683,4.073405
287.8683,4.083857
287.6968,4.086151
287.6968,4.094563
287.5255,4.096857
287.5255,4.103229
287.3331,4.105269
287.3331,4.111641
287.1623,4.113681
287.1623,4.115975
286.9916,4.118014
286.9916,4.120053
286.7999,4.122347
286.6297,4.122347
286.6297,4.124387
286.4597,4.124387
286.4597,4.128720
286.2687,4.130759
286.2687,4.132799
286.0991,4.135093
286.0991,4.137132
285.9297,4.137132
285.9297,4.143505
285.5704,4.147838
285.5704,4.158289
285.4017,4.160583
285.4017,4.188113
285.2121,4.190407
285.2121,4.203153
285.0437,4.205192
285.0437,4.211565
284.8756,4.213604
284.8756,4.219977
284.6867,4.222271
284.5190,4.222271
284.5190,4.224310
284.1632,4.224310
283.9961,4.222271
283.8292,4.222271
283.4752,4.217937
283.4752,4.211565
283.3090,4.211565
283.3090,4.209525
283.1429,4.207231
283.1429,4.203153
282.9562,4.200859
282.9562,4.198819
282.7906,4.196780
282.7906,4.190407
282.6251,4.190407
282.6251,4.188113
282.4391,4.186074
282.4391,4.179701
282.2741,4.177407
282.2741,4.173329
282.1092,4.171035
282.1092,4.168995
281.9239,4.166956
281.9239,4.162623
281.7594,4.160583
281.7594,4.158289
281.5952,4.156250
281.5952,4.151917
281.4106,4.149877
281.4106,4.147838
281.2467,4.147838
281.2467,4.145544
281.0830,4.143505
281.0830,4.139171
280.8991,4.139171
280.8991,4.137132
280.7358,4.137132
280.7358,4.135093
280.5727,4.135093
280.5727,4.132799
280.2268,4.128720
280.0643,4.128720
279.8817,4.126426
278.5500,4.126426
278.3694,4.128720
278.2090,4.128720
278.0488,4.130759
278.0488,4.132799
277.8689,4.132799
277.8689,4.135093
277.7091,4.135093
277.7091,4.137132
277.5495,4.139171
277.5495,4.141465
277.3901,4.143505
277.3901,4.145544
277.2110,4.147838
277.2110,4.149877
277.0519,4.149877
277.0519,4.158289
276.8931,4.158289
276.8931,4.166956
276.7146,4.168995
276.7146,4.177407
276.5562,4.177407
276.5562,4.186074
276.3979,4.188113
276.3979,4.190407
276.2201,4.190407
276.2201,4.196780
276.0622,4.198819
276.0622,4.200859
275.9045,4.203153
275.9045,4.207231
275.7273,4.209525
275.7273,4.211565
275.5699,4.213604
275.5699,4.217937
275.2362,4.222271
275.2362,4.226349
274.9229,4.230683
274.9229,4.232722
274.7469,4.232722
274.7469,4.239094
274.4347,4.243428
274.4347,4.247761
273.9482,4.254134
273.9482,4.258212
273.7735,4.258212
273.7735,4.260507
273.6184,4.262546
273.2894,4.262546
273.1349,4.264585
272.8070,4.264585
272.6530,4.262546
272.3455,4.262546
272.3455,4.260507
272.1728,4.260507
272.0195,4.258212
272.0195,4.254134
270.7424,4.254134
270.5907,4.256173
270.4392,4.256173
270.2690,4.258212
270.2690,4.260507
270.1178,4.260507
269.9668,4.262546
269.7972,4.262546
269.6465,4.264585
269.4961,4.264585
269.3270,4.266879
269.1769,4.266879
269.1769,4.268918
269.0269,4.268918
268.8585,4.270958
268.5595,4.270958
268.5595,4.273252
267.9263,4.273252
267.7777,4.275291
267.6293,4.275291
267.4626,4.277585
267.3146,4.277585
267.3146,4.279625
267.1667,4.279625
267.1667,4.281664
267.0190,4.281664
266.8530,4.283958
266.7056,4.283958
266.5584,4.285997
266.3930,4.285997
266.3930,4.288036
266.2462,4.290331
266.2462,4.292370
265.9346,4.296703
265.9346,4.298743
265.7883,4.300782
265.7883,4.303076
265.6421,4.305115
265.6421,4.307154
265.4778,4.309449
265.4778,4.313527
265.3320,4.315821
265.3320,4.317860
265.1863,4.319900
265.1863,4.326272
265.0226,4.326272
265.0226,4.332645
264.8772,4.334939
264.8772,4.336978
264.7320,4.339018
264.7320,4.345390
264.5689,4.345390
264.5689,4.347684
264.4240,4.349724
264.4240,4.356096
264.2794,4.356096
264.2794,4.360430
264.1168,4.360430
264.1168,4.368842
263.9724,4.368842
263.9724,4.375214
263.8282,4.377509
263.8282,4.381587
263.6662,4.383881
263.6662,4.387960
263.5223,4.390254
263.5223,4.396626
263.3786,4.398666
263.3786,4.407078
263.2171,4.409372
263.2171,4.417784
263.0737,4.419823
263.0737,4.426196
262.9305,4.428490
262.9305,4.436902
262.7696,4.436902
262.7696,4.447608
262.6267,4.449647
262.6267,4.458059
262.4840,4.460353
262.4840,4.471059
262.3236,4.473098
262.3236,4.483804
262.1812,4.485844
262.1812,4.496550
262.0389,4.498589
262.0389,4.509295
261.8968,4.511334
261.8968,4.526119
261.7371,4.528413
261.7371,4.541158
261.5954,4.543198
261.5954,4.558237
261.4538,4.560276
261.4538,4.573022
261.2946,4.575061
261.2946,4.594179
261.1533,4.596473
261.1533,4.624003
261.0122,4.626042
261.0122,4.649493
260.8536,4.651788
260.8536,4.674984
260.7128,4.677278
260.7128,4.704808
260.5721,4.706847
260.5721,4.734632
260.4141,4.736671
260.4141,4.766495
260.2737,4.768535
260.2737,4.794025
260.1335,4.796319
260.1335,4.830222
259.9760,4.832516
259.9760,4.851634
259.8361,4.853673
259.8361,4.868458
259.6964,4.870752
259.6964,4.902615
259.5394,4.904654
259.5394,4.926067
259.4000,4.928106
259.4000,4.953596
259.2608,4.955636
259.2608,4.987499
258.8266,5.108834
258.6706,5.140698
258.6706,5.110874
258.5322,5.170522
258.5322,5.142737
258.3938,5.174600
258.3938,5.172561
258.1004,5.176894
258.1004,5.174600
257.9626,5.178934
257.9626,5.176894
257.8076,5.180973
257.8076,5.178934
257.8076,5.183267
257.6701,5.180973
257.1043,5.168227
257.1043,5.172561
256.9675,5.164149
256.9675,5.168227
256.8138,5.121580
256.8138,5.161855
256.6773,5.104501
256.6773,5.119540
255.8275,5.010950
255.8275,5.013244
255.6921,4.996166
255.6921,5.008911
255.5399,4.989793
255.5399,4.993872
255.4047,4.977048
255.4047,4.987499
255.2697,4.964303
255.2697,4.974754
255.1180,4.953596
255.1180,4.962008
254.9833,4.940851
254.9833,4.951557
254.8488,4.932439
254.8488,4.938812
254.6976,4.919694
254.6976,4.930145
254.5633,4.911027
254.5633,4.919694
254.4292,4.900321
254.4292,4.908988
254.2785,4.891909
254.2785,4.900321
254.1447,4.881203
254.1447,4.891909
254.0111,4.872791
254.0111,4.881203
253.8609,4.866419
253.8609,4.872791
253.7275,4.858007
253.7275,4.866419
253.5943,4.849340
253.5943,4.858007
253.4446,4.845261
253.4446,4.849340
253.3116,4.836595
253.3116,4.842967
253.1788,4.830222
253.1788,4.836595
253.0296,4.826143
253.0296,4.828183
252.8971,4.817477
252.8971,4.823849
252.7648,4.811104
252.7648,4.815437
252.6160,4.804731
252.6160,4.809065
252.4840,4.798359
252.4840,4.804731
252.2203,4.794025
251.5306,4.794025
251.2526,4.800398
251.2526,4.798359
251.1219,4.804731
251.1219,4.802692
250.9914,4.806771
250.9914,4.804731
250.8448,4.809065
250.8448,4.806771
250.7145,4.811104
250.7145,4.809065
250.5845,4.815437
250.5845,4.813143
250.4383,4.821810
250.4383,4.817477
250.3085,4.826143
250.3085,4.823849
250.1788,4.830222
250.1788,4.828183
250.0331,4.834555
250.0331,4.830222
249.9037,4.838889
249.9037,4.836595
249.7745,4.842967
249.7745,4.840928
249.6293,4.847301
249.6293,4.845261
249.5003,4.858007
249.5003,4.849340
249.3715,4.868458
249.3715,4.860046
249.2267,4.879164
249.2267,4.870752
249.0982,4.883497
249.0982,4.881203
248.9697,4.885537
248.9697,4.883497
248.8254,4.887576
248.8254,4.885537
248.6973,4.889870
248.6973,4.917400
248.5693,4.887576
248.1702,4.872791
248.1702,4.881203
248.0268,4.862085
248.0268,4.870752
247.8995,4.858007
247.8995,4.860046
247.7723,4.842967
247.7723,4.855712
247.6453,4.834555
247.6453,4.840928
247.5025,4.826143
247.5025,4.832516
247.3757,4.815437
247.3757,4.823849
247.2491,4.806771
247.2491,4.815437
247.1068,4.796319
247.1068,4.804731
246.9804,4.789947
246.9804,4.796319
246.8542,4.781280
246.8542,4.789947
246.7123,4.772868
246.7123,4.781280
246.5863,4.762162
246.5863,4.770829
246.4605,4.758083
246.4605,4.762162
246.3191,4.749417
246.3191,4.758083
246.1935,4.741005
246.1935,4.749417
246.0681,4.734632
246.0681,4.741005
245.9271,4.725965
245.9271,4.732593
245.8020,4.717553
245.8020,4.725965
245.6769,4.713220
245.6769,4.717553
245.5364,4.706847
245.5364,4.713220
245.4116,4.698435
245.4116,4.704808
245.2870,4.694102
245.2870,4.696396
245.1469,4.685690
245.1469,4.692063
245.0226,4.679317
245.0226,4.685690
244.8983,4.672945
244.8983,4.677278
244.7587,4.664533
244.7587,4.672945
244.6347,4.662239
244.6347,4.664533
244.5109,4.653827
244.5109,4.660199
244.3717,4.649493
244.3717,4.651788
244.2481,4.641081
244.2481,4.647454
244.1246,4.638787
244.1246,4.641081
243.9859,4.632415
243.9859,4.636748
243.8627,4.628336
243.8627,4.630375
243.7396,4.619669
243.7396,4.628336
243.6013,4.617630
243.6013,4.619669
243.4785,4.609218
243.4785,4.615591
243.3558,4.606924
243.3558,4.609218
243.2333,4.600551
243.2333,4.604885
243.0955,4.596473
243.0955,4.598512
242.9732,4.592140
242.9732,4.596473
242.7138,4.585767
242.7138,4.587806
242.5919,4.585767
242.4701,4.581433
242.4701,4.583728
242.3332,4.579394
242.3332,4.581433
242.0902,4.575061
241.9538,4.575061
241.7116,4.568688
241.7116,4.570982
241.5756,4.566649
241.5756,4.568688
241.4548,4.566649
241.3342,4.564610
241.1986,4.564610
240.9579,4.558237
240.9579,4.560276
240.4481,4.545237
240.4481,4.549570
240.0746,4.532491
240.0746,4.538864
239.9553,4.528413
239.9553,4.532491
239.8361,4.519746
239.8361,4.528413
239.7022,4.511334
239.7022,4.519746
239.5833,4.507001
239.5833,4.509295
239.4645,4.502922
239.4645,4.504962
239.3310,4.487883
##END=
