##TITLE=4-amino- 3- chlorobenzonitrile
##JCAMP-DX=4.24
##DATA TYPE=UV/VIS SPECTRUM
##ORIGIN=INSTITUTE OF ENERGY PROBLEMS OF CHEMICAL PHYSICS, RAS
##OWNER=INEP CP RAS, NIST OSRD
Collection (C) 2007 copyright by the U.S. Secretary of Commerce
on behalf of the United States of America. All rights reserved.
##CAS REGISTRY NO=21803-75-8
##MOLFORM=C7H5ClN2
##SOURCE REFERENCE=RAS UV No. 22448
##$NIST SQUIB=1977YUN/361
##$NIST SOURCE=TYUGLMTE
##SPECTROMETER/DATA SYSTEM=SFD-2
##XUNITS=Wavelength (nm)
##YUNITS=Logarithm epsilon
##XFACTOR=1.0
##YFACTOR=1.0
##FIRSTX=220.534
##LASTX=318.181
##FIRSTY=4.035
##MAXX=318.181
##MINX=220.534
##MAXY=4.324
##MINY=3.126
##NPOINTS=100
##$REF AUTHOR=Yunnikov, V.V.; et al.
##$REF JOURNAL=Zhur. Organ. Khim.
##$REF VOLUME=13
##$REF PAGE=361
##$REF DATE=1977
##XYPOINTS=(XY..XY)
220.534,4.035
221.534,3.998
222.534,3.954
223.534,3.905
224.534,3.855
225.534,3.805
226.534,3.755
227.534,3.707
228.376,3.667
229.376,3.624
230.376,3.575
231.376,3.525
232.376,3.474
233.376,3.424
234.376,3.375
235.376,3.325
236.376,3.275
237.373,3.224
238.373,3.187
239.373,3.164
240.373,3.157
241.373,3.165
242.373,3.187
243.291,3.216
244.291,3.242
245.291,3.282
246.291,3.333
247.291,3.390
248.291,3.451
249.291,3.513
250.291,3.575
251.291,3.635
252.291,3.694
253.291,3.750
254.291,3.802
255.291,3.853
256.291,3.900
257.291,3.946
258.291,3.989
259.291,4.030
260.291,4.068
260.358,4.069
261.358,4.110
262.358,4.146
263.358,4.178
264.358,4.206
265.358,4.231
266.358,4.252
267.358,4.271
268.358,4.286
269.358,4.299
270.358,4.309
271.358,4.317
272.358,4.322
273.358,4.324
274.358,4.324
275.358,4.321
276.358,4.316
277.358,4.308
278.358,4.298
279.358,4.285
280.358,4.271
281.358,4.255
282.193,4.242
283.193,4.223
284.193,4.204
285.193,4.186
286.193,4.167
287.193,4.148
288.193,4.128
289.193,4.107
290.193,4.086
291.193,4.065
292.193,4.042
293.193,4.019
294.193,3.996
295.193,3.971
296.193,3.946
297.193,3.920
298.193,3.894
299.193,3.867
300.193,3.839
301.193,3.810
302.193,3.781
303.193,3.751
304.181,3.722
305.181,3.687
306.181,3.650
307.181,3.612
308.181,3.572
309.181,3.532
310.181,3.492
311.181,3.452
312.181,3.412
313.181,3.372
314.181,3.330
315.181,3.286
316.181,3.239
317.181,3.186
318.181,3.126
##END=
