##TITLE=Chrysene
##JCAMP-DX=4.24
##DATA TYPE=UV/VIS SPECTRUM
##ORIGIN=INSTITUTE OF ENERGY PROBLEMS OF CHEMICAL PHYSICS, RAS
##OWNER=INEP CP RAS, NIST OSRD
Collection (C) 2007 copyright by the U.S. Secretary of Commerce
on behalf of the United States of America. All rights reserved.
##CAS REGISTRY NO=218-01-9
##MOLFORM=C18H12
##MP=258.2
##BP=448
##SOURCE REFERENCE=RAS UV No. 7488
##$NIST SQUIB=1965BAD/JAM190-198
##$NIST SOURCE=TSGMTE
##SPECTROMETER/DATA SYSTEM=n.i.g.
##XUNITS=Wavelength (nm)
##YUNITS=Logarithm epsilon
##XFACTOR=1.000000
##YFACTOR=1.000000
##FIRSTX=202.1831
##LASTX=327.7623
##FIRSTY=3.84084
##MAXX=327.762
##MINX=202.183
##MAXY=5.10505
##MINY=3.0625
##NPOINTS=258
##$REF AUTHOR=Badger, G.M.; Jamieson, N.C.; Lewis, G.E.
##$REF TITLE=Photochemical reactions of azo compounds. IV. Further photochemical cyclodehydrogenations
##$REF JOURNAL=Aust. J. Chem.
##$REF VOLUME=18
##$REF PAGE=190-198
##$REF DATE=1965
##XYPOINTS=(XY..XY)
202.1831,3.840843
202.8645,3.864606
203.5439,3.888385
204.2216,3.912176
204.8977,3.935980
205.5724,3.959792
206.2458,3.983612
206.9182,4.007438
207.5897,4.031267
208.2604,4.055098
208.9306,4.078929
209.6005,4.102759
210.2701,4.126584
210.9397,4.150405
211.6095,4.174217
212.2796,4.198020
212.9502,4.221812
213.6214,4.245590
214.2936,4.269354
214.9667,4.293101
215.6410,4.316829
216.3167,4.340536
216.9940,4.364221
217.6730,4.387881
218.3538,4.411515
218.3538,4.411515
219.3885,4.424139
220.3814,4.426776
221.3292,4.421071
222.2284,4.408667
223.0758,4.391207
223.8678,4.370337
224.6011,4.347697
225.2723,4.324934
225.8780,4.303689
226.4148,4.285608
226.8793,4.272333
226.8793,4.272333
227.6183,4.244800
228.3576,4.217263
229.0972,4.189719
229.8373,4.162164
230.5781,4.134594
231.3198,4.107005
232.0625,4.079395
232.8064,4.051759
233.5517,4.024093
233.5517,4.024093
234.6435,4.001490
235.8117,3.989287
237.5383,3.989248
237.5383,3.989248
238.5771,4.009984
239.4177,4.033722
240.1217,4.059565
240.7505,4.086618
241.3655,4.113985
242.0283,4.140768
242.8004,4.166074
243.7431,4.189006
243.7431,4.189006
244.7678,4.189904
245.6230,4.193023
246.5457,4.203550
246.5457,4.203550
246.9981,4.229917
247.4505,4.256284
247.9030,4.282651
248.3555,4.309016
248.8079,4.335381
249.2605,4.361745
249.7131,4.388107
250.1658,4.414467
250.6186,4.440826
251.0715,4.467184
251.5244,4.493539
251.9775,4.519891
252.4307,4.546241
252.8840,4.572587
253.3375,4.598931
253.7912,4.625272
254.2450,4.651609
254.6990,4.677942
255.1531,4.704272
255.6075,4.730597
256.0620,4.756917
256.5168,4.783233
256.9719,4.809545
256.9719,4.809545
257.6816,4.832280
258.2432,4.841881
258.7110,4.841622
259.1392,4.834776
259.5822,4.824617
260.0940,4.814421
260.7291,4.807460
261.5417,4.807009
261.5417,4.807009
262.0060,4.835760
262.4716,4.864509
262.9385,4.893258
263.4065,4.922007
263.8753,4.950754
264.3449,4.979502
264.8150,5.008249
265.2854,5.036996
265.7560,5.065743
265.7560,5.065743
266.3067,5.087516
266.6449,5.097707
267.0608,5.105050
267.0608,5.105050
267.2981,5.104467
267.5401,5.103785
267.7914,5.102904
267.7914,5.102904
268.0704,5.059792
268.3288,5.019880
268.5682,4.982922
268.7905,4.948672
268.9971,4.916886
269.1898,4.887316
269.3704,4.859718
269.5404,4.833845
269.7016,4.809452
269.8557,4.786294
270.0043,4.764124
270.1491,4.742697
270.2917,4.721766
270.4340,4.701087
270.5775,4.680413
270.7240,4.659499
270.8750,4.638100
271.0324,4.615968
271.1978,4.592860
271.3729,4.568528
271.5593,4.542727
271.7587,4.515212
271.9729,4.485737
272.2035,4.454055
272.4521,4.419922
272.7206,4.383092
272.7206,4.383092
272.9231,4.359326
273.1150,4.334196
273.3034,4.307942
273.4952,4.280801
273.6977,4.253012
273.9178,4.224816
274.1626,4.196451
274.4393,4.168156
274.7548,4.140169
275.1163,4.112729
275.5309,4.086077
276.0055,4.060450
276.5473,4.036088
277.1635,4.013229
277.8609,3.992113
277.8609,3.992113
279.2843,3.972844
280.5881,3.965145
282.0170,3.963251
283.8161,3.961396
283.8161,3.961396
284.2033,3.955016
284.6733,3.945541
285.4811,3.927170
286.8819,3.894100
289.1307,3.840530
289.1307,3.840530
290.6537,3.840896
291.8428,3.853102
292.8042,3.873705
293.6440,3.899263
294.4682,3.926333
294.4682,3.926333
295.8914,3.913095
297.0149,3.887663
297.9520,3.856052
298.8161,3.824278
298.8161,3.824278
299.7795,3.816798
300.7242,3.818146
301.6460,3.826783
302.5409,3.841172
303.4050,3.859776
304.2340,3.881058
305.0241,3.903479
305.7712,3.925502
306.4711,3.945590
307.1200,3.962204
307.7137,3.973809
307.7137,3.973809
308.2468,3.962410
308.6569,3.946104
308.9688,3.925830
309.2073,3.902527
309.3972,3.877132
309.5635,3.850585
309.7311,3.823824
309.9247,3.797789
310.1693,3.773416
310.4896,3.751645
310.9107,3.733415
311.4573,3.719664
312.1543,3.711331
313.0265,3.709354
313.0265,3.709354
313.8445,3.733843
314.5868,3.759432
315.2721,3.785856
315.9190,3.812847
316.5463,3.840136
317.1727,3.867457
317.8169,3.894543
318.4975,3.921126
319.2333,3.946939
320.0429,3.971715
320.9451,3.995186
320.9451,3.995186
321.2088,3.994041
321.4818,3.992696
321.7595,3.991253
321.7595,3.991253
322.1809,3.967451
322.5034,3.935682
322.7422,3.898810
322.9122,3.859697
323.0284,3.821205
323.1059,3.786197
323.1596,3.757535
323.2047,3.738082
323.2047,3.738082
323.3602,3.711042
323.5171,3.684016
323.6756,3.657001
323.8358,3.629996
323.9977,3.603000
324.1615,3.576011
324.3273,3.549028
324.4951,3.522048
324.6651,3.495070
324.8373,3.468094
325.0120,3.441116
325.1891,3.414137
325.3688,3.387153
325.5511,3.360165
325.7362,3.333169
325.9242,3.306165
326.1152,3.279151
326.3093,3.252125
326.5065,3.225087
326.7070,3.198033
326.9109,3.170964
327.1183,3.143877
327.3292,3.116771
327.5439,3.089644
327.7623,3.062495
##END=
