##TITLE=Naphthalene, 1-methoxy-
##JCAMP-DX=4.24
##DATA TYPE=UV/VIS SPECTRUM
##ORIGIN=INSTITUTE OF ENERGY PROBLEMS OF CHEMICAL PHYSICS, RAS
##OWNER=INEP CP RAS, NIST OSRD
Collection (C) 2007 copyright by the U.S. Secretary of Commerce
on behalf of the United States of America. All rights reserved.
##CAS REGISTRY NO=2216-69-5
##MOLFORM=C11H10O
##MP=< -10
##BP=269
##SOURCE REFERENCE=RAS UV No. 585
##$NIST SQUIB=1950RAM259-265
##$NIST SOURCE=TSGMTE
##SPECTROMETER/DATA SYSTEM=n.i.g.
##XUNITS=Wavelength (nm)
##YUNITS=Logarithm epsilon
##XFACTOR=1.000000
##YFACTOR=1.000000
##FIRSTX=331.1633
##LASTX=232.3983
##FIRSTY=1.20165
##MAXX=331.163
##MINX=232.398
##MAXY=4.37674
##MINY=1.20165
##NPOINTS=524
##$REF AUTHOR=Ramart-Lucas, P.
##$REF TITLE=Introduction a l'etude du comportement spectral des combinaisons polynucleaires
##$REF JOURNAL=Bull. Soc. Chim. Fr.
##$REF VOLUME=17
##$REF PAGE=259-265
##$REF DATE=1950
##XYPOINTS=(XY..XY)
331.1633,1.201646
331.0603,1.217281
330.9500,1.233121
330.8251,1.249061
330.8200,1.277336
330.8195,1.280207
330.8190,1.283281
330.8184,1.286456
330.4835,1.319737
330.4391,1.329784
330.3801,1.339932
330.3137,1.350285
330.3137,1.350285
330.2474,1.354066
330.1811,1.358049
330.1148,1.362136
329.7719,1.447401
329.7260,1.467010
329.6656,1.486617
329.5979,1.506225
329.5979,1.506225
329.5324,1.506813
329.4670,1.507605
329.4015,1.508497
328.7355,1.589193
328.7335,1.600138
328.7316,1.611084
328.7296,1.622028
328.1914,1.728266
328.1914,1.728266
328.1471,1.741506
328.1288,1.722791
328.0883,1.754847
328.0734,1.717317
328.0324,1.711843
328.0223,1.768392
327.3288,1.853646
327.3269,1.864591
327.3250,1.875536
327.3230,1.886481
326.6309,1.980856
326.5861,1.999096
326.5270,2.017336
326.4609,2.035575
326.4609,2.035575
326.4187,2.039238
326.3622,2.043003
326.2986,2.046970
325.6124,2.132224
325.6099,2.146362
325.6075,2.160499
325.6050,2.174636
324.9209,2.264451
324.9135,2.306862
324.8513,2.305965
324.8059,2.283262
324.7962,2.305169
324.7629,2.293665
324.7552,2.304576
324.7552,2.304576
324.2738,2.340130
324.2732,2.343322
324.2726,2.346514
324.2721,2.349707
323.9171,2.392105
323.9147,2.406242
323.9122,2.420379
323.9098,2.434517
323.5879,2.472356
323.5874,2.475548
323.5868,2.478741
323.5862,2.481933
323.2320,2.528892
323.1892,2.540747
323.1325,2.552602
323.0688,2.564457
323.0688,2.564457
323.0274,2.568239
322.9721,2.572223
322.9098,2.576308
322.5826,2.656559
322.4770,2.670692
322.3576,2.684825
322.2314,2.698958
321.9047,2.784225
321.8074,2.799744
321.7032,2.815363
321.5852,2.831185
321.5771,2.878613
321.4185,2.890464
321.2531,2.902315
321.2176,2.982576
321.1764,2.988047
321.1214,2.993518
321.0741,2.914165
321.0741,2.914165
321.0596,2.998988
321.0596,2.998988
321.0322,2.924214
320.9765,2.934362
320.9139,2.944714
320.8025,2.999570
320.5319,3.000354
320.2549,3.001239
320.2502,3.029513
320.2478,3.043667
320.2454,3.057922
320.2429,3.072380
319.2734,3.166744
319.2715,3.177689
319.2697,3.188634
319.2679,3.199579
318.9245,3.237417
318.8643,3.238327
318.8109,3.239237
318.7711,3.240147
318.7711,3.240147
318.6116,3.280273
318.6101,3.289529
318.6085,3.298987
318.6069,3.308547
318.4442,3.240135
318.1315,3.240124
317.8262,3.240112
317.8262,3.240112
317.5901,3.232840
317.3474,3.226683
316.8908,3.216363
315.1831,3.185288
314.8293,3.225439
314.6242,3.251206
314.3917,3.284674
314.3917,3.284674
314.2747,3.286628
314.1510,3.289698
313.9147,3.296512
313.9147,3.296512
313.9146,3.297103
313.9145,3.297897
313.9143,3.298792
312.9911,3.341168
312.9520,3.346656
312.8998,3.352245
312.8411,3.358036
312.8411,3.358036
312.6920,3.363503
312.5364,3.368969
312.3680,3.374435
309.9369,3.459163
309.8988,3.462945
309.8479,3.466929
309.7906,3.471014
309.7906,3.471014
309.7531,3.471604
309.7027,3.472396
309.6533,3.426317
309.6533,3.426317
309.6529,3.429188
309.6524,3.432262
309.6519,3.435438
309.6459,3.473289
309.5393,3.424505
309.4318,3.422795
309.3386,3.412167
309.3386,3.412167
309.3381,3.415039
309.3376,3.418113
309.3371,3.421288
309.3371,3.421288
309.0315,3.407274
308.7377,3.402584
308.4509,3.397995
308.1649,3.397984
308.1645,3.400855
308.1640,3.403929
308.1635,3.407104
308.1635,3.407104
308.0691,3.408604
307.9621,3.410305
307.8487,3.412108
307.8487,3.412108
307.7610,3.419857
307.6669,3.427606
307.5602,3.435355
306.0779,3.496860
305.9909,3.506112
305.8977,3.515567
305.7920,3.525123
305.7920,3.525123
305.6497,3.528900
305.5014,3.532881
305.3407,3.536961
305.3407,3.536961
305.3035,3.542432
305.2538,3.547903
305.1980,3.553373
303.7454,3.567907
303.4495,3.562101
303.1664,3.556499
302.8899,3.550998
299.2048,3.579575
299.1156,3.582442
299.0145,3.585512
298.9074,3.588683
298.9074,3.588683
298.7382,3.589267
298.5572,3.590053
298.3704,3.590940
298.3704,3.590940
298.1824,3.595509
297.9946,3.600180
297.8070,3.605053
295.0494,3.661939
294.7348,3.666503
294.4208,3.671167
294.1075,3.676035
294.1075,3.676035
293.9760,3.679222
293.8389,3.682408
293.6903,3.685594
291.8028,3.722905
291.4456,3.722889
291.0948,3.722874
290.7563,3.722859
290.7563,3.722859
290.4524,3.715683
290.1491,3.708711
289.8464,3.701840
289.8464,3.701840
289.7025,3.700144
289.5700,3.698652
289.4432,3.697261
289.4432,3.697261
288.9991,3.686769
288.5675,3.676379
288.1427,3.666192
282.6795,3.654080
282.5111,3.655576
282.3429,3.657274
282.1749,3.659073
282.1749,3.659073
281.8086,3.661336
281.4327,3.663598
281.0526,3.665860
277.6471,3.675271
277.6380,3.673312
277.5722,3.670234
277.3938,3.663402
274.3150,3.568849
274.3150,3.568849
274.3149,3.569440
274.3148,3.570234
274.3147,3.571129
274.1572,3.563959
273.9996,3.559273
273.8421,3.554688
273.8421,3.554688
273.6468,3.547398
273.4618,3.540210
273.2819,3.533225
273.2819,3.533225
273.1249,3.531528
272.9681,3.530034
272.8114,3.528641
272.8114,3.528641
272.7235,3.522252
272.6406,3.515863
272.5677,3.509475
272.5677,3.509475
272.3680,3.505496
272.1735,3.501719
271.9892,3.498045
271.9892,3.498045
271.8348,3.493932
271.6855,3.489820
271.5497,3.457435
271.5486,3.466690
271.5474,3.476149
271.5463,3.485709
271.5463,3.485709
270.1603,3.448242
270.1175,3.445639
270.0796,3.443238
270.0514,3.440940
270.0514,3.440940
269.8986,3.435459
269.7459,3.429979
269.5934,3.424499
269.5934,3.424499
269.4844,3.421892
269.3755,3.419488
269.2667,3.417185
266.5764,3.339060
266.4939,3.333972
266.4113,3.330302
266.2578,3.324906
266.2578,3.324906
266.2155,3.321712
266.1732,3.318517
266.1310,3.315323
263.5228,3.244496
263.4038,3.243594
263.2941,3.242794
263.1892,3.242197
263.1892,3.242197
263.1487,3.238108
263.1129,3.234119
263.0864,3.230335
263.0864,3.230335
262.9411,3.226239
262.7961,3.222245
262.6511,3.218454
261.7852,3.192412
261.7454,3.186937
261.7101,3.181463
261.6841,3.175989
260.3152,3.138062
260.3152,3.138062
260.3151,3.138653
260.3150,3.139447
260.3149,3.140342
260.1333,3.131684
259.9561,3.125407
259.7882,3.119335
257.3833,3.036199
257.3762,3.034240
257.3249,3.031163
257.1855,3.024331
257.1855,3.024331
257.0305,3.020589
256.8713,3.015733
256.5721,3.005598
256.5721,3.005598
256.4594,3.003903
256.3555,3.002410
256.2561,3.001020
253.9352,2.917885
253.9276,2.915926
253.8726,2.912849
253.7233,2.906016
253.7233,2.906016
253.6517,2.904323
253.5888,2.902833
253.5302,2.901444
253.5302,2.901444
253.4590,2.898248
253.3963,2.895052
253.3380,2.891856
250.9547,2.818748
250.9179,2.815554
250.8852,2.812359
250.8610,2.809166
250.8610,2.809166
250.6918,2.805068
250.5271,2.801072
250.3709,2.797279
249.1920,2.761636
249.1554,2.761634
249.1228,2.761632
249.0986,2.761631
249.0986,2.761631
249.0056,2.759345
248.9126,2.757059
248.8196,2.754773
248.8196,2.754773
248.7462,2.751576
248.6769,2.748380
248.6159,2.745184
248.6159,2.745184
248.4860,2.742575
248.3563,2.740168
248.2267,2.737863
248.0415,2.737852
247.8558,2.737840
247.6664,2.737829
247.4690,2.737817
246.6947,2.766499
246.6706,2.770281
246.6383,2.774265
246.6020,2.778350
246.6020,2.778350
246.4859,2.787599
246.3618,2.797050
246.2338,2.806602
246.2338,2.806602
246.1972,2.807190
246.1607,2.807982
246.1241,2.808875
245.3700,2.900947
245.2951,2.905114
245.1958,2.913030
244.9872,2.931478
244.7859,2.959739
244.7620,2.965227
244.7301,2.970816
244.6941,2.976607
244.6941,2.976607
244.6707,2.977196
244.6393,2.977988
244.6039,2.978881
244.5109,3.009430
244.4557,3.014899
244.3966,3.020368
244.3295,3.025836
244.3295,3.025836
244.2929,3.033603
244.2562,3.041472
244.2195,3.049543
243.8542,3.120662
243.8539,3.123533
243.8536,3.126607
243.8533,3.129782
243.8533,3.129782
243.7942,3.131282
243.7271,3.132983
243.6561,3.134786
243.6561,3.134786
243.6549,3.147234
243.6537,3.159885
243.6524,3.172637
243.6492,3.205472
243.5239,3.208656
243.3988,3.211840
243.2738,3.215024
243.2738,3.215024
243.2720,3.233739
243.2701,3.252554
243.2683,3.271573
242.9980,3.307126
242.9748,3.309405
242.9436,3.311683
242.9086,3.313961
242.7084,3.365937
242.6535,3.376895
242.5947,3.387954
242.5281,3.399216
241.8847,3.481717
241.8485,3.491883
241.8123,3.502251
241.7761,3.512721
241.4168,3.597521
241.3576,3.611654
241.2907,3.625787
241.2200,3.639919
240.7631,3.666340
240.7624,3.674092
240.7616,3.681845
240.7609,3.689598
240.7609,3.689598
240.7376,3.696572
240.7066,3.703748
240.6717,3.711026
240.6717,3.711026
240.5498,3.711018
240.4280,3.711010
240.3063,3.711002
240.3000,3.777127
240.2762,3.790367
240.2447,3.803708
240.2093,3.817252
240.2093,3.817252
240.0131,3.827272
239.9408,3.831524
239.9303,3.833651
239.7546,3.861914
239.7318,3.865696
239.7013,3.869680
239.6670,3.873765
239.6670,3.873765
239.6431,3.890198
239.6114,3.906731
239.5759,3.923467
239.3830,3.956745
239.3298,3.965998
239.2727,3.975453
239.2080,3.985008
239.2058,4.008266
239.1490,4.009765
239.0845,4.011467
239.0162,4.013270
239.0162,4.013270
238.9629,4.024211
238.9059,4.035152
238.8413,4.046093
238.3014,4.143193
238.2155,4.147765
238.1298,4.152437
238.0440,4.157313
238.0440,4.157313
237.9574,4.165972
237.8670,4.174631
237.7692,4.183289
237.4072,4.239813
237.2885,4.240396
237.1700,4.241182
237.0515,4.242070
237.0515,4.242070
236.8257,4.254502
236.5929,4.267138
236.3568,4.279874
236.3568,4.279874
236.3013,4.281373
236.2383,4.283075
236.1716,4.284878
236.1716,4.284878
236.0530,4.291372
236.0093,4.294325
236.0029,4.296267
233.6745,4.357672
233.5380,4.360855
233.3943,4.364037
233.2472,4.367219
233.2472,4.367219
233.1327,4.367211
233.0183,4.367203
232.9040,4.367195
232.9040,4.367195
232.7684,4.370378
232.6257,4.373561
232.4796,4.376743
232.4796,4.376743
232.4585,4.376741
232.4302,4.376739
232.3983,4.376737
##END=
