##TITLE=6-methoxy-2-pyridone
##JCAMP-DX=4.24
##DATA TYPE=UV/VIS SPECTRUM
##ORIGIN=INSTITUTE OF ENERGY PROBLEMS OF CHEMICAL PHYSICS, RAS
##OWNER=INEP CP RAS, NIST OSRD
Collection (C) 2007 copyright by the U.S. Secretary of Commerce
on behalf of the United States of America. All rights reserved.
##CAS REGISTRY NO=22385-36-0
##MOLFORM=C6H7NO2
##MP=104-105
##SOURCE REFERENCE=RAS UV No. 22173
##$NIST SQUIB=1978BEN/7055
##$NIST SOURCE=TYUGLMTE
##SPECTROMETER/DATA SYSTEM=Cary 118
##XUNITS=Wavelength (nm)
##YUNITS=Logarithm epsilon
##XFACTOR=1.0
##YFACTOR=1.0
##FIRSTX=252.94
##LASTX=328.964
##FIRSTY=2.853
##MAXX=328.964
##MINX=252.94
##MAXY=3.773
##MINY=2.853
##NPOINTS=154
##$REF AUTHOR=Bensaude, O.; et al.
##$REF JOURNAL=J. Am. Chem. Soc.
##$REF VOLUME=100
##$REF PAGE=7055
##$REF DATE=1978
##XYPOINTS=(XY..XY)
252.940,2.853
253.440,2.877
253.940,2.902
254.440,2.926
254.940,2.951
255.440,2.975
255.940,3.000
256.440,3.025
256.940,3.050
257.440,3.075
257.940,3.100
258.440,3.125
258.940,3.150
259.440,3.174
259.940,3.199
260.440,3.223
260.940,3.248
261.440,3.272
261.940,3.296
262.440,3.319
262.940,3.342
263.440,3.365
263.940,3.388
264.440,3.410
264.940,3.432
265.440,3.453
265.940,3.474
266.440,3.494
266.940,3.514
267.440,3.533
267.940,3.552
268.440,3.570
268.940,3.588
269.440,3.605
269.940,3.621
270.440,3.636
270.940,3.651
271.440,3.665
271.940,3.678
272.440,3.691
272.940,3.702
273.440,3.713
273.940,3.723
274.440,3.732
274.940,3.741
275.440,3.748
275.940,3.754
276.440,3.760
276.940,3.765
277.440,3.768
277.940,3.771
278.440,3.773
278.940,3.773
279.440,3.773
279.940,3.772
280.440,3.769
280.940,3.766
281.440,3.762
281.940,3.756
281.960,3.757
282.460,3.750
282.960,3.742
283.460,3.732
283.960,3.722
284.460,3.711
284.960,3.699
285.460,3.687
285.960,3.674
286.460,3.660
286.960,3.645
287.460,3.629
287.960,3.612
288.460,3.593
288.960,3.572
289.460,3.549
289.960,3.524
290.460,3.498
290.960,3.470
291.460,3.442
291.960,3.414
292.460,3.386
292.960,3.361
293.464,3.338
293.964,3.316
294.464,3.296
294.964,3.279
295.464,3.263
295.964,3.250
296.464,3.239
296.964,3.230
297.464,3.224
297.964,3.219
298.464,3.216
298.964,3.215
299.464,3.215
299.964,3.217
300.464,3.219
300.964,3.222
301.464,3.226
301.964,3.230
302.464,3.235
302.964,3.240
303.464,3.244
303.964,3.249
304.464,3.253
304.964,3.257
305.464,3.260
305.964,3.263
306.464,3.266
306.964,3.268
307.464,3.270
307.964,3.271
308.464,3.272
308.964,3.273
309.464,3.273
309.964,3.273
310.464,3.273
310.964,3.273
311.464,3.272
311.964,3.272
312.464,3.271
312.964,3.270
313.464,3.269
313.964,3.268
314.464,3.266
314.964,3.263
315.464,3.260
315.964,3.256
316.464,3.252
316.964,3.247
317.464,3.241
317.964,3.234
318.464,3.226
318.964,3.218
319.464,3.209
319.964,3.199
320.464,3.189
320.964,3.178
321.464,3.168
321.964,3.158
322.464,3.147
322.964,3.138
323.464,3.128
323.964,3.119
324.464,3.109
324.964,3.099
325.464,3.088
325.964,3.076
326.464,3.062
326.964,3.046
327.464,3.028
327.964,3.009
328.464,2.993
328.964,2.983
##END=
