##TITLE=2-amino-4(3H)-pteridinone
##JCAMP-DX=4.24
##DATA TYPE=UV/VIS SPECTRUM
##ORIGIN=INSTITUTE OF ENERGY PROBLEMS OF CHEMICAL PHYSICS, RAS
##OWNER=INEP CP RAS, NIST OSRD
Collection (C) 2007 copyright by the U.S. Secretary of Commerce
on behalf of the United States of America. All rights reserved.
##CAS REGISTRY NO=2236-60-4
##MOLFORM=C6H5N5O
##MP=>360
##SOURCE REFERENCE=RAS UV No. 23692
##$NIST SQUIB=1974PFL1299
##$NIST SOURCE=TYUGLMTE
##SPECTROMETER/DATA SYSTEM=unknown
##XUNITS=Wavelength (nm)
##YUNITS=Logarithm epsilon
##XFACTOR=1.0
##YFACTOR=1.0
##FIRSTX=221.905
##LASTX=381.045
##FIRSTY=3.836
##MAXX=381.045
##MINX=221.905
##MAXY=4.071
##MINY=3.005
##NPOINTS=163
##$REF AUTHOR=Pfleiderer, W.
##$REF JOURNAL=Khim. Geterosikl. Soedin.
##$REF PAGE=1299
##$REF DATE=1974
##XYPOINTS=(XY..XY)
221.905,3.836
222.905,3.851
223.905,3.873
224.905,3.900
225.905,3.928
226.905,3.957
227.905,3.983
228.905,4.005
229.905,4.023
230.905,4.035
231.905,4.042
232.905,4.042
233.905,4.037
234.905,4.027
235.905,4.012
236.905,3.993
237.905,3.972
238.905,3.948
239.905,3.924
240.905,3.899
241.905,3.876
242.905,3.854
243.684,3.840
244.684,3.822
245.684,3.808
246.684,3.796
247.684,3.788
248.684,3.783
249.684,3.781
250.684,3.782
251.684,3.787
252.684,3.794
253.684,3.805
254.684,3.819
255.684,3.836
256.684,3.855
257.684,3.877
258.684,3.901
259.684,3.926
260.684,3.952
261.684,3.978
261.708,3.979
262.708,4.001
263.708,4.019
264.708,4.033
265.708,4.045
266.708,4.055
267.708,4.063
268.708,4.068
269.708,4.071
270.708,4.070
271.708,4.066
272.708,4.056
273.708,4.041
274.708,4.020
275.708,3.992
276.708,3.956
277.708,3.912
278.708,3.859
279.708,3.798
280.708,3.729
280.984,3.709
281.984,3.639
282.984,3.548
283.984,3.454
284.984,3.369
285.741,3.312
286.741,3.260
287.741,3.226
288.741,3.204
289.741,3.192
290.741,3.188
291.741,3.189
292.741,3.195
293.741,3.203
294.741,3.213
295.741,3.224
296.741,3.237
297.741,3.250
298.741,3.265
299.741,3.281
300.741,3.299
301.751,3.315
302.751,3.333
303.751,3.351
304.751,3.370
305.751,3.389
306.751,3.408
307.751,3.428
308.751,3.448
309.751,3.467
310.751,3.486
311.751,3.506
312.751,3.524
313.751,3.543
314.751,3.561
315.751,3.579
316.751,3.596
317.751,3.612
318.751,3.628
319.751,3.643
320.751,3.657
321.751,3.670
322.751,3.683
323.751,3.695
324.751,3.706
325.751,3.716
326.045,3.716
327.045,3.728
328.045,3.739
329.045,3.747
330.045,3.754
331.045,3.760
332.045,3.765
333.045,3.769
334.045,3.772
335.045,3.775
336.045,3.776
337.045,3.777
338.045,3.778
339.045,3.777
340.045,3.777
341.045,3.776
342.045,3.774
343.045,3.772
344.045,3.769
345.045,3.766
346.045,3.762
347.045,3.758
348.045,3.754
349.045,3.748
350.045,3.743
351.045,3.736
352.045,3.730
353.045,3.722
354.045,3.715
355.045,3.706
356.045,3.697
357.045,3.688
358.045,3.677
359.045,3.666
360.045,3.655
361.045,3.643
362.045,3.630
363.045,3.616
364.045,3.601
365.045,3.586
366.045,3.569
367.045,3.551
368.045,3.531
369.045,3.510
370.045,3.488
371.045,3.463
372.045,3.435
373.045,3.405
374.045,3.372
375.045,3.335
376.045,3.294
377.045,3.249
378.045,3.198
379.045,3.141
380.045,3.077
381.045,3.005
##END=
