##TITLE=Dibenz[a,j]anthracene
##JCAMP-DX=4.24
##DATA TYPE=UV/VIS SPECTRUM
##ORIGIN=INSTITUTE OF ENERGY PROBLEMS OF CHEMICAL PHYSICS, RAS
##OWNER=INEP CP RAS, NIST OSRD
Collection (C) 2007 copyright by the U.S. Secretary of Commerce
on behalf of the United States of America. All rights reserved.
##CAS REGISTRY NO=224-41-9
##MOLFORM=C22H14
##MP=196
##SOURCE REFERENCE=RAS UV No. 19824
##$NIST SQUIB=1967PERe5/7
##$NIST SOURCE=TYUGLMTE
##SPECTROMETER/DATA SYSTEM=Zeiss PMQ II
##XUNITS=Wavelength (nm)
##YUNITS=Logarithm epsilon
##XFACTOR=1.0
##YFACTOR=1.0
##FIRSTX=182.68
##LASTX=399.74
##FIRSTY=4.536
##MAXX=399.74
##MINX=182.68
##MAXY=5.107
##MINY=1.461
##NPOINTS=604
##$REF AUTHOR=Perkampus, H.-H.
##$REF JOURNAL=UV atlas of organic compounds
##$REF VOLUME=3
##$REF PAGE=E5/7
##$REF DATE=1967
##XYPOINTS=(XY..XY)
182.68,4.536
183.11,4.522
183.55,4.507
184.05,4.496
184.57,4.483
185.17,4.475
185.69,4.462
186.28,4.453
186.96,4.449
187.64,4.447
188.33,4.440
189.02,4.436
189.57,4.425
189.96,4.411
190.42,4.398
191.05,4.387
191.77,4.387
192.48,4.389
193.21,4.393
193.94,4.396
194.67,4.400
195.33,4.406
196.07,4.413
196.66,4.423
197.33,4.432
197.92,4.443
198.51,4.455
199.11,4.466
199.71,4.479
200.23,4.494
200.75,4.507
201.37,4.519
202.07,4.528
202.87,4.528
203.67,4.522
204.39,4.511
205.12,4.502
205.85,4.496
206.58,4.485
207.41,4.492
208.07,4.502
208.91,4.502
209.67,4.492
210.53,4.485
211.39,4.487
212.07,4.498
212.85,4.504
213.44,4.517
214.04,4.532
214.40,4.542
214.68,4.548
214.95,4.552
215.20,4.552
215.32,4.552
215.46,4.552
215.61,4.552
215.74,4.551
215.84,4.550
215.93,4.549
216.10,4.547
216.34,4.543
216.53,4.539
216.74,4.534
216.95,4.528
217.15,4.524
217.35,4.517
217.56,4.511
217.71,4.508
217.95,4.507
218.17,4.507
218.38,4.509
218.59,4.511
218.79,4.513
219.00,4.517
219.21,4.519
219.41,4.521
219.59,4.523
219.83,4.524
220.03,4.524
220.30,4.525
220.55,4.525
220.75,4.527
220.97,4.530
221.09,4.532
221.30,4.536
221.52,4.541
221.73,4.545
221.94,4.551
222.16,4.558
222.37,4.564
222.58,4.573
222.80,4.579
223.01,4.592
223.23,4.605
223.44,4.618
223.66,4.630
223.87,4.645
224.09,4.656
224.34,4.668
224.53,4.675
224.74,4.684
224.96,4.692
225.18,4.697
225.40,4.697
225.62,4.692
225.84,4.684
226.08,4.669
226.33,4.656
226.51,4.645
226.73,4.633
226.95,4.620
227.17,4.601
227.40,4.562
227.62,4.534
227.82,4.519
228.07,4.500
228.29,4.490
228.52,4.477
228.75,4.453
228.97,4.436
229.20,4.406
229.43,4.378
229.65,4.355
229.88,4.327
230.11,4.302
230.34,4.289
230.57,4.267
230.80,4.246
231.03,4.227
231.26,4.212
231.49,4.195
231.72,4.182
231.96,4.171
232.19,4.163
232.38,4.158
232.60,4.154
232.80,4.152
233.12,4.151
233.36,4.152
233.62,4.154
233.87,4.156
234.12,4.158
234.36,4.160
234.64,4.162
234.91,4.166
235.13,4.168
235.33,4.170
235.50,4.171
235.74,4.176
236.00,4.179
236.27,4.183
236.46,4.186
236.70,4.191
236.95,4.195
237.19,4.199
237.43,4.203
237.68,4.208
237.92,4.214
238.17,4.218
238.41,4.227
238.66,4.235
238.90,4.240
239.15,4.248
239.40,4.257
239.65,4.265
239.90,4.272
240.14,4.282
240.47,4.291
240.79,4.299
241.09,4.309
241.46,4.318
241.78,4.326
242.16,4.336
242.41,4.344
242.66,4.351
242.92,4.359
243.17,4.368
243.43,4.376
243.69,4.381
243.91,4.385
244.20,4.391
244.46,4.395
244.72,4.398
244.98,4.400
245.25,4.401
245.50,4.404
245.76,4.406
246.02,4.408
246.28,4.413
246.54,4.415
246.81,4.417
247.07,4.419
247.33,4.421
247.60,4.425
247.86,4.428
248.18,4.432
248.45,4.438
248.70,4.442
248.93,4.447
249.20,4.451
249.47,4.457
249.74,4.462
250.02,4.466
250.24,4.469
250.51,4.471
250.78,4.473
251.09,4.472
251.37,4.470
251.64,4.468
251.91,4.466
252.15,4.464
252.35,4.462
252.74,4.460
253.02,4.457
253.29,4.455
253.54,4.453
253.85,4.449
254.13,4.447
254.38,4.445
254.69,4.445
254.97,4.445
255.25,4.445
255.60,4.448
255.81,4.451
256.10,4.457
256.38,4.470
256.66,4.483
256.95,4.504
257.24,4.519
257.41,4.531
257.68,4.549
257.95,4.565
258.39,4.592
258.67,4.601
258.96,4.601
259.27,4.587
259.54,4.571
259.84,4.551
260.13,4.519
260.42,4.487
260.71,4.449
261.01,4.421
261.30,4.385
261.60,4.344
261.90,4.308
262.19,4.289
262.49,4.265
262.79,4.255
263.09,4.246
263.39,4.242
263.69,4.235
263.99,4.233
264.27,4.232
264.54,4.230
264.89,4.227
265.20,4.225
265.50,4.223
265.81,4.220
266.11,4.218
266.42,4.214
266.73,4.212
267.04,4.210
267.34,4.206
267.65,4.203
267.97,4.202
268.27,4.201
268.59,4.201
268.90,4.201
269.23,4.202
269.52,4.203
269.84,4.206
270.15,4.210
270.47,4.214
270.77,4.219
271.10,4.225
271.41,4.231
271.74,4.238
272.06,4.248
272.38,4.259
272.70,4.270
273.02,4.282
273.45,4.304
273.67,4.321
273.87,4.341
274.32,4.396
274.64,4.421
274.97,4.445
275.33,4.466
275.63,4.479
275.96,4.487
276.28,4.496
276.62,4.496
276.95,4.492
277.28,4.485
277.61,4.477
277.94,4.468
278.28,4.460
278.61,4.451
278.95,4.449
279.28,4.448
279.65,4.448
280.00,4.448
280.27,4.448
280.67,4.450
280.98,4.451
281.33,4.453
281.66,4.458
282.01,4.466
282.36,4.477
282.70,4.490
283.12,4.517
283.49,4.538
283.74,4.558
284.24,4.596
284.44,4.622
284.79,4.675
285.14,4.739
285.38,4.768
285.84,4.818
286.29,4.855
286.55,4.870
286.91,4.880
287.26,4.880
287.62,4.874
287.98,4.863
288.34,4.848
288.70,4.829
289.07,4.805
289.42,4.786
289.78,4.765
290.15,4.748
290.51,4.731
290.83,4.722
291.24,4.714
291.61,4.705
291.97,4.698
292.35,4.692
292.72,4.688
293.09,4.686
293.46,4.684
293.83,4.684
294.21,4.686
294.58,4.694
294.96,4.705
295.33,4.718
295.79,4.738
296.09,4.761
296.56,4.824
296.85,4.867
297.23,4.966
297.61,5.015
298.00,5.066
298.38,5.098
298.77,5.107
299.15,5.107
299.54,5.098
299.93,5.064
300.32,5.002
300.71,4.974
301.03,4.965
301.45,4.957
301.82,4.950
302.28,4.940
302.68,4.929
303.07,4.919
303.47,4.906
303.87,4.889
304.27,4.865
304.67,4.797
305.07,4.727
305.47,4.671
305.88,4.596
306.28,4.490
306.69,4.447
307.10,4.408
307.40,4.391
307.91,4.372
308.32,4.357
308.74,4.340
309.15,4.325
309.58,4.310
309.98,4.297
310.39,4.280
310.81,4.263
311.23,4.244
311.65,4.229
312.07,4.210
312.49,4.188
312.91,4.169
313.26,4.155
313.76,4.137
314.10,4.128
314.61,4.118
315.04,4.112
315.46,4.106
315.83,4.102
316.34,4.099
316.77,4.097
317.20,4.097
317.64,4.099
318.09,4.101
318.51,4.105
318.95,4.114
319.39,4.122
319.80,4.133
320.28,4.146
320.72,4.156
321.12,4.166
321.51,4.177
321.89,4.189
322.68,4.217
323.05,4.225
323.41,4.225
323.86,4.216
324.32,4.195
324.83,4.163
325.22,4.136
325.67,4.107
326.13,4.081
326.73,4.051
327.36,4.018
328.23,3.981
328.70,3.969
329.22,3.958
329.61,3.953
330.05,3.958
330.59,3.968
331.05,3.980
331.52,3.994
332.03,4.009
332.51,4.027
332.95,4.043
333.43,4.065
333.92,4.094
334.40,4.122
334.88,4.146
335.37,4.156
335.86,4.152
336.32,4.144
336.83,4.137
337.32,4.135
337.82,4.137
338.06,4.154
338.31,4.163
338.81,4.163
339.30,4.150
339.80,4.135
340.22,4.104
340.47,4.070
340.87,4.018
341.33,3.966
341.83,3.899
342.54,3.814
343.14,3.737
343.75,3.685
344.05,3.663
344.35,3.650
344.61,3.648
345.13,3.642
345.64,3.635
346.16,3.627
346.68,3.608
347.20,3.606
347.72,3.606
348.24,3.616
348.68,3.653
348.94,3.690
349.09,3.715
349.34,3.735
349.56,3.749
349.82,3.757
350.35,3.770
350.88,3.770
351.42,3.761
351.86,3.742
352.31,3.705
352.92,3.641
353.62,3.559
354.38,3.471
354.68,3.423
355.19,3.351
355.64,3.301
356.29,3.225
356.84,3.149
357.39,3.061
357.94,3.001
358.50,2.899
359.37,2.793
360.33,2.666
361.30,2.540
361.49,2.527
361.86,2.519
362.24,2.508
362.54,2.505
362.80,2.505
363.10,2.510
363.35,2.522
363.57,2.536
363.85,2.546
364.14,2.549
364.43,2.549
364.72,2.549
365.00,2.549
365.29,2.551
365.58,2.551
365.87,2.549
366.16,2.542
366.45,2.538
366.74,2.529
366.98,2.510
367.32,2.493
367.63,2.483
367.94,2.483
368.19,2.483
368.49,2.485
368.79,2.495
369.08,2.521
369.37,2.538
369.67,2.553
369.97,2.557
370.26,2.557
370.61,2.565
370.85,2.576
371.15,2.604
371.45,2.617
371.75,2.628
372.05,2.647
372.27,2.664
372.65,2.677
372.95,2.681
373.25,2.683
373.55,2.683
373.85,2.683
374.15,2.683
374.44,2.676
374.76,2.672
375.04,2.649
375.35,2.619
375.67,2.574
376.10,2.517
376.56,2.463
377.11,2.401
377.46,2.366
377.71,2.346
378.13,2.329
378.44,2.320
378.72,2.312
379.08,2.302
379.38,2.297
379.73,2.289
380.03,2.289
380.28,2.292
380.64,2.302
380.94,2.309
381.29,2.322
381.59,2.336
381.90,2.359
382.35,2.413
382.82,2.457
383.16,2.478
383.46,2.485
383.76,2.488
384.11,2.493
384.47,2.493
384.67,2.495
385.02,2.490
385.27,2.483
385.70,2.459
386.18,2.381
386.53,2.322
386.94,2.267
387.29,2.217
387.63,2.194
387.96,2.186
388.29,2.179
388.61,2.175
388.94,2.171
389.27,2.164
389.81,2.143
390.58,2.104
390.97,2.084
391.27,2.081
391.57,2.086
391.93,2.091
392.24,2.107
392.88,2.277
393.39,2.441
393.57,2.485
393.89,2.517
394.19,2.535
394.65,2.542
395.05,2.545
395.20,2.545
395.45,2.542
395.86,2.527
396.27,2.485
396.92,2.361
397.42,2.240
397.97,2.100
398.31,2.002
398.78,1.846
399.13,1.699
399.69,1.481
399.74,1.461
##END=
