##TITLE=Benzo[a]phenazine
##JCAMP-DX=4.24
##DATA TYPE=UV/VIS SPECTRUM
##ORIGIN=INSTITUTE OF ENERGY PROBLEMS OF CHEMICAL PHYSICS, RAS
##OWNER=INEP CP RAS, NIST OSRD
Collection (C) 2007 copyright by the U.S. Secretary of Commerce
on behalf of the United States of America. All rights reserved.
##CAS REGISTRY NO=225-61-6
##MOLFORM=C16H10N2
##MP=142.5
##BP=> 360
##SOURCE REFERENCE=RAS UV No. 10029
##$NIST SQUIB=1951BAD/PET3199
##$NIST SOURCE=TYUGLMTE
##SPECTROMETER/DATA SYSTEM=Beckman DU
##XUNITS=Wavelength (nm)
##YUNITS=Logarithm epsilon
##XFACTOR=1.0
##YFACTOR=1.0
##FIRSTX=219.92
##LASTX=418.19
##FIRSTY=3.639
##MAXX=418.19
##MINX=219.92
##MAXY=3.718
##MINY=2.315
##NPOINTS=136
##$REF AUTHOR=Badger, G.M.; Pettit, R.
##$REF JOURNAL=J. Chem. Soc.
##$REF PAGE=3199
##$REF DATE=1951
##XYPOINTS=(XY..XY)
219.92,3.639
221.45,3.638
222.66,3.636
224.21,3.634
226.98,3.624
229.04,3.602
230.59,3.558
232.14,3.519
233.70,3.481
235.25,3.453
236.80,3.425
238.35,3.376
239.90,3.326
241.45,3.265
242.05,3.257
243.00,3.254
243.86,3.256
244.55,3.260
246.10,3.276
247.65,3.287
249.21,3.293
250.64,3.297
252.30,3.298
253.85,3.298
255.50,3.303
256.95,3.315
258.50,3.331
260.05,3.359
262.01,3.396
263.15,3.420
264.70,3.459
266.25,3.497
267.99,3.538
269.35,3.569
271.57,3.630
272.45,3.652
274.01,3.685
275.56,3.707
276.21,3.715
277.11,3.718
278.00,3.715
278.75,3.707
279.05,3.681
280.21,3.657
281.76,3.646
283.31,3.630
284.86,3.619
285.92,3.602
287.96,3.519
289.51,3.409
291.06,3.298
292.61,3.182
294.16,3.083
295.71,2.972
297.26,2.818
298.81,2.696
300.36,2.602
301.91,2.530
303.46,2.486
305.01,2.436
306.09,2.408
308.18,2.384
309.66,2.381
311.32,2.386
312.76,2.392
314.61,2.408
315.87,2.420
318.34,2.447
320.52,2.470
322.07,2.486
323.62,2.503
325.17,2.525
326.44,2.548
328.27,2.569
329.82,2.591
330.91,2.610
332.63,2.629
334.47,2.652
335.72,2.671
337.57,2.696
339.12,2.729
340.88,2.756
342.22,2.779
343.77,2.790
345.32,2.807
346.87,2.834
348.42,2.856
349.97,2.878
351.52,2.906
353.07,2.923
354.63,2.945
356.18,2.961
357.73,2.983
359.28,3.006
360.83,3.017
362.38,3.033
363.93,3.039
365.48,3.050
367.03,3.055
368.58,3.055
370.13,3.061
371.68,3.066
373.23,3.077
374.78,3.099
376.33,3.122
377.88,3.149
379.43,3.182
381.39,3.212
382.53,3.221
384.08,3.210
385.63,3.188
387.18,3.155
388.73,3.138
389.76,3.129
390.70,3.111
391.83,3.088
392.66,3.086
393.39,3.088
394.94,3.110
396.49,3.138
398.04,3.171
399.59,3.221
401.14,3.243
401.72,3.249
402.69,3.254
403.81,3.247
404.24,3.238
405.79,3.204
407.34,3.160
408.89,3.066
410.44,2.983
410.67,2.956
413.54,2.718
415.09,2.624
416.64,2.481
418.19,2.315
##END=
