##TITLE=4-[2-(4-aminophenyl)ethenyl]-N,N-dimethylbenzenamine
##JCAMP-DX=4.24
##DATA TYPE=UV/VIS SPECTRUM
##ORIGIN=INSTITUTE OF ENERGY PROBLEMS OF CHEMICAL PHYSICS, RAS
##OWNER=INEP CP RAS, NIST OSRD
Collection (C) 2007 copyright by the U.S. Secretary of Commerce
on behalf of the United States of America. All rights reserved.
##CAS REGISTRY NO=22525-43-5
##MOLFORM=C16H18N2
##MP=173-174
##SOURCE REFERENCE=RAS UV No. 22773
##$NIST SQUIB=1983KRA/33
##$NIST SOURCE=TYUGLMTE
##SPECTROMETER/DATA SYSTEM=SF-4
##XUNITS=Wavelength (nm)
##YUNITS=Logarithm epsilon
##XFACTOR=1.0
##YFACTOR=1.0
##FIRSTX=230.524
##LASTX=397.003
##FIRSTY=3.835
##MAXX=397.003
##MINX=230.524
##MAXY=4.469
##MINY=3.355
##NPOINTS=87
##$REF AUTHOR=Krasovitskii, B.M.; et al.
##$REF JOURNAL=Khim. Geterosikl. Soedin.
##$REF PAGE=33
##$REF DATE=1983
##XYPOINTS=(XY..XY)
230.524,3.835
230.786,3.832
232.786,3.795
234.786,3.758
236.786,3.723
238.786,3.691
240.786,3.662
242.786,3.637
244.786,3.615
246.786,3.596
248.786,3.578
250.786,3.560
252.786,3.544
254.786,3.528
256.786,3.512
258.786,3.496
260.786,3.482
262.786,3.471
264.786,3.463
266.786,3.461
268.786,3.464
270.786,3.475
272.786,3.493
274.431,3.512
276.431,3.551
278.431,3.590
280.431,3.629
282.431,3.668
284.431,3.707
286.431,3.746
288.431,3.785
290.431,3.826
292.431,3.867
294.431,3.908
296.431,3.951
298.431,3.994
300.431,4.037
302.431,4.080
304.431,4.122
306.431,4.161
308.431,4.199
310.431,4.232
312.431,4.262
314.431,4.287
316.431,4.306
318.431,4.321
320.431,4.331
322.431,4.338
322.780,4.339
324.780,4.346
326.780,4.355
328.780,4.363
330.780,4.371
332.780,4.378
334.541,4.383
336.541,4.391
338.541,4.400
340.541,4.410
342.541,4.421
344.541,4.431
346.541,4.441
348.541,4.450
350.541,4.457
352.541,4.463
354.541,4.467
356.541,4.469
358.541,4.468
360.541,4.464
362.541,4.457
364.541,4.448
366.541,4.435
368.541,4.419
370.541,4.400
372.541,4.377
375.108,4.326
377.108,4.280
379.108,4.228
381.108,4.173
383.108,4.117
384.981,4.070
386.981,4.010
388.981,3.929
390.981,3.838
392.981,3.732
394.981,3.585
396.981,3.357
397.003,3.355
##END=
