##TITLE=[1,2,4,5]Tetrazino[1,6-a:4,3-a']diisoquinoline
##JCAMP-DX=4.24
##DATA TYPE=UV/VIS SPECTRUM
##ORIGIN=INSTITUTE OF ENERGY PROBLEMS OF CHEMICAL PHYSICS, RAS
##OWNER=INEP CP RAS, NIST OSRD
Collection (C) 2007 copyright by the U.S. Secretary of Commerce
on behalf of the United States of America. All rights reserved.
##CAS REGISTRY NO=226-65-3
##MOLFORM=C18H12N4
##MP=263-265
##SOURCE REFERENCE=RAS UV No. 17079
##$NIST SQUIB=1986EIC/BAL1521
##$NIST SOURCE=TYUGLMTE
##SPECTROMETER/DATA SYSTEM=Perkin-Elmer Lambda 5
##XUNITS=Wavelength (nm)
##YUNITS=Logarithm epsilon
##XFACTOR=1.0
##YFACTOR=1.0
##FIRSTX=245.33
##LASTX=514.7
##FIRSTY=4.56
##MAXX=514.7
##MINX=245.33
##MAXY=4.622
##MINY=2.074
##NPOINTS=165
##$REF AUTHOR=Eichenberger, T.; Balli, H.
##$REF JOURNAL=Helv. Chim. Acta
##$REF VOLUME=69
##$REF PAGE=1521
##$REF DATE=1986
##XYPOINTS=(XY..XY)
245.33,4.560
246.19,4.571
247.06,4.579
247.93,4.586
248.81,4.594
249.69,4.602
250.58,4.607
251.48,4.613
252.38,4.618
253.29,4.622
254.20,4.621
255.13,4.618
256.05,4.616
256.99,4.612
257.93,4.607
258.88,4.603
259.84,4.599
260.80,4.594
261.77,4.590
262.75,4.586
263.74,4.578
264.73,4.570
265.73,4.560
266.74,4.550
267.75,4.538
268.78,4.529
269.81,4.518
270.85,4.510
271.90,4.505
272.95,4.503
274.01,4.502
275.09,4.497
276.17,4.490
277.26,4.480
278.35,4.457
279.46,4.437
280.57,4.413
281.70,4.389
282.83,4.365
283.97,4.349
285.13,4.337
286.29,4.330
287.46,4.322
288.64,4.307
289.83,4.275
291.03,4.223
292.24,4.160
293.45,4.090
294.68,4.026
295.92,3.952
297.18,3.890
298.44,3.825
299.71,3.776
300.99,3.730
302.29,3.689
303.31,3.669
304.91,3.645
306.23,3.621
307.57,3.595
308.93,3.568
309.99,3.560
311.66,3.554
313.05,3.554
314.45,3.554
315.86,3.554
317.29,3.554
318.97,3.556
320.18,3.568
321.64,3.582
322.82,3.592
324.11,3.602
326.12,3.608
327.64,3.608
329.17,3.608
330.72,3.608
332.28,3.608
333.86,3.608
335.45,3.608
337.20,3.615
338.68,3.621
340.32,3.633
341.00,3.635
341.98,3.633
343.03,3.628
343.65,3.621
345.34,3.595
346.96,3.578
348.76,3.568
350.50,3.568
352.61,3.570
354.03,3.582
355.98,3.605
357.63,3.621
359.62,3.641
361.31,3.656
362.96,3.673
365.06,3.689
366.96,3.710
368.93,3.725
370.84,3.739
372.80,3.758
374.79,3.767
376.52,3.778
378.88,3.792
381.14,3.802
382.95,3.809
385.05,3.817
387.17,3.825
389.31,3.833
391.34,3.838
393.70,3.842
396.06,3.846
397.78,3.849
400.25,3.853
402.61,3.857
404.87,3.860
407.36,3.862
409.38,3.864
411.52,3.866
413.89,3.867
417.02,3.869
419.51,3.869
422.02,3.869
424.52,3.867
427.15,3.862
429.76,3.855
432.41,3.848
435.08,3.840
437.79,3.833
440.53,3.825
443.20,3.815
446.12,3.801
448.97,3.784
451.86,3.767
454.69,3.745
457.74,3.720
460.74,3.689
463.74,3.659
466.86,3.621
469.84,3.586
472.82,3.552
476.37,3.504
479.59,3.457
482.89,3.399
486.23,3.332
488.99,3.267
490.98,3.225
492.96,3.188
494.81,3.143
496.23,3.109
497.70,3.077
498.92,3.047
500.34,3.002
501.24,2.980
502.47,2.940
503.74,2.902
504.84,2.855
506.01,2.806
507.29,2.748
508.43,2.703
509.56,2.645
510.96,2.553
512.40,2.456
513.44,2.377
514.70,2.074
##END=
