##TITLE=N-(1-benzoyl-2,4-dioxo-3-pyrrolidinyl)benzamide
##JCAMP-DX=4.24
##DATA TYPE=UV/VIS SPECTRUM
##ORIGIN=INSTITUTE OF ENERGY PROBLEMS OF CHEMICAL PHYSICS, RAS
##OWNER=INEP CP RAS, NIST OSRD
Collection (C) 2007 copyright by the U.S. Secretary of Commerce
on behalf of the United States of America. All rights reserved.
##CAS REGISTRY NO=22747-91-7
##MOLFORM=C18H14N2O4
##MP=138-139
##SOURCE REFERENCE=RAS UV No. 22592
##$NIST SQUIB=1977VEL/477
##$NIST SOURCE=TYUGLMTE
##SPECTROMETER/DATA SYSTEM=SF-4
##XUNITS=Wavelength (nm)
##YUNITS=Logarithm epsilon
##XFACTOR=1.0
##YFACTOR=1.0
##FIRSTX=202.514
##LASTX=320.181
##FIRSTY=4.195
##MAXX=320.181
##MINX=202.514
##MAXY=4.29
##MINY=3.647
##NPOINTS=120
##$REF AUTHOR=Velezheva, V.S.; et al.
##$REF JOURNAL=Khim. Geterosikl. Soedin.
##$REF PAGE=477
##$REF DATE=1977
##XYPOINTS=(XY..XY)
202.514,4.195
203.087,4.215
203.711,4.236
204.711,4.268
205.711,4.287
206.711,4.290
207.711,4.278
208.348,4.264
208.920,4.252
209.920,4.226
210.920,4.201
211.920,4.177
212.920,4.157
213.920,4.141
214.920,4.129
215.920,4.122
216.920,4.120
217.920,4.121
218.920,4.126
219.991,4.134
221.209,4.145
222.209,4.153
223.209,4.156
224.209,4.157
225.209,4.155
226.209,4.151
227.209,4.146
228.209,4.139
229.209,4.132
230.209,4.124
231.209,4.115
232.209,4.107
233.209,4.099
234.209,4.090
235.209,4.082
236.209,4.074
237.209,4.066
238.209,4.058
239.177,4.050
240.177,4.043
241.177,4.035
242.177,4.027
243.177,4.019
244.177,4.011
245.177,4.002
246.177,3.993
247.177,3.985
248.177,3.976
249.177,3.967
250.177,3.958
251.177,3.950
252.177,3.941
253.177,3.934
254.177,3.926
255.177,3.919
256.177,3.913
257.177,3.908
258.177,3.903
259.177,3.900
260.177,3.897
261.177,3.896
262.177,3.895
263.177,3.896
264.177,3.898
265.177,3.901
266.177,3.905
267.177,3.911
268.177,3.917
269.177,3.924
270.177,3.932
271.177,3.940
272.177,3.949
273.177,3.958
274.105,3.966
275.181,3.976
276.181,3.986
277.181,3.995
278.181,4.003
279.181,4.009
280.181,4.015
281.181,4.019
282.181,4.022
283.181,4.024
284.181,4.025
285.181,4.026
286.181,4.025
287.181,4.023
288.181,4.021
289.181,4.017
290.181,4.013
291.181,4.008
292.181,4.002
293.181,3.996
294.181,3.988
295.181,3.980
296.181,3.972
297.181,3.962
298.181,3.953
299.181,3.942
300.181,3.931
301.181,3.920
302.181,3.908
303.181,3.896
304.181,3.883
305.181,3.870
306.181,3.856
307.181,3.843
308.181,3.829
309.181,3.814
310.181,3.800
311.181,3.785
312.181,3.770
313.181,3.755
314.181,3.739
315.181,3.724
316.181,3.709
317.181,3.693
318.181,3.678
319.181,3.662
320.181,3.647
##END=
