##TITLE=Phenathridine
##JCAMP-DX=4.24
##DATA TYPE=UV/VIS SPECTRUM
##ORIGIN=INSTITUTE OF ENERGY PROBLEMS OF CHEMICAL PHYSICS, RAS
##OWNER=INEP CP RAS, NIST OSRD
Collection (C) 2007 copyright by the U.S. Secretary of Commerce
on behalf of the United States of America. All rights reserved.
##CAS REGISTRY NO=229-87-8
##MOLFORM=C13H9N
##MP=107.4
##BP=349
##SOURCE REFERENCE=RAS UV No. 644
##$NIST SQUIB=1952WIE/FIG608-626
##$NIST SOURCE=TSGMTE
##SPECTROMETER/DATA SYSTEM=n.i.g.
##XUNITS=Wavelength (nm)
##YUNITS=Logarithm epsilon
##XFACTOR=1.000000
##YFACTOR=1.000000
##FIRSTX=227.5405
##LASTX=360.6986
##FIRSTY=4.17771
##MAXX=360.699
##MINX=227.541
##MAXY=4.66569
##MINY=2.21998
##NPOINTS=187
##$REF AUTHOR=Wiesner, K.; Figdor, S.K.; Bartlett, M.F.; Henderson, D.R.
##$REF TITLE=Garryha alkaloids. I. The structure of garryine and veatchine
##$REF JOURNAL=Can. J. Chem.
##$REF VOLUME=30
##$REF PAGE=608-626
##$REF DATE=1952
##XYPOINTS=(XY..XY)
227.5405,4.177706
228.5837,4.220000
229.6372,4.262294
230.6957,4.304587
230.8803,4.315506
230.8803,4.315506
230.9485,4.310494
231.0166,4.305482
231.0847,4.300470
232.0126,4.353982
233.0699,4.394170
234.0628,4.434702
235.0019,4.474213
235.0019,4.474213
236.0472,4.505803
237.0601,4.534828
238.0765,4.561316
239.1322,4.585294
240.2630,4.606791
241.5047,4.625836
242.8933,4.642457
244.4645,4.656681
247.8638,4.665689
249.2946,4.657679
250.5606,4.645047
251.6758,4.628336
252.6543,4.608087
253.5101,4.584842
254.2573,4.559143
254.9099,4.531533
255.4820,4.502552
255.9876,4.472744
256.4407,4.442649
256.8554,4.412811
257.2458,4.383769
257.6259,4.356068
257.6259,4.356068
258.3056,4.319718
258.9381,4.286266
259.5554,4.255378
260.1895,4.226721
260.8725,4.199961
261.6362,4.174762
262.5126,4.150792
263.5338,4.127715
264.7316,4.105198
266.1382,4.082906
267.7854,4.060507
267.7854,4.060507
269.5018,4.050641
270.5109,4.043743
271.6774,4.033904
271.6774,4.033904
273.0396,4.009023
274.3081,3.981789
275.5187,3.952852
276.7071,3.922866
277.9091,3.892481
279.1605,3.862348
280.4969,3.833119
280.4969,3.833119
282.3430,3.827381
284.2169,3.823609
286.0639,3.825302
287.8297,3.835960
289.4594,3.859083
289.4594,3.859083
291.6450,3.866168
293.3948,3.858376
295.0315,3.839917
296.8780,3.815003
296.8780,3.815003
298.0066,3.807644
299.1454,3.800185
300.2893,3.792522
300.2893,3.792522
301.3205,3.772695
302.2113,3.744865
302.9773,3.711269
303.6342,3.674140
304.1974,3.635713
304.6826,3.598225
305.1054,3.563909
305.4813,3.535000
305.4813,3.535000
306.3135,3.501252
307.1618,3.469248
308.0498,3.438228
309.0007,3.407433
310.0382,3.376103
311.1856,3.343477
311.1856,3.343477
311.7705,3.317089
312.3541,3.281291
313.4367,3.205399
313.4367,3.205399
314.6549,3.184167
315.9367,3.166151
317.2500,3.149438
318.5624,3.132121
319.8416,3.112288
321.0553,3.088030
322.1712,3.057437
322.1712,3.057437
322.3316,3.056957
322.4919,3.056375
322.6522,3.055592
322.6522,3.055592
322.6754,3.051358
322.7037,3.046921
322.7422,3.042382
322.7422,3.042382
323.4365,3.043124
324.1409,3.043662
324.8505,3.044099
324.8505,3.044099
326.0259,3.073673
326.9599,3.101956
327.7284,3.130299
328.4074,3.160049
329.0727,3.192558
329.8002,3.229174
329.8002,3.229174
330.0830,3.237356
330.3760,3.245537
330.6740,3.253719
330.6740,3.253719
331.2018,3.253304
331.5205,3.249966
332.0014,3.240448
332.0014,3.240448
332.1120,3.230964
332.4199,3.216072
333.0508,3.189056
334.1302,3.143199
335.7838,3.071787
335.7838,3.071787
336.1950,3.061749
336.6062,3.051711
337.0174,3.041673
337.0174,3.041673
338.5981,3.045524
339.5944,3.059016
340.6432,3.084750
340.6432,3.084750
341.5376,3.127720
342.4381,3.168214
343.4716,3.206653
344.7648,3.243457
344.7648,3.243457
346.2359,3.232466
346.8567,3.211640
347.0820,3.184953
347.3663,3.156384
348.1646,3.129910
348.1646,3.129910
348.4741,3.097653
348.7872,3.065358
349.1028,3.033023
349.4196,3.000647
349.7366,2.968228
350.0527,2.935766
350.3666,2.903259
350.6772,2.870707
350.9834,2.838109
351.2840,2.805463
351.5779,2.772768
351.8640,2.740024
352.1410,2.707229
352.4078,2.674383
352.6634,2.641483
352.9064,2.608530
353.1359,2.575521
353.1359,2.575521
353.3460,2.555708
353.6780,2.525503
354.1145,2.488217
354.6382,2.447161
355.2318,2.405645
355.8780,2.366977
356.5595,2.334469
357.2590,2.311430
357.9591,2.301171
357.9591,2.301171
358.6735,2.272230
359.5411,2.247430
360.6986,2.219985
##END=
