##TITLE=4-amino-1-propyl-2(1H)-pyrimidinone
##JCAMP-DX=4.24
##DATA TYPE=UV/VIS SPECTRUM
##ORIGIN=INSTITUTE OF ENERGY PROBLEMS OF CHEMICAL PHYSICS, RAS
##OWNER=INEP CP RAS, NIST OSRD
Collection (C) 2007 copyright by the U.S. Secretary of Commerce
on behalf of the United States of America. All rights reserved.
##CAS REGISTRY NO=22919-46-6
##MOLFORM=C7H11N3O
##MP=256.5-259.5
##SOURCE REFERENCE=RAS UV No. 23271
##$NIST SQUIB=1975MIT/4095
##$NIST SOURCE=TYUGLMTE
##SPECTROMETER/DATA SYSTEM=Cary 15
##XUNITS=Wavelength (nm)
##YUNITS=Logarithm epsilon
##XFACTOR=1.0
##YFACTOR=1.0
##FIRSTX=190
##LASTX=297.391
##FIRSTY=4.199
##MAXX=297.391
##MINX=190
##MAXY=4.347
##MINY=2.617
##NPOINTS=109
##$REF AUTHOR=Mitai, K.; et al.
##$REF JOURNAL=J. Am. Chem. Soc.
##$REF VOLUME=97
##$REF PAGE=4095
##$REF DATE=1975
##XYPOINTS=(XY..XY)
190.000,4.199
191.000,4.212
192.000,4.244
193.000,4.280
194.000,4.310
195.000,4.331
196.000,4.343
197.000,4.347
198.000,4.341
199.000,4.327
199.746,4.305
200.746,4.279
201.746,4.250
202.746,4.220
203.746,4.191
204.746,4.163
205.746,4.138
206.746,4.117
207.746,4.099
208.746,4.084
209.746,4.072
210.746,4.062
211.746,4.054
212.746,4.045
213.746,4.036
214.746,4.027
215.746,4.016
216.746,4.004
217.746,3.991
218.746,3.978
219.746,3.965
220.746,3.953
221.746,3.943
222.659,3.933
223.659,3.924
224.659,3.917
225.659,3.909
226.659,3.901
227.659,3.892
228.659,3.882
229.659,3.870
230.659,3.856
231.659,3.840
232.659,3.823
233.659,3.804
234.659,3.784
235.659,3.762
236.659,3.740
237.659,3.718
238.659,3.695
239.659,3.674
240.659,3.653
241.659,3.635
242.659,3.619
243.659,3.606
244.659,3.597
245.659,3.591
246.659,3.589
247.659,3.590
248.659,3.595
249.659,3.603
250.659,3.614
251.659,3.626
252.659,3.641
253.608,3.655
254.608,3.673
255.608,3.692
256.608,3.714
257.608,3.736
258.608,3.758
259.608,3.780
260.608,3.801
261.608,3.821
262.608,3.840
263.608,3.858
264.608,3.874
265.608,3.888
266.608,3.901
267.608,3.912
268.608,3.921
269.608,3.928
270.608,3.933
271.608,3.936
272.608,3.936
273.608,3.934
274.608,3.930
275.608,3.923
276.608,3.913
277.608,3.899
278.608,3.882
279.608,3.861
280.453,3.842
281.453,3.803
282.453,3.768
283.453,3.732
284.453,3.694
285.453,3.652
286.453,3.604
287.453,3.549
288.453,3.485
289.453,3.411
290.453,3.328
291.453,3.237
292.453,3.138
293.391,3.043
294.391,2.939
295.391,2.835
296.391,2.707
297.391,2.617
##END=
