##TITLE=Benzo[c]cinnoline
##JCAMP-DX=4.24
##DATA TYPE=UV/VIS SPECTRUM
##ORIGIN=INSTITUTE OF ENERGY PROBLEMS OF CHEMICAL PHYSICS, RAS
##OWNER=INEP CP RAS, NIST OSRD
Collection (C) 2007 copyright by the U.S. Secretary of Commerce
on behalf of the United States of America. All rights reserved.
##CAS REGISTRY NO=230-17-1
##MOLFORM=C12H8N2
##MP=157-159
##SOURCE REFERENCE=RAS UV No. 9941
##$NIST SQUIB=1951BAD/PET3199
##$NIST SOURCE=TYUGLMTE
##SPECTROMETER/DATA SYSTEM=Beckman DU
##XUNITS=Wavelength (nm)
##YUNITS=Logarithm epsilon
##XFACTOR=1.0
##YFACTOR=1.0
##FIRSTX=211.49
##LASTX=378.86
##FIRSTY=4.469
##MAXX=378.86
##MINX=211.49
##MAXY=4.877
##MINY=2.916
##NPOINTS=225
##$REF AUTHOR=Badger, G.M.; Pettit, R.
##$REF JOURNAL=J. Chem. Soc.
##$REF PAGE=3199
##$REF DATE=1951
##XYPOINTS=(XY..XY)
211.49,4.469
211.72,4.452
212.21,4.365
212.95,4.309
213.69,4.283
214.42,4.283
215.16,4.294
215.90,4.314
216.64,4.329
217.37,4.334
218.11,4.340
218.85,4.334
219.59,4.324
220.32,4.319
221.06,4.329
221.80,4.345
222.35,4.363
222.92,4.382
223.82,4.418
224.75,4.452
225.49,4.473
226.22,4.503
226.96,4.524
227.70,4.549
229.17,4.590
229.91,4.606
230.65,4.626
231.40,4.640
232.12,4.652
232.86,4.657
233.60,4.662
234.33,4.672
235.81,4.698
236.55,4.708
237.28,4.724
238.02,4.734
238.54,4.743
239.02,4.752
239.95,4.770
240.97,4.790
241.59,4.802
242.45,4.816
243.18,4.826
243.73,4.832
244.14,4.837
244.69,4.843
245.17,4.848
245.88,4.855
246.58,4.861
247.29,4.866
247.95,4.871
248.73,4.875
249.44,4.877
249.82,4.877
249.99,4.873
250.18,4.863
250.56,4.841
251.16,4.811
251.87,4.773
252.53,4.732
253.37,4.678
254.29,4.620
255.00,4.571
255.72,4.525
256.37,4.494
257.19,4.447
257.94,4.410
258.67,4.375
259.40,4.334
260.09,4.300
260.88,4.268
261.52,4.246
262.35,4.206
263.09,4.176
263.83,4.145
264.57,4.114
265.24,4.082
266.04,4.048
266.78,4.017
267.52,3.997
268.17,3.972
268.99,3.940
269.73,3.904
270.47,3.879
271.23,3.857
271.85,3.840
272.50,3.827
273.42,3.812
274.15,3.807
274.93,3.814
275.82,3.824
276.88,3.838
277.85,3.851
278.75,3.864
279.31,3.874
280.13,3.884
280.79,3.894
281.53,3.904
282.26,3.915
283.05,3.929
283.78,3.939
284.48,3.951
285.24,3.967
285.95,3.986
286.69,4.007
287.43,4.022
288.16,4.038
288.90,4.053
289.64,4.073
290.38,4.089
291.11,4.104
292.06,4.121
292.63,4.128
293.36,4.134
294.06,4.140
294.80,4.145
295.39,4.149
295.96,4.152
296.53,4.156
297.18,4.160
297.91,4.163
298.89,4.169
299.96,4.176
300.59,4.181
301.40,4.185
302.17,4.186
302.70,4.185
303.65,4.176
304.39,4.166
305.12,4.155
305.86,4.140
306.52,4.126
307.34,4.104
307.98,4.088
308.81,4.063
309.52,4.037
310.28,4.012
310.90,3.982
311.63,3.945
312.45,3.895
313.10,3.847
313.83,3.796
314.56,3.741
315.37,3.687
316.18,3.643
316.83,3.617
317.66,3.587
318.40,3.556
319.13,3.526
319.87,3.500
320.57,3.475
321.30,3.455
322.03,3.433
322.82,3.413
323.41,3.400
324.29,3.392
325.03,3.392
325.77,3.392
327.24,3.392
327.98,3.392
329.46,3.398
330.23,3.401
330.93,3.403
332.41,3.408
333.40,3.412
334.19,3.416
334.79,3.418
335.56,3.422
336.08,3.425
336.83,3.428
337.45,3.432
338.22,3.436
338.90,3.441
339.68,3.447
340.52,3.454
341.25,3.459
341.82,3.464
342.61,3.470
343.45,3.476
344.40,3.482
344.94,3.485
345.49,3.487
346.42,3.490
347.15,3.490
348.63,3.485
349.37,3.480
350.10,3.474
350.85,3.464
351.58,3.454
352.15,3.446
353.05,3.433
353.79,3.423
354.53,3.413
355.45,3.405
356.32,3.398
357.48,3.392
358.60,3.387
359.40,3.385
360.40,3.384
361.16,3.387
361.90,3.392
362.64,3.398
363.15,3.402
364.02,3.407
364.42,3.402
364.89,3.395
365.62,3.380
366.43,3.363
367.06,3.346
367.83,3.321
368.54,3.295
369.28,3.265
370.04,3.236
370.77,3.209
371.51,3.182
371.98,3.165
372.66,3.139
373.53,3.113
374.22,3.089
375.02,3.060
375.71,3.032
376.65,2.993
377.34,2.970
378.12,2.942
378.86,2.916
##END=
