##TITLE=1-propyl-1H-purin-6-amine
##JCAMP-DX=4.24
##DATA TYPE=UV/VIS SPECTRUM
##ORIGIN=INSTITUTE OF ENERGY PROBLEMS OF CHEMICAL PHYSICS, RAS
##OWNER=INEP CP RAS, NIST OSRD
Collection (C) 2007 copyright by the U.S. Secretary of Commerce
on behalf of the United States of America. All rights reserved.
##CAS REGISTRY NO=23142-12-3
##MOLFORM=C8H11N5
##MP=229
##SOURCE REFERENCE=RAS UV No. 22415
##$NIST SQUIB=1977DUB/7027
##$NIST SOURCE=TYUGLMTE
##SPECTROMETER/DATA SYSTEM=Cary 118
##XUNITS=Wavelength (nm)
##YUNITS=Logarithm epsilon
##XFACTOR=1.0
##YFACTOR=1.0
##FIRSTX=217.129
##LASTX=324.804
##FIRSTY=3.842
##MAXX=324.804
##MINX=217.129
##MAXY=3.986
##MINY=2.911
##NPOINTS=86
##$REF AUTHOR=Dubois, J.E.; et al.
##$REF JOURNAL=J. Am. Chem. Soc.
##$REF VOLUME=99
##$REF PAGE=7027
##$REF DATE=1977
##XYPOINTS=(XY..XY)
217.129,3.842
218.629,3.808
220.129,3.775
221.629,3.748
223.129,3.728
224.629,3.717
226.129,3.713
227.629,3.715
229.129,3.721
230.629,3.728
232.129,3.736
233.629,3.741
235.129,3.745
236.629,3.746
238.129,3.746
239.629,3.746
241.129,3.748
242.629,3.756
244.129,3.770
245.629,3.792
247.129,3.823
248.629,3.859
250.129,3.897
251.629,3.926
253.129,3.932
254.432,3.932
254.666,3.935
255.866,3.955
257.066,3.978
258.266,3.986
259.466,3.973
260.666,3.948
261.969,3.929
263.169,3.898
264.369,3.898
265.569,3.908
266.769,3.912
267.969,3.901
269.169,3.868
270.292,3.825
271.492,3.758
272.692,3.711
273.892,3.679
275.092,3.658
276.292,3.644
277.492,3.635
278.692,3.628
279.892,3.622
281.092,3.616
282.292,3.610
283.492,3.602
284.692,3.593
285.892,3.582
287.092,3.571
288.292,3.559
289.492,3.547
290.692,3.535
291.892,3.523
293.092,3.511
294.292,3.499
295.492,3.485
296.618,3.475
297.818,3.460
299.018,3.447
300.218,3.434
301.418,3.421
302.618,3.408
303.818,3.394
305.018,3.380
306.218,3.364
307.418,3.348
308.618,3.330
309.818,3.311
311.018,3.292
312.218,3.270
313.418,3.248
314.618,3.224
315.818,3.199
317.018,3.172
318.218,3.143
319.418,3.111
320.618,3.075
321.818,3.035
323.018,2.990
324.218,2.937
324.804,2.911
##END=
