##TITLE=7H-benzimidazo[2,1-a]benz[de]isoquinolin-7-one
##JCAMP-DX=4.24
##DATA TYPE=UV/VIS SPECTRUM
##ORIGIN=INSTITUTE OF ENERGY PROBLEMS OF CHEMICAL PHYSICS, RAS
##OWNER=INEP CP RAS, NIST OSRD
Collection (C) 2007 copyright by the U.S. Secretary of Commerce
on behalf of the United States of America. All rights reserved.
##CAS REGISTRY NO=23749-58-8
##MOLFORM=C18H10N2O
##SOURCE REFERENCE=RAS UV No. 23501
##$NIST SQUIB=1975PLA/KOS1512
##$NIST SOURCE=TYUGLMTE
##SPECTROMETER/DATA SYSTEM=SF-8
##XUNITS=Wavelength (nm)
##YUNITS=Logarithm epsilon
##XFACTOR=1.0
##YFACTOR=1.0
##FIRSTX=222.713
##LASTX=439.088
##FIRSTY=4.601
##MAXX=439.088
##MINX=222.713
##MAXY=4.601
##MINY=3.063
##NPOINTS=436
##$REF AUTHOR=Plakidin, V.L.; Kosheleva, E.s.
##$REF JOURNAL=Zhur. Organ. Khim.
##$REF VOLUME=11
##$REF PAGE=1512
##$REF DATE=1975
##XYPOINTS=(XY..XY)
222.713,4.601
223.213,4.598
223.713,4.595
224.213,4.591
224.713,4.588
225.213,4.584
225.713,4.581
226.213,4.577
226.713,4.574
227.213,4.571
227.713,4.568
228.213,4.565
228.713,4.563
229.213,4.560
229.713,4.557
230.213,4.554
230.713,4.551
231.213,4.547
231.713,4.543
232.213,4.539
232.713,4.534
233.213,4.529
233.713,4.523
234.213,4.517
234.713,4.510
235.213,4.502
235.713,4.494
236.213,4.485
236.713,4.476
237.213,4.466
237.713,4.456
238.213,4.445
238.713,4.434
239.213,4.423
239.713,4.412
240.213,4.400
240.713,4.388
241.213,4.377
241.713,4.365
242.213,4.354
242.713,4.343
243.213,4.333
243.713,4.323
244.213,4.314
244.713,4.305
245.213,4.297
245.713,4.290
246.213,4.283
246.713,4.278
247.213,4.273
247.713,4.270
248.213,4.267
248.713,4.265
249.213,4.264
249.713,4.264
250.213,4.265
250.713,4.266
251.213,4.268
251.713,4.270
252.213,4.273
252.713,4.275
253.213,4.278
253.713,4.281
254.213,4.284
254.713,4.286
255.213,4.287
255.713,4.288
256.213,4.288
256.713,4.287
257.213,4.284
257.713,4.281
258.213,4.275
258.713,4.269
259.213,4.260
259.713,4.251
260.213,4.239
260.713,4.227
260.781,4.225
261.281,4.213
261.781,4.198
262.281,4.181
262.781,4.162
263.281,4.142
263.781,4.123
264.281,4.104
264.781,4.087
265.281,4.071
265.781,4.056
266.281,4.044
266.781,4.033
267.281,4.024
267.781,4.018
268.281,4.013
268.781,4.010
269.281,4.008
269.781,4.008
270.281,4.010
270.781,4.012
271.281,4.015
271.781,4.019
272.281,4.024
272.781,4.029
273.281,4.035
273.781,4.041
274.281,4.048
274.781,4.056
275.281,4.065
275.781,4.075
276.281,4.088
276.781,4.104
276.966,4.107
277.466,4.139
277.966,4.163
278.466,4.182
278.966,4.195
279.466,4.203
279.966,4.207
280.466,4.208
280.966,4.206
281.466,4.202
281.966,4.197
282.466,4.191
282.966,4.184
283.466,4.177
283.966,4.170
284.466,4.164
284.966,4.158
285.466,4.154
285.966,4.151
286.466,4.150
286.966,4.150
287.466,4.152
287.966,4.155
288.466,4.160
288.966,4.166
289.466,4.173
289.966,4.182
290.466,4.191
290.966,4.200
291.466,4.210
291.966,4.218
292.466,4.226
292.966,4.233
293.466,4.237
293.966,4.238
294.466,4.235
294.966,4.228
295.466,4.216
295.966,4.197
296.466,4.171
296.966,4.136
297.466,4.092
297.966,4.037
298.461,3.917
298.961,3.880
299.461,3.848
299.961,3.820
300.461,3.796
300.961,3.776
301.461,3.759
301.961,3.745
302.461,3.733
302.961,3.724
303.461,3.716
303.961,3.710
304.461,3.706
304.961,3.703
305.461,3.701
305.961,3.700
306.461,3.699
306.961,3.699
307.461,3.700
307.961,3.701
308.461,3.702
308.961,3.704
309.461,3.706
309.961,3.708
310.461,3.710
310.961,3.712
311.461,3.714
311.961,3.716
312.461,3.718
312.961,3.720
313.461,3.723
313.961,3.725
314.461,3.727
314.961,3.730
315.461,3.732
315.961,3.735
316.461,3.738
316.961,3.741
317.461,3.744
317.961,3.747
318.461,3.751
318.961,3.755
319.461,3.759
319.961,3.763
320.461,3.768
320.961,3.773
321.461,3.778
321.961,3.783
322.461,3.789
322.961,3.795
323.461,3.801
323.597,3.805
324.097,3.813
324.597,3.821
325.097,3.828
325.597,3.835
326.097,3.842
326.597,3.848
327.097,3.854
327.597,3.860
328.097,3.866
328.597,3.871
329.097,3.876
329.597,3.881
330.097,3.886
330.597,3.891
331.097,3.895
331.597,3.900
332.097,3.904
332.597,3.908
333.097,3.912
333.597,3.916
334.097,3.920
334.597,3.924
335.097,3.928
335.597,3.931
336.097,3.935
336.597,3.939
337.097,3.942
337.597,3.946
338.097,3.949
338.597,3.953
339.097,3.956
339.597,3.960
340.097,3.963
340.597,3.967
341.097,3.970
341.597,3.974
342.097,3.977
342.597,3.981
343.097,3.985
343.597,3.988
344.097,3.992
344.597,3.995
345.097,3.999
345.597,4.002
346.097,4.006
346.597,4.010
347.097,4.013
347.597,4.017
348.097,4.020
348.597,4.024
349.097,4.028
349.597,4.031
350.097,4.035
350.597,4.039
351.097,4.042
351.597,4.046
352.097,4.049
352.597,4.053
353.097,4.056
353.597,4.060
354.097,4.063
354.597,4.067
355.097,4.070
355.597,4.074
356.097,4.077
356.597,4.080
357.097,4.083
357.597,4.086
358.097,4.089
358.597,4.092
359.097,4.095
359.597,4.098
360.097,4.101
360.597,4.104
361.097,4.106
361.597,4.109
362.097,4.111
362.597,4.114
363.097,4.116
363.597,4.118
364.097,4.120
364.597,4.122
365.097,4.123
365.597,4.125
366.097,4.127
366.597,4.128
367.097,4.129
367.597,4.130
368.097,4.131
368.597,4.132
369.097,4.133
369.597,4.133
370.097,4.133
370.597,4.134
371.097,4.134
371.597,4.134
372.097,4.133
372.597,4.133
373.097,4.132
373.597,4.131
374.097,4.130
374.597,4.129
375.097,4.128
375.597,4.127
376.097,4.125
376.597,4.123
377.097,4.121
377.597,4.119
378.097,4.117
378.597,4.114
379.097,4.111
379.597,4.108
380.097,4.105
380.597,4.102
381.097,4.099
381.597,4.095
382.097,4.091
382.597,4.087
383.097,4.083
383.597,4.079
384.097,4.074
384.597,4.070
385.097,4.065
385.597,4.060
386.097,4.055
386.597,4.049
387.097,4.044
387.597,4.038
388.097,4.032
388.597,4.026
389.097,4.020
389.597,4.014
390.097,4.007
390.597,4.001
391.097,3.994
391.597,3.987
392.097,3.980
392.597,3.973
393.097,3.966
393.597,3.958
394.097,3.951
394.597,3.943
395.097,3.936
395.597,3.928
396.097,3.920
396.597,3.912
397.097,3.904
397.597,3.895
398.097,3.887
398.597,3.879
399.097,3.870
399.597,3.862
400.097,3.853
400.597,3.844
401.097,3.836
401.597,3.827
402.097,3.818
402.597,3.809
403.097,3.800
403.597,3.791
404.097,3.782
404.597,3.773
405.097,3.764
405.597,3.754
406.097,3.745
406.597,3.736
407.097,3.727
407.597,3.718
408.097,3.708
408.597,3.699
409.097,3.690
409.597,3.681
410.097,3.671
410.597,3.662
411.097,3.653
411.597,3.644
412.097,3.635
412.597,3.625
413.097,3.616
413.597,3.607
414.097,3.598
414.597,3.589
415.097,3.579
415.597,3.570
416.097,3.561
416.597,3.552
417.097,3.543
417.597,3.534
418.097,3.525
418.597,3.516
419.097,3.507
419.597,3.498
420.097,3.488
420.597,3.479
421.097,3.470
421.597,3.461
422.097,3.452
422.597,3.443
423.097,3.434
423.597,3.424
424.097,3.415
424.597,3.406
425.097,3.396
425.597,3.387
426.097,3.377
426.597,3.367
427.097,3.358
427.597,3.348
428.097,3.337
428.597,3.327
429.097,3.317
429.597,3.306
430.097,3.296
430.597,3.285
431.097,3.273
431.597,3.262
432.097,3.250
432.597,3.238
433.097,3.226
433.597,3.213
434.097,3.200
434.597,3.187
435.097,3.173
435.597,3.159
436.097,3.144
436.597,3.129
437.097,3.113
437.597,3.097
438.097,3.080
438.597,3.063
439.088,3.081
##END=
