##TITLE=1,2-Benzofluorene
##JCAMP-DX=4.24
##DATA TYPE=UV/VIS SPECTRUM
##ORIGIN=INSTITUTE OF ENERGY PROBLEMS OF CHEMICAL PHYSICS, RAS
##OWNER=INEP CP RAS, NIST OSRD
Collection (C) 2007 copyright by the U.S. Secretary of Commerce
on behalf of the United States of America. All rights reserved.
##CAS REGISTRY NO=238-84-6
##MOLFORM=C17H12
##MP=189.5
##BP=405
##SOURCE REFERENCE=RAS UV No. 3224
##$NIST SQUIB=1963SHU/ERI1469-1474
##$NIST SOURCE=TSGMTE
##SPECTROMETER/DATA SYSTEM=n.i.g.
##XUNITS=Wavelength (nm)
##YUNITS=Logarithm epsilon
##XFACTOR=1.000000
##YFACTOR=1.000000
##FIRSTX=232.9524
##LASTX=347.3201
##FIRSTY=4.18072
##MAXX=347.32
##MINX=232.952
##MAXY=4.73749
##MINY=2.5263
##NPOINTS=196
##$REF AUTHOR=Shuikin, N.I.; Erivanskaya, A.A.; Ai-Si, Y.; Romanova, A.R.
##$REF TITLE=Catalytic dehydrocyclization of 2-n-octylnaphthalene
##$REF JOURNAL=Izv. Akad. Nauk SSSR, Ser. Khim.
##$REF PAGE=1469-1474
##$REF DATE=1963
##XYPOINTS=(XY..XY)
232.9524,4.180719
235.7079,4.180858
236.3154,4.175455
236.8531,4.175482
237.3880,4.180943
238.5305,4.181001
239.0655,4.186462
239.6703,4.186493
242.4116,4.215161
243.0108,4.226740
243.0138,4.220626
243.5457,4.232201
246.8751,4.294863
247.4016,4.317306
247.4100,4.300325
248.0008,4.328884
248.0038,4.322771
249.0707,4.339807
250.1876,4.391489
250.7253,4.391516
251.3190,4.413962
251.3274,4.396981
252.9740,4.464992
253.5032,4.482001
253.5089,4.470454
254.0157,4.532973
254.0382,4.487463
254.5449,4.549982
254.5506,4.538435
255.1356,4.578542
255.1498,4.550013
255.6481,4.629514
255.6733,4.578569
257.3282,4.629599
257.8686,4.624192
259.0110,4.624250
259.0141,4.618137
260.1566,4.618194
262.3461,4.675365
262.3491,4.669251
262.8700,4.703242
262.8811,4.680826
265.6758,4.737348
268.4984,4.737491
268.5011,4.732056
269.0388,4.732084
269.0445,4.720536
269.5848,4.715129
269.5875,4.709695
271.2902,4.664269
271.3097,4.624872
271.9370,4.579391
271.9400,4.573278
272.4804,4.567871
272.4831,4.562437
273.0237,4.556350
273.0432,4.516953
273.1413,4.318607
273.1524,4.296191
273.6004,4.477583
273.6202,4.437506
273.6256,4.426638
273.6508,4.375693
273.6790,4.318634
273.6931,4.290105
273.7378,4.199762
274.2277,4.432102
274.3453,4.194359
274.9139,4.131893
274.9223,4.114912
275.4630,4.108826
275.4656,4.103391
277.1737,4.047097
277.1794,4.035550
277.7869,4.030146
277.7900,4.024033
278.3276,4.024060
278.3360,4.007078
279.4839,3.996268
279.4869,3.990154
280.0272,3.984747
283.9335,3.967963
286.2185,3.968078
291.2479,3.990749
292.8608,3.990830
295.6804,3.997086
296.2211,3.991000
296.2238,3.985566
296.8313,3.980162
296.8370,3.968615
297.3746,3.968642
297.9150,3.963235
299.5951,3.963320
300.1973,3.968785
303.5576,3.968954
303.5602,3.963520
304.0979,3.963547
304.6386,3.957461
307.4612,3.957604
307.4639,3.952170
308.0015,3.952197
311.3618,3.952367
311.8968,3.957828
312.5016,3.957859
313.0362,3.963999
313.5712,3.969460
313.5739,3.964026
314.7080,3.981066
316.3881,3.981151
319.2107,3.981293
319.7514,3.975207
319.7541,3.969773
321.4567,3.924347
321.4678,3.901931
322.0280,3.856447
322.0475,3.817050
322.6722,3.777004
322.6775,3.766135
323.2182,3.760049
323.2293,3.737633
323.2545,3.686688
323.7948,3.681281
323.8116,3.647318
324.4390,3.601838
324.4504,3.578743
324.9907,3.573336
324.9991,3.556354
325.5593,3.510870
325.5788,3.471473
326.1863,3.466069
326.1978,3.442974
326.7354,3.443001
326.7438,3.426020
327.2814,3.426047
327.2952,3.398197
327.9031,3.392114
327.9058,3.386680
328.4434,3.386707
330.1125,3.409208
330.1236,3.386792
330.6471,3.415348
332.3272,3.415433
332.3329,3.403886
332.8706,3.403913
332.8763,3.392365
332.8904,3.363836
332.8931,3.358402
333.5006,3.352998
333.5289,3.295940
334.0692,3.290533
334.0803,3.268117
334.6210,3.262031
334.6320,3.239615
335.2396,3.234212
335.7772,3.234239
335.7803,3.228125
336.3206,3.222718
336.9254,3.222749
337.9980,3.228237
338.0007,3.222803
338.5999,3.234381
339.1321,3.245277
339.1375,3.234409
340.2548,3.285411
340.7955,3.279325
341.3331,3.279352
341.3442,3.256936
342.5119,3.206049
342.5314,3.166652
343.0889,3.126602
343.0946,3.115055
343.7021,3.109651
343.7162,3.081122
344.2760,3.036317
344.8167,3.030231
344.8278,3.007815
344.8335,2.996268
344.8419,2.979286
345.4353,3.002412
345.4494,2.973883
345.4689,2.934485
345.4804,2.911390
346.0207,2.905983
346.0348,2.877454
346.6003,2.821102
346.6286,2.764043
346.6592,2.702230
346.6706,2.679135
346.7126,2.594227
346.7183,2.582679
346.7462,2.526300
347.2670,2.696147
347.2724,2.685279
347.2781,2.673731
347.2865,2.656750
347.3201,2.588823
##END=
