##TITLE=1,2-Benzocarbazole
##JCAMP-DX=4.24
##DATA TYPE=UV/VIS SPECTRUM
##ORIGIN=INSTITUTE OF ENERGY PROBLEMS OF CHEMICAL PHYSICS, RAS
##OWNER=INEP CP RAS, NIST OSRD
Collection (C) 2007 copyright by the U.S. Secretary of Commerce
on behalf of the United States of America. All rights reserved.
##CAS REGISTRY NO=239-01-0
##MOLFORM=C16H11N
##MP=228
##SOURCE REFERENCE=RAS UV No. 10030
##$NIST SQUIB=1952CLE/FEL1658
##$NIST SOURCE=TYUGLMTE
##SPECTROMETER/DATA SYSTEM=Unicam SP 500
##XUNITS=Wavelength (nm)
##YUNITS=Logarithm epsilon
##XFACTOR=1.0
##YFACTOR=1.0
##FIRSTX=220.06
##LASTX=358.97
##FIRSTY=4.498
##MAXX=358.97
##MINX=220.06
##MAXY=4.709
##MINY=3.327
##NPOINTS=273
##$REF AUTHOR=Clemo, G.R.; Felton, D.G.I.
##$REF JOURNAL=J. Chem. Soc.
##$REF PAGE=1658
##$REF DATE=1952
##XYPOINTS=(XY..XY)
220.06,4.498
220.31,4.499
220.55,4.501
220.81,4.503
221.06,4.506
221.31,4.509
221.56,4.512
221.81,4.515
222.06,4.517
222.34,4.520
222.57,4.522
222.88,4.525
223.17,4.529
223.55,4.532
224.07,4.534
224.57,4.534
225.08,4.533
225.60,4.531
226.08,4.528
226.91,4.520
227.58,4.515
228.18,4.509
228.66,4.505
229.09,4.501
229.59,4.496
230.13,4.491
230.59,4.487
231.09,4.482
231.53,4.478
232.10,4.472
232.58,4.466
233.06,4.462
233.60,4.456
234.10,4.451
234.61,4.449
235.10,4.448
235.60,4.448
236.11,4.448
236.61,4.449
237.11,4.451
237.61,4.454
238.14,4.459
238.61,4.467
239.18,4.481
239.62,4.487
240.02,4.485
240.70,4.471
241.12,4.462
241.58,4.455
242.12,4.451
242.63,4.451
243.17,4.454
243.98,4.468
244.30,4.478
244.63,4.492
245.24,4.517
245.48,4.522
245.75,4.523
246.12,4.523
246.52,4.519
247.12,4.505
247.59,4.488
248.07,4.480
248.64,4.479
249.05,4.481
249.37,4.487
249.65,4.495
250.15,4.523
250.65,4.556
251.10,4.585
251.67,4.622
251.86,4.628
251.98,4.630
252.15,4.631
252.35,4.629
252.52,4.627
252.65,4.623
252.95,4.602
253.66,4.545
254.00,4.528
254.30,4.521
254.66,4.517
255.16,4.517
255.68,4.522
256.12,4.534
256.67,4.556
257.17,4.579
257.55,4.584
257.92,4.582
258.17,4.576
258.67,4.534
259.17,4.440
259.58,4.369
260.12,4.309
260.68,4.268
261.18,4.251
261.54,4.242
262.18,4.234
262.66,4.232
263.24,4.230
263.70,4.231
264.19,4.234
264.69,4.242
265.19,4.254
265.73,4.266
266.19,4.279
266.70,4.298
267.20,4.312
267.70,4.329
268.20,4.345
268.70,4.368
269.14,4.381
269.71,4.406
270.18,4.424
270.71,4.445
271.09,4.458
271.55,4.470
272.04,4.484
272.50,4.498
273.04,4.514
273.66,4.534
274.12,4.550
274.62,4.565
275.22,4.581
275.72,4.601
276.22,4.623
276.53,4.635
277.15,4.655
277.73,4.675
278.19,4.689
278.65,4.703
279.23,4.709
279.73,4.706
280.24,4.692
280.60,4.670
281.27,4.607
281.60,4.579
282.14,4.540
282.47,4.510
283.01,4.453
283.75,4.384
284.13,4.356
284.59,4.331
285.25,4.295
285.75,4.273
286.13,4.259
286.62,4.241
287.26,4.229
287.76,4.223
288.53,4.219
289.26,4.215
290.07,4.216
291.27,4.223
292.06,4.230
292.77,4.240
293.23,4.247
293.78,4.259
294.27,4.268
294.78,4.276
295.30,4.284
295.78,4.290
296.51,4.297
297.29,4.301
298.13,4.308
298.79,4.312
299.46,4.317
300.29,4.323
301.20,4.330
301.95,4.338
302.82,4.341
303.81,4.337
304.28,4.338
304.81,4.343
305.40,4.346
305.90,4.348
306.31,4.345
306.81,4.329
307.32,4.307
307.82,4.287
308.18,4.266
308.80,4.238
309.32,4.207
309.82,4.165
310.32,4.121
310.80,4.096
311.33,4.057
312.00,4.012
312.50,3.980
312.96,3.954
313.50,3.927
314.34,3.871
314.84,3.846
315.34,3.829
315.84,3.802
316.32,3.788
316.84,3.779
317.35,3.774
318.35,3.760
318.85,3.757
319.69,3.756
320.64,3.760
321.86,3.768
322.34,3.771
322.86,3.771
323.36,3.768
323.86,3.763
324.37,3.749
324.87,3.730
325.37,3.705
325.87,3.691
326.37,3.685
327.37,3.677
327.88,3.674
328.38,3.669
328.88,3.660
329.38,3.655
329.90,3.645
330.38,3.632
330.88,3.613
331.39,3.591
331.86,3.570
332.39,3.558
332.89,3.560
333.52,3.566
333.89,3.574
334.40,3.599
334.90,3.641
335.40,3.696
335.90,3.741
336.26,3.751
336.90,3.757
337.42,3.756
338.17,3.753
338.91,3.746
339.37,3.741
339.91,3.727
340.41,3.710
340.91,3.688
341.42,3.641
341.92,3.588
342.42,3.541
342.77,3.510
343.42,3.463
343.92,3.438
344.35,3.423
344.87,3.408
345.43,3.394
345.90,3.380
346.31,3.368
346.86,3.355
347.41,3.344
348.19,3.333
348.94,3.327
349.44,3.333
349.94,3.350
350.58,3.391
350.94,3.433
351.47,3.492
352.02,3.542
352.45,3.588
352.95,3.649
353.45,3.718
353.95,3.757
354.45,3.787
354.96,3.793
355.41,3.783
355.96,3.727
356.59,3.664
357.07,3.617
357.63,3.571
358.07,3.520
358.47,3.469
358.97,3.363
##END=
