##TITLE=3-phenylthiophene
##JCAMP-DX=4.24
##DATA TYPE=UV/VIS SPECTRUM
##ORIGIN=INSTITUTE OF ENERGY PROBLEMS OF CHEMICAL PHYSICS, RAS
##OWNER=INEP CP RAS, NIST OSRD
Collection (C) 2007 copyright by the U.S. Secretary of Commerce
on behalf of the United States of America. All rights reserved.
##CAS REGISTRY NO=2404-87-7
##MOLFORM=C10H8S
##MP=92.5
##BP=255
##SOURCE REFERENCE=RAS UV No. 22811
##$NIST SQUIB=1976ABU/HIL2158
##$NIST SOURCE=TYUGLMTE
##SPECTROMETER/DATA SYSTEM=Beckman DK
##XUNITS=Wavelength (nm)
##YUNITS=Logarithm epsilon
##XFACTOR=1.0
##YFACTOR=1.0
##FIRSTX=211.014
##LASTX=294.283
##FIRSTY=4.068
##MAXX=294.283
##MINX=211.014
##MAXY=4.068
##MINY=2.934
##NPOINTS=86
##$REF AUTHOR=Abu-Eittah, R.; Hilal, R.
##$REF JOURNAL=Bull. Chem. Soc. Japan
##$REF VOLUME=49
##$REF PAGE=2158
##$REF DATE=1976
##XYPOINTS=(XY..XY)
211.014,4.068
212.014,4.060
213.014,4.051
214.014,4.044
215.014,4.038
216.014,4.034
217.014,4.032
218.014,4.032
219.014,4.033
220.014,4.035
221.014,4.037
222.014,4.039
223.014,4.040
224.014,4.040
225.014,4.038
226.014,4.035
227.014,4.030
228.014,4.023
229.014,4.015
230.014,4.006
231.014,3.996
232.014,3.986
233.014,3.975
233.890,3.963
234.805,3.956
235.805,3.942
236.805,3.930
237.805,3.907
238.805,3.876
239.805,3.849
240.805,3.839
241.805,3.850
242.779,3.865
243.779,3.890
244.779,3.912
245.779,3.933
246.779,3.951
247.779,3.966
248.779,3.980
249.779,3.992
250.779,4.002
251.779,4.011
252.779,4.019
253.779,4.025
254.779,4.029
255.779,4.033
256.779,4.035
257.779,4.036
258.779,4.036
259.779,4.036
260.779,4.033
261.779,4.030
262.779,4.026
263.779,4.021
264.779,4.015
265.779,4.007
266.779,3.999
267.779,3.990
268.779,3.980
269.779,3.970
270.779,3.960
271.779,3.950
272.779,3.941
273.779,3.933
273.890,3.932
274.890,3.927
275.890,3.920
276.890,3.908
277.890,3.887
278.890,3.854
279.890,3.808
280.890,3.746
281.864,3.669
282.864,3.580
283.864,3.514
284.864,3.457
285.864,3.402
286.864,3.344
287.864,3.285
288.864,3.225
289.864,3.168
290.864,3.115
291.864,3.067
292.864,3.019
293.864,2.963
294.283,2.934
##END=
