##TITLE=1,2,4-Triazine, 3,5,6-trimethyl-
##JCAMP-DX=4.24
##DATA TYPE=UV/VIS SPECTRUM
##ORIGIN=INSTITUTE OF ENERGY PROBLEMS OF CHEMICAL PHYSICS, RAS
##OWNER=INEP CP RAS, NIST OSRD
Collection (C) 2007 copyright by the U.S. Secretary of Commerce
on behalf of the United States of America. All rights reserved.
##CAS REGISTRY NO=24108-36-9
##MOLFORM=C6H9N3
##MP=46
##SOURCE REFERENCE=RAS UV No. 19879
##$NIST SQUIB=1968MASg7/2
##$NIST SOURCE=TYUGLMTE
##SPECTROMETER/DATA SYSTEM=Hilder Uvispek
##XUNITS=Wavelength (nm)
##YUNITS=Logarithm epsilon
##XFACTOR=1.0
##YFACTOR=1.0
##FIRSTX=210.08
##LASTX=425.86
##FIRSTY=3.69
##MAXX=425.86
##MINX=210.08
##MAXY=3.703
##MINY=1.363
##NPOINTS=205
##$REF AUTHOR=Mason, S.F.
##$REF JOURNAL=UV atlas of organic compounds
##$REF VOLUME=4
##$REF PAGE=G 7/2
##$REF DATE=1968
##XYPOINTS=(XY..XY)
210.08,3.690
210.18,3.688
210.27,3.684
210.37,3.682
210.47,3.677
210.56,3.675
210.66,3.673
210.75,3.669
211.13,3.639
211.71,3.590
212.29,3.539
212.87,3.496
213.46,3.437
214.05,3.388
214.64,3.345
215.24,3.296
215.84,3.251
216.44,3.211
217.05,3.173
217.66,3.134
218.27,3.100
218.89,3.068
219.51,3.032
220.13,3.002
220.76,2.977
221.39,2.949
222.03,2.923
222.66,2.898
223.30,2.870
223.95,2.847
224.60,2.825
225.25,2.806
225.91,2.796
226.57,2.787
227.23,2.781
227.90,2.785
228.58,2.787
229.25,2.796
229.93,2.806
230.62,2.819
231.31,2.834
232.00,2.836
232.69,2.853
233.40,2.868
234.10,2.885
234.81,2.904
235.52,2.921
236.24,2.940
236.96,2.962
237.69,2.985
238.42,3.006
239.16,3.030
239.90,3.049
240.64,3.068
241.39,3.098
242.15,3.126
242.91,3.151
243.67,3.179
244.44,3.211
245.21,3.241
245.99,3.271
246.78,3.298
247.57,3.330
248.36,3.360
249.16,3.388
249.96,3.413
250.77,3.441
251.58,3.467
252.40,3.486
253.23,3.509
254.06,3.533
254.90,3.554
255.74,3.575
256.58,3.594
257.44,3.613
258.29,3.628
259.16,3.643
260.03,3.656
260.90,3.671
261.79,3.680
262.67,3.688
263.57,3.697
264.47,3.703
265.37,3.703
266.28,3.694
267.20,3.688
268.13,3.677
269.06,3.662
270.00,3.650
270.94,3.633
271.89,3.609
272.85,3.579
273.81,3.541
274.78,3.494
275.76,3.435
276.75,3.371
277.74,3.290
278.74,3.179
279.75,3.083
280.76,2.977
281.78,2.881
282.81,2.776
283.85,2.687
284.89,2.581
285.94,2.493
287.00,2.399
288.07,2.338
289.14,2.284
290.22,2.225
291.32,2.182
292.42,2.138
293.52,2.118
294.64,2.080
295.76,2.040
296.90,2.003
298.04,1.974
299.19,1.944
300.35,1.918
301.52,1.897
302.70,1.876
303.88,1.861
305.08,1.841
306.29,1.831
307.50,1.818
308.73,1.807
309.96,1.799
311.21,1.790
312.46,1.784
313.73,1.782
315.00,1.782
316.29,1.784
317.59,1.780
318.89,1.784
320.21,1.792
321.54,1.801
322.88,1.810
324.23,1.820
325.60,1.833
326.97,1.844
328.36,1.861
329.75,1.876
331.16,1.897
332.58,1.918
334.02,1.944
335.46,1.971
336.92,1.999
338.39,2.025
339.88,2.050
341.38,2.084
342.89,2.116
344.41,2.155
345.95,2.189
347.50,2.231
349.07,2.263
350.65,2.297
352.24,2.336
353.85,2.370
355.47,2.406
357.11,2.436
358.77,2.461
360.43,2.491
362.12,2.519
363.82,2.546
365.54,2.572
367.27,2.598
369.02,2.619
370.78,2.640
372.57,2.657
374.37,2.674
376.18,2.689
378.02,2.700
379.87,2.702
381.75,2.715
383.64,2.730
385.55,2.734
387.47,2.734
389.42,2.730
391.39,2.715
393.38,2.702
395.38,2.685
397.41,2.666
399.46,2.636
401.53,2.604
403.62,2.566
405.74,2.525
407.87,2.466
410.03,2.385
412.21,2.302
414.42,2.184
416.65,2.057
417.94,1.969
418.71,1.915
419.28,1.876
419.78,1.844
420.16,1.811
420.54,1.776
421.01,1.740
421.56,1.703
421.99,1.672
422.65,1.626
423.42,1.568
424.02,1.517
424.61,1.467
425.21,1.421
425.86,1.363
##END=
