##TITLE=2,3-Benzofluorene
##JCAMP-DX=4.24
##DATA TYPE=UV/VIS SPECTRUM
##ORIGIN=INSTITUTE OF ENERGY PROBLEMS OF CHEMICAL PHYSICS, RAS
##OWNER=INEP CP RAS, NIST OSRD
Collection (C) 2007 copyright by the U.S. Secretary of Commerce
on behalf of the United States of America. All rights reserved.
##CAS REGISTRY NO=243-17-4
##MOLFORM=C17H12
##MP=210
##BP=401
##SOURCE REFERENCE=RAS UV No. 3225
##$NIST SQUIB=1963SHU/ERI1469-1474
##$NIST SOURCE=TSGMTE
##SPECTROMETER/DATA SYSTEM=n.i.g.
##XUNITS=Wavelength (nm)
##YUNITS=Logarithm epsilon
##XFACTOR=1.000000
##YFACTOR=1.000000
##FIRSTX=226.5271
##LASTX=350.3387
##FIRSTY=4.29578
##MAXX=350.339
##MINX=226.527
##MAXY=4.75873
##MINY=2.91305
##NPOINTS=280
##$REF AUTHOR=Shuikin, N.I.; Erivanskaya, A.A.; Ai-Si, Y.; Romanova, A.R.
##$REF TITLE=Catalytic dehydrocyclization of 2-n-octylnaphthalene
##$REF JOURNAL=Izv. Akad. Nauk SSSR, Ser. Khim.
##$REF PAGE=1469-1474
##$REF DATE=1963
##XYPOINTS=(XY..XY)
226.5271,4.295777
226.5526,4.278849
227.0713,4.295858
227.1060,4.272837
227.1142,4.267420
227.6754,4.301366
227.7346,4.262095
227.7438,4.256001
228.2961,4.250666
228.3135,4.239155
228.8577,4.239236
228.8659,4.233820
230.0397,4.222482
230.0560,4.211648
232.3356,4.188962
236.9097,4.178809
238.6104,4.179063
239.1464,4.184561
240.3029,4.184734
244.6906,4.253113
244.7080,4.241603
245.2947,4.258622
245.3029,4.253205
245.8216,4.270213
245.8389,4.258703
247.4886,4.292811
248.0073,4.309820
248.0236,4.298986
248.5342,4.321412
248.5423,4.315995
249.1127,4.343847
249.1464,4.321503
249.6396,4.355439
249.6477,4.350022
250.1583,4.372447
250.1756,4.360937
250.7195,4.406393
250.7613,4.378633
251.1780,4.463350
251.2127,4.440329
251.2290,4.429496
251.2545,4.412568
251.6375,4.519630
251.6457,4.514213
251.6967,4.480359
251.7141,4.468848
251.7651,4.434994
252.2242,4.536649
252.2416,4.525138
252.2671,4.508211
252.3008,4.485867
252.6317,4.627460
252.6746,4.599022
252.7174,4.570584
252.7603,4.542147
253.1678,4.632958
253.2280,4.593010
253.2535,4.576082
253.7718,4.638466
253.7800,4.633049
254.2732,4.666985
254.3161,4.638547
254.8603,4.638629
256.0331,4.627968
256.5773,4.628049
256.6120,4.605028
257.2324,4.599703
257.2497,4.588192
257.7939,4.588273
258.3463,4.582938
258.9586,4.583029
259.5028,4.583111
260.0307,4.594025
260.0388,4.588609
260.5654,4.645576
260.6337,4.600211
261.0677,4.673418
261.1014,4.651074
261.5773,4.696520
261.6028,4.679593
262.1732,4.707445
262.1813,4.702028
262.6745,4.735964
262.7082,4.713620
263.2014,4.747556
263.2106,4.741462
263.8055,4.753064
264.8939,4.753226
265.4980,4.758734
267.7939,4.725215
267.8102,4.714382
267.8612,4.680527
267.9041,4.652089
268.3636,4.708369
268.3973,4.686025
268.4565,4.646754
268.6698,4.505242
269.2221,4.499906
269.2395,4.488396
269.8599,4.483071
269.9966,4.392340
270.5490,4.387005
270.6174,4.341640
270.6766,4.302369
270.7623,4.245493
270.8215,4.206222
270.8388,4.194711
271.1698,4.336304
271.2126,4.307867
271.3147,4.240158
271.3575,4.211720
271.3912,4.189376
271.4167,4.172449
272.0371,4.167123
272.0800,4.138685
272.6752,4.104912
272.7099,4.081891
273.1858,4.127337
273.2623,4.076556
273.2960,4.054212
275.0569,4.014517
275.6773,4.009192
275.6946,3.997681
276.2388,3.997763
276.2470,3.992346
276.7912,3.992427
276.7994,3.987010
277.4116,3.987102
281.3572,3.987691
281.8932,3.993189
283.0497,3.993362
283.5857,3.998860
284.1888,4.005045
284.1980,3.998951
284.7075,4.022053
284.7330,4.005126
285.2436,4.027551
285.2517,4.022135
285.8476,4.033059
285.8558,4.027643
286.3827,4.039235
286.3919,4.033141
286.9014,4.056243
286.9187,4.044732
289.7075,4.090524
290.8133,4.079176
291.4765,4.045413
292.0289,4.040078
292.0799,4.006223
293.7898,4.000383
295.4905,4.000637
298.8408,4.034999
298.8571,4.024166
300.5159,4.052181
301.0510,4.058356
301.6632,4.058447
302.2166,4.052435
303.3731,4.052607
306.8850,3.934614
307.5054,3.929289
307.5136,3.923872
308.0578,3.923953
308.0670,3.917860
308.6112,3.917941
309.2234,3.918032
309.7503,3.929624
309.7584,3.924207
310.2608,3.952049
310.2863,3.935122
310.8639,3.958234
310.8731,3.952141
311.9186,3.980741
311.9360,3.969230
312.5227,3.986249
313.0577,3.992424
313.0669,3.986330
313.5856,4.003339
313.5938,3.997922
314.1805,4.014941
314.1979,4.003430
314.7166,4.020439
314.7247,4.015022
315.2516,4.026614
315.2608,4.020520
318.6530,4.027122
319.3081,3.998775
319.3254,3.987265
319.3591,3.964921
319.3846,3.947994
319.8778,3.981929
319.8951,3.970419
319.9288,3.948075
319.9370,3.942658
321.1108,3.931320
321.2730,3.823663
321.8254,3.818327
321.9867,3.711347
322.5401,3.705334
322.6074,3.660646
323.2288,3.654644
323.4503,3.507715
323.5268,3.456934
324.0027,3.502380
324.0455,3.473942
324.0618,3.463109
324.0792,3.451598
324.1220,3.423160
324.6744,3.417825
324.6836,3.411731
325.3040,3.406406
325.3122,3.400989
325.8656,3.394976
325.9166,3.361122
326.0095,3.299507
326.0697,3.259558
326.0778,3.254142
326.6047,3.265733
326.6302,3.248806
326.6394,3.242712
327.1836,3.242794
327.1999,3.231960
328.3482,3.237550
328.3564,3.232133
328.8843,3.243048
328.8925,3.237631
330.0408,3.243220
330.5758,3.249395
331.1880,3.249487
331.7241,3.254985
332.2765,3.249649
333.0173,3.164427
333.4329,3.249822
333.5268,3.187530
333.5697,3.159092
333.6125,3.130654
334.0884,3.176100
334.1649,3.125318
334.2078,3.096881
334.8282,3.091555
334.8710,3.063118
335.9758,3.052447
336.5880,3.052538
337.0986,3.074963
337.1322,3.052619
337.6254,3.086555
337.6346,3.080461
338.2122,3.103574
338.2295,3.092063
339.2496,3.137591
339.2843,3.114570
339.8200,3.165443
339.8537,3.143099
340.7890,3.244825
340.8145,3.227898
341.3921,3.251010
343.0417,3.285119
343.5778,3.290617
344.1220,3.290698
344.7424,3.285373
344.7516,3.279279
345.2958,3.279360
345.3040,3.273943
345.8563,3.268608
345.8655,3.262514
346.4179,3.257179
347.0985,3.211905
347.1240,3.194978
347.6682,3.195059
347.7193,3.161204
348.3063,3.132848
348.3655,3.093577
348.9859,3.088251
348.9951,3.082158
349.5393,3.082239
349.5904,3.048384
349.7006,2.975258
350.0917,3.076903
350.1346,3.048465
350.2529,2.969923
350.3387,2.913047
##END=
