##TITLE=Benzonaphthofuran
##JCAMP-DX=4.24
##DATA TYPE=UV/VIS SPECTRUM
##ORIGIN=INSTITUTE OF ENERGY PROBLEMS OF CHEMICAL PHYSICS, RAS
##OWNER=INEP CP RAS, NIST OSRD
Collection (C) 2007 copyright by the U.S. Secretary of Commerce
on behalf of the United States of America. All rights reserved.
##CAS REGISTRY NO=243-42-5
##MOLFORM=C16H10O
##SOURCE REFERENCE=RAS UV No. 20230
##$NIST SQUIB=1969BOL/314
##$NIST SOURCE=TYUGLMTE
##SPECTROMETER/DATA SYSTEM=unknown
##XUNITS=Wavelength (nm)
##YUNITS=Logarithm epsilon
##XFACTOR=1.0
##YFACTOR=1.0
##FIRSTX=211.67
##LASTX=356.17
##FIRSTY=4.45
##MAXX=356.17
##MINX=211.67
##MAXY=4.938
##MINY=2.831
##NPOINTS=228
##$REF AUTHOR=Bolshakov, G.F.; et al.
##$REF JOURNAL=Ultraviolet Spectra of Heteroorganic Compounds
##$REF PAGE=314
##$REF DATE=1969
##XYPOINTS=(XY..XY)
211.67,4.450
211.83,4.455
212.00,4.459
212.17,4.463
212.33,4.467
212.50,4.471
212.67,4.475
212.83,4.479
213.00,4.483
213.17,4.488
213.67,4.504
214.33,4.521
215.00,4.554
215.67,4.574
216.33,4.599
217.00,4.620
217.67,4.645
218.33,4.657
219.01,4.659
219.67,4.649
220.33,4.640
221.00,4.624
221.66,4.612
222.33,4.599
223.00,4.583
223.61,4.570
224.33,4.558
225.00,4.541
225.67,4.525
226.33,4.512
227.00,4.496
227.67,4.479
228.33,4.471
228.94,4.465
229.67,4.459
230.33,4.455
231.00,4.446
231.67,4.442
232.33,4.438
233.00,4.438
233.67,4.442
234.33,4.446
235.00,4.456
235.67,4.463
236.28,4.473
236.91,4.483
237.57,4.495
238.30,4.504
239.00,4.508
239.67,4.500
240.33,4.488
241.00,4.483
241.67,4.483
242.33,4.492
243.00,4.500
243.67,4.517
244.33,4.529
245.00,4.545
245.67,4.562
246.33,4.583
247.00,4.607
247.67,4.628
248.33,4.649
249.00,4.678
249.67,4.719
250.33,4.744
251.00,4.760
251.67,4.760
252.33,4.760
253.00,4.752
253.67,4.736
254.33,4.719
255.00,4.713
255.67,4.719
256.33,4.740
257.00,4.785
257.67,4.847
258.33,4.913
259.00,4.934
259.67,4.938
260.33,4.926
261.00,4.835
261.67,4.748
262.33,4.657
263.00,4.545
263.67,4.471
264.33,4.380
265.00,4.281
265.67,4.236
266.33,4.182
267.00,4.128
267.67,4.099
268.33,4.083
269.00,4.087
269.73,4.098
270.33,4.124
270.88,4.155
271.29,4.172
271.67,4.178
271.99,4.173
272.33,4.149
273.00,4.066
273.67,3.996
274.33,3.921
274.67,3.880
275.19,3.834
275.82,3.787
277.00,3.736
277.67,3.715
278.33,3.694
279.00,3.678
279.67,3.669
280.33,3.669
281.00,3.674
281.67,3.694
282.33,3.707
283.00,3.711
283.67,3.698
284.33,3.678
285.00,3.636
285.67,3.620
286.33,3.624
287.00,3.640
287.67,3.665
288.33,3.690
289.00,3.707
289.67,3.727
290.33,3.752
291.00,3.769
291.67,3.777
292.33,3.781
293.00,3.789
293.67,3.806
294.33,3.826
295.00,3.843
295.67,3.860
296.33,3.868
297.00,3.884
297.67,3.905
298.33,3.921
299.00,3.942
299.67,3.963
300.33,3.988
301.00,4.004
301.67,4.029
302.33,4.058
303.00,4.091
303.67,4.112
304.20,4.124
305.00,4.128
305.67,4.132
306.33,4.132
307.00,4.132
307.67,4.132
308.33,4.136
309.00,4.140
309.67,4.140
310.33,4.145
311.03,4.150
311.67,4.161
312.42,4.174
313.00,4.186
313.67,4.207
314.33,4.223
315.00,4.244
315.67,4.269
316.21,4.290
317.00,4.306
317.67,4.310
318.33,4.310
319.00,4.306
319.73,4.292
320.33,4.269
321.00,4.240
321.67,4.211
322.33,4.178
323.00,4.140
323.67,4.107
324.33,4.074
325.00,4.033
325.67,4.000
326.33,3.975
327.00,3.963
327.67,3.946
328.33,3.934
329.00,3.917
329.65,3.913
330.33,3.913
331.05,3.913
331.67,3.917
332.33,3.930
333.00,3.930
333.67,3.917
334.33,3.888
335.00,3.851
335.67,3.810
336.33,3.773
337.00,3.736
337.67,3.690
338.33,3.653
339.00,3.612
339.67,3.587
340.33,3.566
341.00,3.545
341.49,3.533
342.26,3.512
343.00,3.496
343.67,3.479
344.33,3.475
345.15,3.484
345.67,3.508
346.33,3.537
347.00,3.583
347.67,3.607
348.33,3.620
349.00,3.624
349.67,3.620
350.16,3.607
351.00,3.554
351.49,3.520
352.15,3.460
353.00,3.368
353.67,3.289
354.18,3.201
354.50,3.144
354.83,3.087
355.50,2.967
356.17,2.831
##END=
