##TITLE=1,1'-Biphenyl, 2,2'-dinitro-
##JCAMP-DX=4.24
##DATA TYPE=UV/VIS SPECTRUM
##ORIGIN=INSTITUTE OF ENERGY PROBLEMS OF CHEMICAL PHYSICS, RAS
##OWNER=INEP CP RAS, NIST OSRD
Collection (C) 2007 copyright by the U.S. Secretary of Commerce
on behalf of the United States of America. All rights reserved.
##CAS REGISTRY NO=2436-96-6
##MOLFORM=C12H8N2O4
##MP=126
##BP=305
##SOURCE REFERENCE=RAS UV No. 3787
##$NIST SQUIB=1955DET/KAZ3842-3844
##$NIST SOURCE=TSGMTE
##SPECTROMETER/DATA SYSTEM=Beckman DU
##XUNITS=Wavelength (nm)
##YUNITS=Logarithm epsilon
##XFACTOR=1.000000
##YFACTOR=1.000000
##FIRSTX=215.1729
##LASTX=324.9547
##FIRSTY=4.27876
##MAXX=324.955
##MINX=215.173
##MAXY=4.28184
##MINY=3.12619
##NPOINTS=198
##$REF AUTHOR=DeTar, D.F.; Kazimi, A.A.
##$REF TITLE=Dinitrobiphenyls obtained by the Gomberg-Bachmann reaction: a quantitative study
##$REF JOURNAL=J. Am. Chem. Soc.
##$REF VOLUME=77
##$REF PAGE=3842-3844
##$REF DATE=1955
##XYPOINTS=(XY..XY)
215.1729,4.278765
215.5484,4.281842
215.9455,4.281106
216.0023,4.280685
216.0632,4.280245
216.1324,4.279768
217.1047,4.272336
217.3555,4.268798
217.6146,4.265193
217.8778,4.261538
218.4609,4.254307
218.6268,4.253245
218.8320,4.250346
219.2525,4.243046
219.8357,4.235405
220.0270,4.230916
220.2224,4.226359
220.4261,4.221712
220.8242,4.213677
221.0153,4.206796
221.1659,4.202802
221.2296,4.199263
221.6277,4.190798
221.6875,4.187590
221.7514,4.184359
221.8235,4.181103
222.2253,4.168923
222.3588,4.165191
222.4923,4.161377
222.6259,4.157506
223.0080,4.145780
223.0645,4.142006
223.1653,4.139235
223.2211,4.136185
223.4157,4.126373
223.6058,4.121810
223.8001,4.117198
224.0025,4.112538
224.5893,4.098247
224.7224,4.094278
224.8555,4.090271
224.9886,4.086227
225.5754,4.071028
225.7651,4.066350
225.9589,4.061560
226.1610,4.056685
226.7639,4.043449
226.8835,4.039484
227.0115,4.035417
227.1436,4.031278
227.7440,4.020450
227.9948,4.014111
228.2539,4.007608
228.5171,4.000971
229.3025,3.989360
229.3964,3.987387
229.4904,3.985367
229.5844,3.983264
230.6468,3.972034
231.0611,3.969438
231.4837,3.966751
231.9105,3.964009
233.5393,3.963235
234.0436,3.964482
234.5561,3.965726
235.0727,3.966967
236.5129,3.971518
237.1217,3.974229
237.7305,3.976848
238.3394,3.979413
239.5718,3.989929
240.2351,3.995014
240.9024,4.000041
241.5779,4.005011
242.7161,4.017240
243.9620,4.030816
245.0959,4.045035
245.9582,4.059163
246.5264,4.065705
246.7816,4.070229
247.0369,4.074676
247.2922,4.079019
247.8568,4.089330
248.2485,4.095724
248.5964,4.100558
248.8052,4.104607
249.3705,4.113595
249.7210,4.116856
250.1320,4.121469
250.8005,4.127479
250.8005,4.127479
251.3957,4.134178
252.0611,4.140496
253.3669,4.151718
255.2775,4.165017
255.4622,4.166004
255.6510,4.166965
255.8481,4.167875
256.8962,4.174068
257.7241,4.178460
258.1967,4.180617
258.7190,4.182416
260.2487,4.187904
260.8821,4.189037
261.5237,4.190120
262.1695,4.191179
264.0753,4.191245
265.1568,4.189964
265.9837,4.188463
267.2645,4.185443
268.5085,4.181606
268.9975,4.179997
269.3014,4.178470
269.6807,4.175707
271.6015,4.161667
272.1478,4.157694
272.7023,4.153659
273.2609,4.149536
274.7156,4.138215
275.2252,4.133635
275.7431,4.128955
276.2652,4.124196
277.6087,4.112304
278.3829,4.105136
278.8386,4.100044
279.3661,4.092659
280.7066,4.083306
281.1004,4.077337
281.4942,4.071285
281.8879,4.065147
283.0447,4.053614
283.5308,4.047505
284.0169,4.041278
284.5030,4.034893
285.7554,4.018552
286.1721,4.013016
286.5970,4.007410
287.0261,4.001731
288.0910,3.987364
288.6713,3.978860
289.2556,3.970110
289.8483,3.961142
291.1937,3.940797
291.6112,3.932855
292.0370,3.924724
292.4669,3.916352
293.7180,3.896990
294.2275,3.889245
294.7451,3.881361
295.2670,3.873331
296.4423,3.855260
296.8903,3.847565
297.3384,3.839628
297.7865,3.831490
298.9630,3.809072
299.4108,3.801011
299.8587,3.792683
300.3065,3.784134
301.8550,3.754327
302.3037,3.744671
302.7566,3.734730
303.2177,3.724422
304.3745,3.698736
304.8597,3.687091
305.3450,3.675050
305.8303,3.662510
307.0987,3.630896
307.5462,3.619943
307.9936,3.608618
308.4411,3.596810
310.5841,3.541011
311.0317,3.526566
311.4794,3.511623
311.9270,3.496148
313.2874,3.451806
313.9583,3.431064
314.6334,3.409144
315.3168,3.385768
316.7691,3.331473
317.8626,3.301794
318.9396,3.269743
319.8598,3.186741
320.0129,3.190901
320.1742,3.194798
320.3397,3.198211
320.3397,3.198211
320.3624,3.208941
320.3934,3.218984
320.4286,3.228592
320.4286,3.228592
320.6357,3.198312
320.9037,3.197991
321.0528,3.195139
321.2106,3.187216
322.5476,3.142848
322.9570,3.146195
323.5811,3.141970
324.9547,3.126189
##END=
