##TITLE=9-Vinylanthracene
##JCAMP-DX=4.24
##DATA TYPE=UV/VIS SPECTRUM
##ORIGIN=INSTITUTE OF ENERGY PROBLEMS OF CHEMICAL PHYSICS, RAS
##OWNER=INEP CP RAS, NIST OSRD
Collection (C) 2007 copyright by the U.S. Secretary of Commerce
on behalf of the United States of America. All rights reserved.
##CAS REGISTRY NO=2444-68-0
##MOLFORM=C16H12
##MP=64-65
##SOURCE REFERENCE=RAS UV No. 19979
##$NIST SQUIB=1966LAN175
##$NIST SOURCE=TYUGLMTE
##SPECTROMETER/DATA SYSTEM=Unicam SP 500
##XUNITS=Wavelength (nm)
##YUNITS=Logarithm epsilon
##XFACTOR=1.0
##YFACTOR=1.0
##FIRSTX=210.45
##LASTX=414.1
##FIRSTY=4.044
##MAXX=414.1
##MINX=210.45
##MAXY=4.507
##MINY=2.023
##NPOINTS=152
##$REF AUTHOR=Lang (editor), L.
##$REF JOURNAL=Absorption Spectra in the Ultraviolet and Visible Region
##$REF VOLUME=7
##$REF PAGE=175
##$REF DATE=1966
##XYPOINTS=(XY..XY)
210.45,4.044
211.80,4.115
213.15,4.158
214.50,4.186
215.85,4.199
217.20,4.206
218.54,4.219
219.89,4.229
221.24,4.233
222.59,4.233
223.94,4.223
225.29,4.216
226.64,4.202
227.98,4.189
229.33,4.179
230.68,4.169
232.03,4.162
233.38,4.155
234.73,4.155
236.08,4.158
237.43,4.165
238.77,4.172
240.12,4.186
241.47,4.206
242.82,4.236
244.17,4.270
245.52,4.300
246.87,4.324
248.21,4.351
249.56,4.371
250.91,4.402
252.26,4.436
253.61,4.469
254.96,4.496
256.31,4.507
257.65,4.496
259.00,4.449
260.35,4.368
261.70,4.209
263.05,4.060
264.40,3.946
265.75,3.871
267.10,3.804
268.44,3.750
269.79,3.706
271.14,3.665
272.49,3.628
273.84,3.587
275.19,3.554
276.54,3.520
277.88,3.489
279.23,3.459
280.58,3.435
281.93,3.408
283.28,3.388
284.63,3.364
285.98,3.347
287.33,3.327
288.67,3.310
290.02,3.293
291.37,3.280
292.72,3.266
294.07,3.259
295.42,3.246
296.77,3.243
298.11,3.243
299.46,3.239
300.81,3.232
302.16,3.232
303.51,3.229
304.86,3.232
306.21,3.236
307.56,3.246
308.90,3.263
310.25,3.266
311.60,3.280
312.95,3.297
314.30,3.310
315.65,3.330
317.00,3.344
318.34,3.344
319.69,3.354
321.04,3.361
322.39,3.368
323.74,3.385
325.09,3.412
326.44,3.442
327.78,3.469
329.13,3.499
330.48,3.520
331.83,3.537
333.18,3.547
334.53,3.550
335.88,3.554
337.23,3.554
338.57,3.557
339.92,3.567
341.27,3.581
342.62,3.608
343.97,3.641
345.32,3.672
346.67,3.692
348.01,3.712
349.36,3.729
350.71,3.743
352.06,3.736
353.41,3.726
354.76,3.702
356.11,3.689
357.46,3.682
358.80,3.692
360.15,3.726
361.50,3.760
362.85,3.793
364.20,3.821
365.55,3.841
366.90,3.861
368.24,3.875
369.59,3.854
370.94,3.837
372.29,3.807
373.64,3.777
374.99,3.750
376.34,3.723
377.69,3.692
379.03,3.672
380.38,3.668
381.73,3.685
383.08,3.706
384.43,3.733
385.78,3.766
387.13,3.783
388.47,3.793
389.82,3.777
391.17,3.736
392.52,3.685
393.87,3.628
395.22,3.560
396.57,3.489
397.91,3.398
399.26,3.266
400.61,3.148
401.96,3.013
403.31,2.864
404.66,2.715
406.01,2.567
407.36,2.499
408.70,2.398
410.05,2.300
411.40,2.202
412.75,2.117
414.10,2.023
##END=
