##TITLE=1- methoxyphthalazine
##JCAMP-DX=4.24
##DATA TYPE=UV/VIS SPECTRUM
##ORIGIN=INSTITUTE OF ENERGY PROBLEMS OF CHEMICAL PHYSICS, RAS
##OWNER=INEP CP RAS, NIST OSRD
Collection (C) 2007 copyright by the U.S. Secretary of Commerce
on behalf of the United States of America. All rights reserved.
##CAS REGISTRY NO=24953-56-8
##MOLFORM=C9H8N2O
##MP=59
##SOURCE REFERENCE=RAS UV No. 22430
##$NIST SQUIB=1977COO/1184
##$NIST SOURCE=TYUGLMTE
##SPECTROMETER/DATA SYSTEM=unknown
##XUNITS=Wavelength (nm)
##YUNITS=Logarithm epsilon
##XFACTOR=1.0
##YFACTOR=1.0
##FIRSTX=232.249
##LASTX=314.19
##FIRSTY=3.947
##MAXX=314.19
##MINX=232.249
##MAXY=3.947
##MINY=3.266
##NPOINTS=84
##$REF AUTHOR=Cook, M.J.; et al.
##$REF JOURNAL=J. Chem.Soc., Perkin Trans. II
##$REF PAGE=1184
##$REF DATE=1977
##XYPOINTS=(XY..XY)
232.249,3.947
233.249,3.916
234.249,3.883
235.249,3.848
236.249,3.812
237.249,3.775
238.249,3.740
239.249,3.706
240.249,3.675
241.249,3.648
242.249,3.626
243.249,3.609
244.249,3.598
245.249,3.593
246.249,3.593
247.343,3.594
248.412,3.601
249.347,3.608
250.213,3.616
251.213,3.624
252.213,3.633
253.213,3.643
254.213,3.654
255.213,3.665
256.213,3.676
257.213,3.686
258.213,3.695
259.213,3.703
260.213,3.711
261.213,3.717
262.213,3.721
263.213,3.725
264.213,3.727
265.213,3.728
266.213,3.727
267.213,3.725
268.213,3.722
269.213,3.718
270.213,3.713
271.213,3.707
272.213,3.700
273.213,3.692
274.213,3.683
275.213,3.674
276.213,3.664
277.213,3.652
278.213,3.640
279.213,3.625
280.204,3.607
281.204,3.584
282.204,3.559
283.204,3.534
284.204,3.508
285.204,3.483
286.204,3.459
287.204,3.437
288.204,3.418
289.020,3.404
290.216,3.400
291.157,3.411
292.134,3.417
293.027,3.411
294.080,3.400
295.229,3.387
296.229,3.372
297.229,3.353
298.229,3.330
299.229,3.305
300.229,3.282
301.137,3.268
302.229,3.266
302.834,3.275
303.179,3.287
304.179,3.329
305.179,3.352
306.179,3.365
307.179,3.375
308.179,3.388
309.190,3.409
310.190,3.448
311.190,3.457
312.190,3.440
313.190,3.394
314.190,3.311
##END=
