##TITLE=Thieno[3,2-b]thiophene
##JCAMP-DX=4.24
##DATA TYPE=UV/VIS SPECTRUM
##ORIGIN=INSTITUTE OF ENERGY PROBLEMS OF CHEMICAL PHYSICS, RAS
##OWNER=INEP CP RAS, NIST OSRD
Collection (C) 2007 copyright by the U.S. Secretary of Commerce
on behalf of the United States of America. All rights reserved.
##CAS REGISTRY NO=251-41-2
##MOLFORM=C6H4S2
##SOURCE REFERENCE=RAS UV No. 20141
##$NIST SQUIB=1969BOL/157
##$NIST SOURCE=TYUGLMTE
##SPECTROMETER/DATA SYSTEM=unknown
##XUNITS=Wavelength (nm)
##YUNITS=Logarithm epsilon
##XFACTOR=1.0
##YFACTOR=1.0
##FIRSTX=204.6
##LASTX=307.47
##FIRSTY=3.203
##MAXX=307.47
##MINX=204.6
##MAXY=4.12
##MINY=0.246
##NPOINTS=165
##$REF AUTHOR=Bolshakov, G.F.; et al.
##$REF JOURNAL=Ultraviolet spectra of heteroorganic compounds
##$REF PAGE=157
##$REF DATE=1969
##XYPOINTS=(XY..XY)
204.60,3.203
204.77,3.203
204.94,3.203
205.11,3.203
205.28,3.203
205.45,3.199
205.62,3.199
205.79,3.199
205.96,3.199
206.13,3.199
206.30,3.199
206.47,3.199
206.64,3.199
206.81,3.199
206.98,3.199
207.15,3.199
207.32,3.190
208.00,3.190
208.69,3.190
209.37,3.190
210.05,3.190
210.73,3.190
211.41,3.190
212.09,3.190
212.77,3.190
213.45,3.190
214.14,3.195
214.82,3.195
215.50,3.199
216.18,3.207
216.86,3.211
217.54,3.215
218.20,3.220
218.90,3.228
219.59,3.232
220.23,3.238
220.89,3.246
221.63,3.253
222.31,3.261
222.99,3.268
223.67,3.278
224.30,3.291
225.04,3.303
225.72,3.316
226.40,3.328
227.08,3.341
227.76,3.353
228.44,3.370
229.15,3.383
229.80,3.395
230.49,3.411
231.17,3.432
231.85,3.449
232.53,3.466
233.21,3.487
233.92,3.507
234.57,3.528
235.25,3.545
235.94,3.566
236.62,3.587
237.30,3.608
237.98,3.628
238.66,3.649
239.34,3.670
240.09,3.693
240.70,3.712
241.42,3.731
242.07,3.745
242.75,3.758
243.43,3.774
244.11,3.791
244.77,3.808
245.47,3.824
246.15,3.837
246.84,3.854
247.52,3.870
248.20,3.887
248.88,3.899
249.56,3.912
250.24,3.929
250.92,3.945
251.60,3.958
252.29,3.975
252.97,3.991
253.65,4.004
254.33,4.016
255.01,4.033
255.69,4.045
256.37,4.054
257.05,4.070
257.74,4.075
258.42,4.091
259.10,4.095
259.78,4.108
260.46,4.108
261.14,4.095
261.82,4.083
262.50,4.066
263.19,4.050
263.87,4.033
264.55,4.033
265.23,4.050
265.91,4.070
266.59,4.091
267.27,4.112
267.95,4.120
268.64,4.116
269.32,4.104
270.00,4.079
270.68,4.050
271.36,4.020
272.04,3.995
272.72,3.975
273.40,3.966
274.08,3.966
274.77,3.966
275.45,3.975
276.13,3.995
276.81,4.029
277.49,4.050
278.17,4.054
278.60,4.048
278.93,4.030
279.63,3.947
280.22,3.849
280.90,3.716
281.58,3.591
282.26,3.449
282.94,3.307
283.62,3.174
284.30,3.036
284.98,2.890
285.67,2.732
286.35,2.557
287.03,2.377
287.71,2.215
288.39,2.056
289.07,1.873
289.47,1.780
289.81,1.697
290.25,1.610
290.78,1.504
291.41,1.430
293.16,1.243
293.84,1.164
294.52,1.084
295.20,1.005
295.88,0.943
296.57,0.880
297.25,0.822
297.93,0.767
298.61,0.713
299.29,0.659
299.96,0.615
300.65,0.576
301.33,0.534
302.02,0.496
302.70,0.459
303.38,0.425
304.06,0.392
304.74,0.363
305.42,0.329
306.10,0.304
306.78,0.279
307.47,0.246
##END=
