##TITLE=endo-1-(1,5-dimethylbicyclo[2.1.0]pent-5-yl)ethanone
##JCAMP-DX=4.24
##DATA TYPE=UV/VIS SPECTRUM
##ORIGIN=INSTITUTE OF ENERGY PROBLEMS OF CHEMICAL PHYSICS, RAS
##OWNER=INEP CP RAS, NIST OSRD
Collection (C) 2007 copyright by the U.S. Secretary of Commerce
on behalf of the United States of America. All rights reserved.
##CAS REGISTRY NO=25162-28-1
##MOLFORM=C9H14O
##SOURCE REFERENCE=RAS UV No. 22724
##$NIST SQUIB=1977GON1091
##$NIST SOURCE=TYUGLMTE
##SPECTROMETER/DATA SYSTEM=unknown
##XUNITS=Wavelength (nm)
##YUNITS=Logarithm epsilon
##XFACTOR=1.0
##YFACTOR=1.0
##FIRSTX=224.459
##LASTX=341.56
##FIRSTY=2.42
##MAXX=341.56
##MINX=224.459
##MAXY=2.42
##MINY=1.239
##NPOINTS=121
##$REF AUTHOR=Gonzenbach, H.-U.
##$REF JOURNAL=H.-U. Gonzenbach et al.
##$REF VOLUME=60
##$REF PAGE=1091
##$REF DATE=1977
##XYPOINTS=(XY..XY)
224.459,2.420
225.459,2.372
226.459,2.334
227.459,2.298
228.459,2.254
229.459,2.201
230.459,2.135
231.459,2.058
232.459,1.975
233.459,1.894
234.459,1.826
235.459,1.771
236.245,1.721
237.245,1.671
238.245,1.623
239.245,1.580
240.245,1.540
241.245,1.505
242.245,1.475
243.245,1.449
244.245,1.428
245.245,1.410
246.245,1.397
247.245,1.387
248.245,1.379
249.245,1.374
250.245,1.372
251.245,1.371
252.245,1.372
253.245,1.374
254.245,1.378
255.245,1.384
256.245,1.392
257.245,1.401
258.245,1.412
259.245,1.425
260.245,1.439
261.245,1.455
262.245,1.472
263.245,1.490
264.245,1.507
265.245,1.524
266.245,1.539
266.384,1.541
267.384,1.549
268.384,1.563
269.384,1.582
270.384,1.603
271.384,1.625
272.384,1.648
273.384,1.671
274.384,1.692
275.384,1.713
276.384,1.732
277.384,1.751
278.384,1.768
279.384,1.784
280.384,1.800
281.384,1.815
282.384,1.829
283.384,1.843
284.384,1.856
285.384,1.868
286.384,1.879
286.478,1.880
287.478,1.891
288.478,1.900
289.478,1.906
290.478,1.912
291.478,1.917
292.478,1.921
293.478,1.926
294.478,1.930
295.478,1.935
296.478,1.939
297.478,1.943
298.478,1.947
299.478,1.950
300.478,1.953
301.478,1.954
302.478,1.954
303.478,1.954
304.478,1.951
305.478,1.947
306.478,1.941
307.478,1.933
308.478,1.924
309.478,1.912
310.478,1.899
311.478,1.884
312.478,1.868
312.560,1.870
313.560,1.849
314.560,1.827
315.560,1.805
316.560,1.782
317.560,1.760
318.560,1.738
319.560,1.717
320.560,1.697
321.560,1.678
322.560,1.658
323.560,1.638
324.560,1.617
325.560,1.595
326.560,1.570
327.560,1.543
328.560,1.514
329.560,1.482
330.560,1.448
331.560,1.412
332.560,1.375
333.560,1.339
334.560,1.306
335.560,1.277
336.560,1.256
337.560,1.243
338.560,1.239
339.560,1.241
340.560,1.246
341.560,1.248
##END=
