##TITLE=1,7-Naphthyridine
##JCAMP-DX=4.24
##DATA TYPE=UV/VIS SPECTRUM
##ORIGIN=INSTITUTE OF ENERGY PROBLEMS OF CHEMICAL PHYSICS, RAS
##OWNER=INEP CP RAS, NIST OSRD
Collection (C) 2007 copyright by the U.S. Secretary of Commerce
on behalf of the United States of America. All rights reserved.
##CAS REGISTRY NO=253-69-0
##MOLFORM=C8H6N2
##MP=60-62
##SOURCE REFERENCE=RAS UV No. 13336
##$NIST SQUIB=1963RAP/BAT1753
##$NIST SOURCE=TYUGLMTE
##SPECTROMETER/DATA SYSTEM=n.i.g.
##XUNITS=Wavelength (nm)
##YUNITS=Logarithm epsilon
##XFACTOR=1.0
##YFACTOR=1.0
##FIRSTX=243.52
##LASTX=339.6
##FIRSTY=3.835
##MAXX=339.6
##MINX=243.52
##MAXY=3.835
##MINY=2.354
##NPOINTS=448
##$REF AUTHOR=Rapoport, H.; Batcho, A.D.
##$REF JOURNAL=J. Org. Chem.
##$REF VOLUME=28
##$REF PAGE=1753
##$REF DATE=1963
##XYPOINTS=(XY..XY)
243.52,3.835
243.73,3.824
243.88,3.814
244.00,3.804
244.24,3.785
244.37,3.773
244.55,3.758
244.78,3.743
244.96,3.730
245.13,3.714
245.31,3.701
245.49,3.695
245.67,3.683
245.85,3.673
245.95,3.665
246.10,3.651
246.25,3.638
246.34,3.625
246.55,3.600
246.78,3.571
246.96,3.545
247.20,3.522
247.46,3.502
247.65,3.497
247.82,3.493
248.00,3.490
248.18,3.486
248.32,3.485
248.48,3.483
248.72,3.482
248.90,3.482
249.22,3.481
249.62,3.481
250.13,3.481
250.69,3.482
251.11,3.483
251.36,3.485
251.62,3.487
252.10,3.493
252.66,3.499
252.84,3.501
253.02,3.503
253.20,3.505
253.38,3.508
253.56,3.510
253.74,3.512
253.89,3.514
254.10,3.515
254.29,3.517
254.46,3.518
254.75,3.520
255.15,3.524
255.36,3.525
255.59,3.528
255.89,3.531
256.07,3.533
256.29,3.535
256.43,3.537
256.61,3.538
256.79,3.540
256.96,3.541
257.14,3.543
257.32,3.545
257.50,3.546
257.68,3.547
257.86,3.548
258.26,3.550
258.61,3.552
259.03,3.554
259.65,3.558
260.16,3.561
260.72,3.564
261.30,3.566
261.72,3.567
262.52,3.570
262.70,3.571
262.88,3.571
263.06,3.572
263.24,3.573
263.42,3.574
263.60,3.574
263.78,3.575
263.96,3.576
264.14,3.577
264.31,3.577
264.49,3.578
264.67,3.579
264.85,3.580
265.03,3.580
265.18,3.581
265.39,3.582
265.57,3.582
265.92,3.583
266.41,3.584
266.85,3.585
267.36,3.585
267.54,3.585
267.97,3.585
268.44,3.585
268.62,3.585
269.33,3.585
269.51,3.585
269.69,3.585
269.87,3.585
270.05,3.585
270.23,3.585
270.41,3.584
270.59,3.584
270.80,3.584
271.06,3.583
271.29,3.582
271.47,3.582
271.66,3.581
271.87,3.580
272.38,3.578
273.22,3.573
273.99,3.567
274.17,3.565
274.35,3.563
274.53,3.561
274.71,3.556
274.89,3.554
275.07,3.550
275.25,3.547
275.43,3.544
275.55,3.541
275.74,3.537
275.97,3.531
276.15,3.526
276.33,3.524
276.50,3.520
276.68,3.516
276.86,3.513
277.04,3.509
277.22,3.507
277.39,3.504
277.54,3.501
277.72,3.497
277.95,3.492
278.12,3.487
278.30,3.484
278.48,3.479
278.66,3.477
278.83,3.473
279.01,3.469
279.19,3.465
279.37,3.462
279.55,3.458
279.84,3.454
280.08,3.449
280.44,3.442
280.81,3.433
280.99,3.429
281.17,3.425
281.34,3.421
281.52,3.417
281.70,3.414
281.88,3.411
282.06,3.409
282.24,3.406
282.42,3.402
282.60,3.397
282.78,3.393
282.96,3.389
283.14,3.387
283.28,3.385
283.47,3.383
283.69,3.380
283.85,3.378
284.03,3.376
284.21,3.373
284.39,3.372
284.57,3.370
284.75,3.367
284.93,3.364
285.11,3.359
285.29,3.355
285.47,3.350
285.65,3.345
285.83,3.340
286.00,3.334
286.18,3.328
286.33,3.323
286.53,3.317
286.72,3.312
286.90,3.306
287.05,3.301
287.26,3.294
287.44,3.289
287.62,3.283
287.78,3.279
287.95,3.274
288.16,3.268
288.31,3.263
288.51,3.258
288.69,3.254
288.87,3.249
289.05,3.246
289.24,3.241
289.41,3.237
289.55,3.234
289.79,3.229
289.98,3.225
290.09,3.223
290.26,3.221
290.42,3.220
290.61,3.218
290.78,3.216
290.95,3.214
291.20,3.212
291.38,3.210
291.56,3.209
291.74,3.208
291.92,3.208
292.12,3.209
292.28,3.209
292.46,3.210
292.64,3.212
292.82,3.213
293.12,3.215
293.52,3.218
294.10,3.224
294.41,3.227
294.80,3.231
295.25,3.235
295.74,3.240
296.23,3.246
296.72,3.251
297.14,3.256
297.30,3.258
297.49,3.261
297.66,3.264
297.86,3.266
298.02,3.268
298.21,3.271
298.43,3.275
298.65,3.278
298.83,3.281
298.97,3.284
299.09,3.285
299.27,3.288
299.47,3.290
299.63,3.292
299.81,3.294
299.99,3.297
300.17,3.299
300.35,3.302
300.52,3.304
300.70,3.307
300.88,3.309
301.05,3.311
301.24,3.313
301.44,3.316
301.61,3.318
301.80,3.321
301.96,3.323
302.11,3.324
302.30,3.326
302.50,3.328
302.68,3.329
302.85,3.331
303.04,3.334
303.22,3.335
303.39,3.337
303.57,3.339
303.77,3.340
303.93,3.341
304.11,3.342
304.29,3.343
304.46,3.344
304.65,3.345
304.86,3.345
305.01,3.346
305.16,3.346
305.34,3.346
305.54,3.346
305.72,3.346
305.90,3.347
306.08,3.347
306.26,3.347
306.44,3.347
306.62,3.347
306.81,3.346
307.02,3.345
307.25,3.344
307.40,3.343
307.57,3.341
307.68,3.340
307.85,3.337
308.04,3.334
308.21,3.330
308.49,3.321
308.64,3.316
308.81,3.311
308.95,3.307
309.13,3.302
309.31,3.298
309.49,3.294
309.67,3.293
309.85,3.293
310.03,3.293
310.20,3.293
310.38,3.282
310.56,3.280
310.74,3.277
310.92,3.277
311.10,3.277
311.28,3.276
311.46,3.276
311.64,3.275
311.82,3.274
312.00,3.274
312.18,3.274
312.36,3.274
312.54,3.274
312.71,3.274
312.89,3.274
313.07,3.275
313.25,3.276
313.43,3.278
313.61,3.279
313.79,3.281
313.97,3.281
314.15,3.282
314.33,3.283
314.51,3.285
314.69,3.286
314.87,3.288
315.04,3.291
315.22,3.292
315.40,3.293
315.58,3.294
315.76,3.298
315.94,3.299
316.12,3.302
316.30,3.302
317.20,3.309
317.38,3.308
317.55,3.308
317.73,3.308
317.91,3.308
318.09,3.308
318.27,3.308
318.45,3.308
318.63,3.308
318.81,3.308
318.99,3.308
319.17,3.307
319.35,3.305
319.53,3.302
319.71,3.294
319.88,3.275
320.06,3.270
320.24,3.237
320.42,3.204
320.60,3.140
320.78,3.062
320.85,3.034
321.05,2.989
321.26,2.960
321.50,2.941
321.68,2.930
321.86,2.918
322.04,2.903
322.22,2.893
322.39,2.879
322.57,2.869
322.76,2.860
322.93,2.852
323.37,2.830
323.71,2.815
324.00,2.801
325.00,2.759
325.80,2.726
325.98,2.718
326.16,2.710
326.35,2.703
326.55,2.694
326.71,2.688
326.87,2.681
327.06,2.674
327.23,2.668
327.41,2.664
327.59,2.659
327.83,2.651
328.06,2.646
328.39,2.636
328.75,2.628
328.98,2.620
329.21,2.612
329.39,2.607
329.57,2.600
329.78,2.594
329.92,2.592
330.10,2.586
330.29,2.581
330.46,2.576
330.64,2.570
330.82,2.565
331.00,2.559
331.18,2.553
331.36,2.548
331.54,2.542
331.72,2.536
331.90,2.530
332.10,2.523
332.34,2.514
332.59,2.504
332.74,2.497
332.86,2.493
333.02,2.488
333.15,2.485
333.33,2.482
333.51,2.479
333.69,2.476
333.87,2.472
334.04,2.469
334.23,2.465
334.44,2.461
334.65,2.456
334.82,2.453
335.00,2.448
335.14,2.445
335.32,2.440
335.48,2.436
335.65,2.433
335.82,2.430
336.02,2.429
336.16,2.425
336.35,2.422
336.56,2.421
336.73,2.417
336.91,2.415
337.10,2.411
337.29,2.408
337.46,2.403
337.62,2.400
337.85,2.395
337.99,2.392
338.17,2.389
338.34,2.385
338.53,2.380
338.69,2.376
338.89,2.372
339.06,2.368
339.24,2.363
339.39,2.359
339.60,2.354
##END=
