##TITLE=1-Piperidinyloxy, 2,2,6,6-tetramethyl-
##JCAMP-DX=4.24
##DATA TYPE=UV/VIS SPECTRUM
##ORIGIN=INSTITUTE OF ENERGY PROBLEMS OF CHEMICAL PHYSICS, RAS
##OWNER=INEP CP RAS, NIST OSRD
Collection (C) 2007 copyright by the U.S. Secretary of Commerce
on behalf of the United States of America. All rights reserved.
##CAS REGISTRY NO=2564-83-2
##MOLFORM=C9H18NO
##MP=37.8-38.1
##SOURCE REFERENCE=RAS UV No. 18459
##$NIST SQUIB=1982KOP105
##$NIST SOURCE=TYUGLMTE
##SPECTROMETER/DATA SYSTEM=SF-16
##XUNITS=Wavelength (nm)
##YUNITS=Logarithm epsilon
##XFACTOR=1.0
##YFACTOR=1.0
##FIRSTX=211.34
##LASTX=536.75
##FIRSTY=3.086
##MAXX=536.75
##MINX=211.34
##MAXY=3.286
##MINY=0.128
##NPOINTS=100
##$REF AUTHOR=(editor), Koptyug V.A.
##$REF JOURNAL=Atlas of Spectra of Aromatic and Heterocyclic Compounds
##$REF VOLUME=24
##$REF PAGE=105
##$REF DATE=1982
##XYPOINTS=(XY..XY)
211.34,3.086
216.31,3.129
220.56,3.179
224.81,3.222
229.78,3.265
235.45,3.286
241.83,3.272
247.50,3.243
252.46,3.201
256.72,3.151
260.26,3.094
263.81,3.037
265.93,2.980
268.77,2.923
271.60,2.865
273.73,2.808
275.86,2.751
278.69,2.694
280.82,2.637
282.24,2.573
283.66,2.509
285.07,2.445
287.20,2.388
288.62,2.324
290.75,2.259
292.16,2.195
293.58,2.131
295.71,2.074
297.13,2.010
298.54,1.946
299.96,1.882
301.38,1.817
302.80,1.753
304.22,1.689
305.63,1.625
307.05,1.561
307.76,1.497
308.47,1.432
309.89,1.368
311.31,1.304
312.72,1.240
314.14,1.176
315.56,1.112
316.27,1.047
317.69,0.983
319.10,0.919
319.81,0.855
320.52,0.791
321.94,0.727
322.65,0.662
324.07,0.598
325.49,0.534
326.19,0.470
327.61,0.406
329.03,0.342
329.74,0.277
331.87,0.220
333.99,0.163
339.66,0.128
344.63,0.163
349.59,0.199
353.84,0.249
358.10,0.299
361.64,0.356
365.90,0.406
368.73,0.463
372.99,0.513
375.82,0.570
380.07,0.620
383.62,0.677
387.87,0.727
392.13,0.777
396.38,0.819
401.34,0.862
406.31,0.905
411.98,0.941
416.94,0.976
422.61,1.012
428.28,1.033
433.96,1.055
440.34,1.069
446.72,1.062
453.10,1.055
459.48,1.040
465.86,1.019
471.53,0.990
477.20,0.969
482.87,0.941
487.84,0.905
492.80,0.869
497.76,0.826
502.72,0.784
507.69,0.741
511.94,0.698
516.19,0.655
520.45,0.613
524.70,0.570
528.25,0.520
532.50,0.477
536.75,0.434
##END=
