##TITLE=o,o'-Iminostilbene
##JCAMP-DX=4.24
##DATA TYPE=UV/VIS SPECTRUM
##ORIGIN=INSTITUTE OF ENERGY PROBLEMS OF CHEMICAL PHYSICS, RAS
##OWNER=INEP CP RAS, NIST OSRD
Collection (C) 2007 copyright by the U.S. Secretary of Commerce
on behalf of the United States of America. All rights reserved.
##CAS REGISTRY NO=256-96-2
##MOLFORM=C14H11N
##MP=196-200
##SOURCE REFERENCE=RAS UV No. 19083
##$NIST SQUIB=1969LAN219
##$NIST SOURCE=TYUGLMTE
##SPECTROMETER/DATA SYSTEM=Unicam SP 800
##XUNITS=Wavelength (nm)
##YUNITS=Logarithm epsilon
##XFACTOR=1.0
##YFACTOR=1.0
##FIRSTX=216.98
##LASTX=498.15
##FIRSTY=4.246
##MAXX=498.15
##MINX=216.98
##MAXY=4.524
##MINY=0.889
##NPOINTS=243
##$REF AUTHOR=Lang (editor), L.
##$REF JOURNAL=Absorption Spectra in the Ultraviolet and Visible Region
##$REF VOLUME=13
##$REF PAGE=219
##$REF DATE=1969
##XYPOINTS=(XY..XY)
216.98,4.246
218.36,4.237
219.90,4.227
221.38,4.217
222.75,4.209
224.28,4.198
225.81,4.188
227.17,4.174
228.52,4.161
229.88,4.147
231.41,4.140
232.94,4.140
234.47,4.144
235.83,4.154
237.18,4.168
238.47,4.181
239.82,4.197
240.75,4.219
241.69,4.238
242.79,4.264
243.81,4.284
244.82,4.308
245.67,4.332
246.69,4.356
247.54,4.380
248.56,4.401
249.41,4.425
250.43,4.445
251.62,4.462
252.80,4.479
254.16,4.493
255.52,4.510
256.88,4.524
258.41,4.520
259.77,4.507
260.78,4.486
261.63,4.459
262.31,4.431
263.33,4.407
264.18,4.383
265.20,4.359
266.22,4.335
266.90,4.308
267.75,4.284
268.59,4.257
269.44,4.233
270.29,4.205
270.80,4.178
271.65,4.150
272.33,4.123
273.01,4.096
273.69,4.068
274.20,4.041
274.71,4.010
275.56,3.986
276.40,3.962
277.08,3.935
277.93,3.907
278.78,3.880
279.46,3.852
280.14,3.825
280.82,3.798
281.41,3.768
282.18,3.739
283.03,3.712
284.09,3.691
285.37,3.673
286.84,3.665
288.63,3.664
290.16,3.664
291.69,3.664
293.21,3.661
294.74,3.654
296.10,3.640
297.46,3.626
298.82,3.609
300.17,3.592
301.36,3.575
302.45,3.557
303.74,3.537
304.93,3.517
306.12,3.500
307.14,3.479
308.15,3.455
309.17,3.431
310.19,3.411
311.21,3.387
312.23,3.366
313.08,3.342
314.10,3.318
314.95,3.294
315.79,3.270
316.81,3.246
317.66,3.219
318.68,3.198
319.53,3.174
320.55,3.150
321.74,3.130
322.59,3.106
323.61,3.085
324.79,3.065
326.15,3.047
327.51,3.030
328.87,3.017
330.40,3.010
331.92,3.010
333.45,3.013
334.81,3.023
336.34,3.023
337.87,3.020
339.40,3.017
340.92,3.010
342.45,3.006
343.98,2.999
345.51,3.003
347.04,3.006
348.39,3.017
349.75,3.030
351.04,3.045
352.21,3.061
353.66,3.078
355.19,3.082
356.71,3.078
357.73,3.058
359.26,3.047
360.45,3.027
361.30,2.999
361.72,2.974
362.49,2.941
363.00,2.914
363.67,2.886
364.52,2.862
365.54,2.838
366.56,2.815
367.92,2.797
369.45,2.787
370.81,2.773
372.33,2.763
373.86,2.753
375.39,2.749
376.92,2.739
378.45,2.732
379.80,2.719
381.33,2.715
382.69,2.701
384.22,2.698
385.58,2.684
387.11,2.677
388.46,2.664
389.99,2.657
391.35,2.647
392.71,2.633
394.24,2.623
395.59,2.609
396.95,2.599
398.48,2.588
399.84,2.575
401.20,2.558
402.73,2.547
404.08,2.534
405.44,2.520
406.80,2.506
407.99,2.486
409.35,2.472
410.71,2.458
412.06,2.445
413.42,2.427
414.61,2.410
415.97,2.393
417.33,2.376
418.69,2.359
420.04,2.342
421.23,2.325
422.42,2.308
423.61,2.290
424.80,2.270
426.16,2.253
427.35,2.236
428.53,2.215
429.72,2.198
430.91,2.181
432.10,2.164
433.12,2.143
434.31,2.123
435.49,2.105
436.51,2.085
437.70,2.068
438.89,2.047
440.08,2.030
441.27,2.010
442.29,1.989
443.47,1.968
444.49,1.948
445.51,1.927
446.70,1.907
447.89,1.890
448.91,1.869
449.93,1.849
451.12,1.828
452.30,1.811
453.49,1.790
454.51,1.770
455.70,1.753
456.72,1.729
457.74,1.708
458.93,1.688
460.11,1.670
461.30,1.650
462.49,1.633
463.68,1.612
464.87,1.592
466.06,1.571
467.08,1.550
468.26,1.533
469.28,1.513
470.30,1.492
471.49,1.472
472.68,1.451
473.87,1.431
475.06,1.410
476.24,1.389
477.26,1.369
478.28,1.345
479.47,1.324
480.49,1.304
481.51,1.283
482.53,1.263
483.54,1.239
484.56,1.215
485.58,1.194
486.60,1.174
487.62,1.150
488.64,1.126
489.66,1.105
490.51,1.081
491.35,1.057
492.54,1.037
493.56,1.013
494.41,0.985
495.43,0.961
496.28,0.937
497.30,0.913
498.15,0.889
##END=
