##TITLE=3-methyl-3H-dibenz[f,ij]isoquinoline-2,7-dione
##JCAMP-DX=4.24
##DATA TYPE=UV/VIS SPECTRUM
##ORIGIN=INSTITUTE OF ENERGY PROBLEMS OF CHEMICAL PHYSICS, RAS
##OWNER=INEP CP RAS, NIST OSRD
Collection (C) 2007 copyright by the U.S. Secretary of Commerce
on behalf of the United States of America. All rights reserved.
##CAS REGISTRY NO=2582-19-6
##MOLFORM=C17H11NO2
##MP=267-268
##SOURCE REFERENCE=RAS UV No. 23940
##$NIST SQUIB=1974ZAI/1357
##$NIST SOURCE=TYUGLMTE
##SPECTROMETER/DATA SYSTEM=SF-4A
##XUNITS=Wavelength (nm)
##YUNITS=Logarithm epsilon
##XFACTOR=1.0
##YFACTOR=1.0
##FIRSTX=248.704
##LASTX=450.483
##FIRSTY=4.266
##MAXX=450.483
##MINX=248.704
##MAXY=4.269
##MINY=2.594
##NPOINTS=206
##$REF AUTHOR=Zaitsev, B.Ye.; et al.
##$REF JOURNAL=Khim. Geterosikl. Soedin.
##$REF PAGE=1357
##$REF DATE=1974
##XYPOINTS=(XY..XY)
248.704,4.266
249.704,4.269
250.704,4.268
251.704,4.264
252.704,4.257
253.704,4.249
254.704,4.240
255.704,4.229
256.704,4.218
257.704,4.207
258.704,4.196
259.704,4.185
260.704,4.174
261.704,4.163
262.704,4.152
263.704,4.141
264.704,4.130
265.704,4.119
266.704,4.108
267.704,4.096
268.704,4.084
269.704,4.071
270.704,4.056
271.704,4.040
272.145,4.027
273.145,4.006
274.145,3.988
275.145,3.973
276.145,3.961
277.145,3.952
278.145,3.946
279.145,3.942
280.145,3.940
281.145,3.940
282.145,3.943
283.145,3.947
284.145,3.953
285.145,3.960
286.145,3.969
287.145,3.978
288.145,3.989
289.145,4.000
290.145,4.012
291.145,4.024
292.145,4.036
293.145,4.048
294.145,4.061
295.145,4.072
296.145,4.084
296.219,4.083
297.219,4.096
298.219,4.106
299.219,4.115
300.219,4.123
301.219,4.130
302.219,4.136
303.219,4.141
304.219,4.146
305.219,4.149
306.219,4.152
307.219,4.153
308.219,4.152
309.219,4.150
310.219,4.145
311.219,4.137
312.219,4.125
313.219,4.109
314.219,4.089
314.591,4.079
315.591,4.050
316.591,4.031
317.591,4.019
318.591,4.013
319.591,4.012
320.591,4.013
321.591,4.017
322.591,4.023
323.591,4.029
324.591,4.035
325.591,4.042
326.591,4.048
327.591,4.054
328.591,4.059
329.591,4.065
330.591,4.070
331.591,4.075
332.591,4.080
333.591,4.086
334.591,4.092
335.591,4.099
336.591,4.106
337.591,4.114
337.715,4.119
338.715,4.124
339.715,4.130
340.715,4.136
341.715,4.143
342.715,4.150
343.715,4.158
344.715,4.165
345.715,4.172
346.715,4.178
347.715,4.183
348.715,4.187
349.715,4.188
350.715,4.186
351.715,4.182
352.715,4.174
353.715,4.163
354.715,4.148
355.715,4.129
356.715,4.107
357.715,4.081
358.715,4.052
359.715,4.020
360.715,3.986
361.715,3.951
362.715,3.916
363.715,3.882
364.715,3.850
365.715,3.822
366.715,3.801
367.715,3.787
369.297,3.777
370.658,3.764
371.658,3.755
372.658,3.746
373.658,3.737
374.658,3.729
375.658,3.723
376.658,3.717
377.658,3.712
378.658,3.709
379.658,3.707
380.658,3.706
381.658,3.706
382.658,3.707
383.658,3.710
384.658,3.713
385.658,3.718
386.658,3.723
387.658,3.729
388.658,3.736
389.658,3.743
390.658,3.750
391.658,3.757
392.658,3.764
393.658,3.771
394.658,3.778
395.658,3.783
396.658,3.788
397.658,3.792
398.658,3.794
399.658,3.795
400.658,3.794
401.658,3.791
402.658,3.786
403.658,3.779
404.235,3.777
405.235,3.763
406.235,3.749
407.235,3.735
408.235,3.722
409.235,3.709
410.235,3.697
411.235,3.686
412.235,3.675
413.235,3.666
414.235,3.657
415.235,3.649
416.235,3.642
417.235,3.636
418.235,3.630
419.235,3.624
420.235,3.618
421.235,3.612
422.235,3.606
423.235,3.599
424.235,3.591
425.235,3.583
426.235,3.572
427.235,3.560
428.235,3.546
429.235,3.530
430.235,3.512
431.235,3.491
432.235,3.467
433.235,3.441
434.235,3.411
435.235,3.379
436.235,3.343
437.235,3.305
438.235,3.263
439.235,3.219
440.095,3.178
441.095,3.133
442.095,3.083
443.095,3.030
444.095,2.975
445.095,2.919
446.095,2.863
447.095,2.806
448.095,2.748
449.095,2.688
450.095,2.623
450.483,2.594
##END=
