##TITLE=Biphenylene
##JCAMP-DX=4.24
##DATA TYPE=UV/VIS SPECTRUM
##ORIGIN=INSTITUTE OF ENERGY PROBLEMS OF CHEMICAL PHYSICS, RAS
##OWNER=INEP CP RAS, NIST OSRD
Collection (C) 2007 copyright by the U.S. Secretary of Commerce
on behalf of the United States of America. All rights reserved.
##CAS REGISTRY NO=259-79-0
##MOLFORM=C12H8
##MP=107-111
##SOURCE REFERENCE=RAS UV No. 9010
##$NIST SQUIB=1966TIM/BARd10/78C
##$NIST SOURCE=TSGMTE
##SPECTROMETER/DATA SYSTEM=Unicam SP 700
##XUNITS=Wavelength (nm)
##YUNITS=Logarithm epsilon
##XFACTOR=1.000000
##YFACTOR=1.000000
##FIRSTX=402.0767
##LASTX=202.3752
##FIRSTY=1.12075
##MAXX=402.077
##MINX=202.375
##MAXY=5.0178
##MINY=1.12075
##NPOINTS=473
##$REF AUTHOR=Timmons, C.J.; Barton, J.W.
##$REF TITLE=Biphenylene
##$REF BOOK TITLE=UV Atlas of Organic Compounds - Vol. 2
##$REF PAGE=D10/78
##$REF DATE=1966
##$REF PUBLISHER=Plenum Press
##$REF LOCATION=New York
##XYPOINTS=(XY..XY)
402.0767,1.120745
402.0051,1.170080
401.9243,1.219357
401.9243,1.219357
401.4725,1.219357
401.2675,1.244883
401.2675,1.244883
401.2675,1.201230
401.1059,1.281572
401.0505,1.243532
401.0217,1.219357
400.9808,1.202251
400.9436,1.318003
400.8156,1.242064
400.7618,1.354208
400.6945,1.203272
400.5719,1.219357
400.5719,1.219357
400.5719,1.226494
400.5719,1.233575
400.5719,1.240544
400.5719,1.240544
400.5415,1.390225
400.4086,1.204294
400.4086,1.204294
400.3663,1.208624
400.3150,1.212898
400.2639,1.426083
400.2455,1.217057
399.9102,1.461817
399.4622,1.497459
398.9016,1.533045
398.2106,1.568605
397.3719,1.604175
396.3688,1.639788
396.3688,1.639788
396.0128,1.668106
395.6128,1.702983
395.1808,1.742815
394.7286,1.786002
394.2681,1.830945
393.8110,1.876042
393.3689,1.919693
392.9534,1.960297
392.5757,1.996252
392.2473,2.025958
391.9795,2.047815
391.7835,2.060221
391.7835,2.060221
390.6552,2.074913
390.3677,2.092839
390.3044,2.109233
390.3044,2.066858
389.5619,2.063643
388.7282,2.061394
387.9150,2.058179
387.9150,2.058179
387.8001,2.036660
387.6853,2.015028
387.5706,1.993340
387.4177,2.059200
386.1624,2.081399
385.6290,2.113753
385.0634,2.142419
385.0634,2.142419
384.1862,2.146248
383.2963,2.150077
382.4022,2.153906
382.4022,2.153906
381.8383,2.198898
381.2657,2.243889
380.6878,2.288881
380.1083,2.333872
380.1083,2.333872
378.7481,2.369840
377.7804,2.406561
377.1194,2.443809
376.6824,2.481356
376.3884,2.518974
376.1572,2.556438
375.9095,2.593518
375.5661,2.629988
375.5661,2.629988
373.9942,2.706392
372.8068,2.764743
371.9280,2.808646
371.2847,2.841704
370.8059,2.867523
370.4220,2.889707
370.0643,2.911861
369.6645,2.937590
369.6645,2.937590
368.6854,2.966105
367.9641,2.983275
367.3829,2.998345
367.3829,2.998345
367.0901,3.023348
366.5667,3.063104
365.9201,3.112123
365.2567,3.164910
364.6813,3.215974
364.5195,3.303905
364.5195,3.303905
364.4995,3.308548
364.3593,3.311261
364.2977,3.259823
364.2091,3.290964
363.9792,3.314372
363.9792,3.314372
363.8107,3.302884
363.7333,3.306127
363.6410,3.309257
363.6134,3.365370
363.5413,3.312329
363.2683,3.414314
362.9427,3.461222
362.6352,3.506114
362.3446,3.549011
362.0696,3.589933
361.8090,3.628899
361.5616,3.665930
361.3262,3.701045
361.1015,3.734264
360.8864,3.765608
360.6796,3.795096
360.4801,3.822748
360.2865,3.848585
360.0977,3.872625
359.9126,3.894890
359.7300,3.915399
359.5487,3.934172
359.5487,3.934172
359.2845,3.935628
359.0133,3.936970
358.7280,3.938256
358.7280,3.938256
358.6855,3.949734
358.6285,3.961155
358.5643,3.972462
358.3026,3.938256
357.9435,3.935448
357.5852,3.932640
357.2275,3.929832
357.2275,3.929832
356.8285,3.892231
356.4289,3.854619
356.0290,3.816997
355.6287,3.779365
355.2284,3.741725
354.8281,3.704078
354.4280,3.666426
354.0282,3.628769
353.6288,3.591108
353.2301,3.553445
352.8321,3.515781
352.8321,3.515781
352.6644,3.513729
352.4827,3.511621
352.2942,3.509399
351.8840,3.486935
351.8117,3.493752
351.7254,3.500455
351.6321,3.507102
351.6321,3.507102
350.4344,3.518608
349.8322,3.534312
349.4116,3.549732
349.4116,3.549732
347.2171,3.589447
346.1330,3.637514
345.6932,3.686682
345.4482,3.729699
345.4482,3.729699
344.3268,3.729699
343.2060,3.729699
342.0793,3.729699
342.0793,3.729699
341.5957,3.744259
341.0279,3.758535
340.0952,3.769011
340.0952,3.769011
339.7422,3.772329
339.7422,3.773785
339.7422,3.775128
339.7422,3.776414
339.7042,3.768425
339.3010,3.767725
338.8923,3.766969
338.8923,3.766969
338.1580,3.728813
337.5869,3.690227
337.1282,3.651306
336.7319,3.612146
336.3488,3.572842
335.9298,3.533491
335.4265,3.494187
334.7914,3.455026
334.7914,3.455026
334.5622,3.453240
334.3271,3.451453
334.0796,3.449666
334.0796,3.449666
332.6662,3.456965
331.7558,3.466533
330.2324,3.472130
330.2324,3.472130
329.6023,3.449108
328.7055,3.438906
326.2287,3.443284
326.2287,3.443284
325.9771,3.441497
325.7138,3.439710
325.4450,3.437923
325.4450,3.437923
324.4495,3.409030
322.8164,3.379173
321.3455,3.348578
321.3455,3.348578
320.7787,3.324448
319.9980,3.288107
319.0813,3.244236
318.1055,3.197514
317.1456,3.152621
316.2750,3.114239
316.2750,3.114239
313.8456,3.080202
311.8764,3.042762
310.7708,2.999366
310.7708,2.999366
310.2990,2.992984
309.6170,2.980646
309.2297,2.969499
309.2297,2.969499
307.2832,2.936201
305.8469,2.894052
304.7442,2.854627
304.7442,2.854627
303.8970,2.817349
302.9858,2.780447
302.0091,2.743743
300.9656,2.707061
299.8542,2.670223
298.6741,2.633051
298.6741,2.633051
297.2154,2.599809
296.1276,2.554654
294.5757,2.518179
294.5757,2.518179
294.3681,2.510388
294.0042,2.501633
293.4755,2.488312
293.4755,2.488312
293.4755,2.490534
293.4755,2.492642
293.4755,2.494694
293.4755,2.494694
293.3594,2.488312
293.2337,2.488312
293.1032,2.488312
293.1032,2.488312
292.1861,2.449684
291.0065,2.409586
289.6383,2.369120
288.1541,2.329390
286.6238,2.291497
286.6238,2.291497
286.2989,2.276796
285.6559,2.259825
284.6303,2.249888
284.6303,2.249888
284.2024,2.234307
283.2712,2.219861
281.9947,2.210576
281.6510,2.209300
279.8612,2.225189
278.3911,2.256260
277.2166,2.295997
276.3156,2.337881
275.6685,2.375398
275.2573,2.402030
275.2573,2.402030
274.8352,2.436269
274.4248,2.470523
274.0249,2.504788
273.6345,2.539064
273.2527,2.573349
272.8784,2.607642
272.5106,2.641941
272.1484,2.676245
271.7909,2.710552
271.4370,2.744860
271.0859,2.779168
270.7365,2.813475
270.3881,2.847779
270.0397,2.882078
269.6904,2.916371
269.3393,2.950656
268.9854,2.984932
268.6281,3.019198
268.2663,3.053451
267.8993,3.087690
267.8993,3.087690
267.3410,3.125523
266.7748,3.163051
266.1992,3.200328
265.6126,3.237407
265.0135,3.274343
264.4004,3.311189
263.7718,3.347999
263.1264,3.384827
263.1264,3.384827
261.7184,3.448956
260.8357,3.488531
260.2269,3.516140
259.6483,3.544372
259.6483,3.544372
259.5727,3.552654
259.4553,3.559404
259.1516,3.565814
259.1516,3.565814
258.4186,3.614496
257.6898,3.663064
256.9650,3.711575
256.9650,3.711575
256.5978,3.745527
256.2482,3.779462
255.9155,3.813383
255.5992,3.847290
255.2986,3.881186
255.0132,3.915071
254.7422,3.948947
254.4852,3.982816
254.2415,4.016680
254.0107,4.050539
253.7920,4.084397
253.5850,4.118253
253.3892,4.152110
253.2039,4.185969
253.0287,4.219832
252.8630,4.253701
252.7063,4.287576
252.5581,4.321460
252.4179,4.355355
252.2850,4.389260
252.1592,4.423179
252.0397,4.457113
251.9262,4.491064
251.8181,4.525032
251.7149,4.559019
251.6162,4.593028
251.6162,4.593028
251.5350,4.595250
251.4504,4.597358
251.3586,4.599410
251.3586,4.599410
251.1561,4.635377
250.9889,4.671289
250.8465,4.707141
250.7185,4.742929
250.5947,4.778648
250.4646,4.814293
250.3181,4.849860
250.1449,4.885344
249.9349,4.920740
249.6779,4.956044
249.3643,4.991252
249.3643,4.991252
249.1698,4.993474
248.9686,4.995583
248.9061,5.017801
248.8588,5.011154
248.8115,5.004451
248.7642,4.997634
248.7642,4.997634
248.6383,4.996613
248.4653,4.993805
248.2926,4.990997
248.1201,4.988189
248.1201,4.988189
247.7731,4.948834
247.4259,4.909458
247.0786,4.870064
246.7313,4.830654
246.3842,4.791233
246.0376,4.751803
245.6916,4.712367
245.3464,4.672928
245.3464,4.672928
245.1780,4.671907
245.0098,4.670886
244.8418,4.669865
244.8418,4.669865
244.1121,4.690287
243.5410,4.721941
242.9492,4.749510
242.9492,4.749510
242.1472,4.761489
241.1332,4.775567
240.0984,4.791119
240.0984,4.791119
239.7445,4.790958
239.5247,4.789833
239.2503,4.786780
239.2503,4.786780
238.4869,4.744249
237.9821,4.699636
237.6304,4.653923
237.3280,4.608089
237.3280,4.608089
236.6328,4.539809
236.2760,4.510443
236.1440,4.498322
236.1440,4.498322
235.4625,4.487478
234.5949,4.469089
233.9781,4.453650
233.9781,4.453650
232.8920,4.402877
232.0999,4.366539
231.4434,4.336645
230.7684,4.305208
229.9248,4.264238
229.9248,4.264238
229.3337,4.215982
228.7427,4.167670
228.1489,4.119244
228.1489,4.119244
227.2495,4.068246
226.8684,4.048391
226.6745,4.042662
226.6745,4.042662
226.1193,4.011462
225.2995,3.978390
224.6139,3.944638
224.6139,3.944638
224.0356,3.926296
223.3981,3.902906
222.7671,3.890520
222.7671,3.890520
222.2858,3.878390
221.6592,3.864445
221.3488,3.850953
221.3488,3.850953
220.9748,3.843285
220.5994,3.835561
220.2197,3.827723
220.2197,3.827723
219.3721,3.828064
218.6013,3.829765
217.9352,3.830787
217.9352,3.830787
217.0838,3.818496
216.3077,3.804616
215.3430,3.794538
215.2014,3.793517
214.8248,3.794718
214.4496,3.795805
214.0756,3.796835
214.0756,3.796835
213.2948,3.807254
211.8041,3.826069
210.6775,3.836147
210.6775,3.836147
209.3589,3.859957
208.0086,3.882739
206.6697,3.905422
205.3827,3.928934
204.1865,3.954205
203.1181,3.982163
203.1181,3.982163
202.8854,3.991428
202.5998,3.999105
202.3752,4.008711
##END=
