##TITLE=Acridine
##JCAMP-DX=4.24
##DATA TYPE=UV/VIS SPECTRUM
##ORIGIN=INSTITUTE OF ENERGY PROBLEMS OF CHEMICAL PHYSICS, RAS
##OWNER=INEP CP RAS, NIST OSRD
Collection (C) 2007 copyright by the U.S. Secretary of Commerce
on behalf of the United States of America. All rights reserved.
##CAS REGISTRY NO=260-94-6
##MOLFORM=C13H9N
##MP=106 (form a); 110 (form b)
##BP=345.5
##SOURCE REFERENCE=RAS UV No. 1228
##$NIST SQUIB=1957ZAN/SCH2253-2265
##$NIST SOURCE=TSGMTE
##SPECTROMETER/DATA SYSTEM=Zeiss PMQ II
##XUNITS=Wavelength (nm)
##YUNITS=Logarithm epsilon
##XFACTOR=1.000000
##YFACTOR=1.000000
##FIRSTX=395.3387
##LASTX=201.3548
##FIRSTY=2.69014
##MAXX=395.339
##MINX=201.355
##MAXY=5.27947
##MINY=2.68473
##NPOINTS=404
##$REF AUTHOR=Zanker, V.; Schmid, W.
##$REF TITLE=Die tieftemperaturspektren der basen und kationen des pyridins, chinolins, acridins, 2.3-benzacridins und vorhersage der bandenlagen fur das 2.3;6.7-dibenzacridin
##$REF JOURNAL=Chem. Ber.
##$REF VOLUME=90
##$REF PAGE=2253-2265
##$REF DATE=1957
##XYPOINTS=(XY..XY)
395.3387,2.690135
395.1870,2.731781
395.0322,2.773424
394.8745,2.815060
394.7145,2.856687
394.5524,2.898300
394.3888,2.939896
394.2240,2.981473
394.0585,3.023025
393.8927,3.064551
393.8927,3.064551
393.7281,3.074514
393.5373,3.099837
393.3253,3.137423
393.0972,3.184172
392.8580,3.236985
392.6128,3.292764
392.3665,3.348410
392.1241,3.400824
391.8906,3.446907
391.6710,3.483560
391.4700,3.507685
391.4700,3.507685
391.1253,3.510600
390.7811,3.513514
390.4376,3.516429
390.4376,3.516429
389.8397,3.515143
389.2433,3.513674
388.6486,3.512114
388.6486,3.512114
388.1235,3.493155
387.5887,3.474015
387.0334,3.454786
387.0334,3.454786
385.5905,3.447772
383.5623,3.442105
381.9886,3.436479
381.9886,3.436479
381.2727,3.404536
380.0969,3.358497
378.3429,3.277108
378.3429,3.277108
377.7818,3.277176
377.2121,3.277245
376.6235,3.277317
376.6235,3.277317
375.8142,3.323458
375.2895,3.346741
374.5989,3.367124
374.5989,3.367124
374.0932,3.430498
373.8950,3.468911
373.5912,3.484331
373.5912,3.484331
372.7609,3.570213
372.1714,3.625107
371.7941,3.658775
371.6011,3.680983
371.5658,3.701496
371.5658,3.701496
370.4828,3.716787
369.9134,3.726810
368.1783,3.733969
368.1783,3.733969
367.5531,3.729104
366.9300,3.724147
366.3086,3.719008
366.3086,3.719008
365.2875,3.690566
363.0840,3.675973
359.5408,3.673065
359.5408,3.673065
359.2859,3.680372
359.0123,3.687499
358.7297,3.694537
358.7297,3.694537
358.4220,3.738487
358.0610,3.782332
357.6676,3.826050
357.2626,3.869618
356.8664,3.913012
356.4994,3.956210
356.1820,3.999188
355.9341,4.041923
355.7760,4.084393
355.7760,4.084393
355.2845,4.086803
354.7942,4.089031
354.7731,4.133418
354.7556,4.120685
354.7381,4.107952
354.7206,4.095219
354.3051,4.091168
354.3051,4.091168
353.2085,4.055622
352.7330,4.015771
352.6022,3.973121
352.5442,3.929174
352.2881,3.885434
351.5651,3.843405
350.1135,3.804591
350.1135,3.804591
348.5276,3.803751
347.3442,3.805777
345.8204,3.813422
345.8204,3.813422
345.5734,3.812210
345.3093,3.810909
345.0368,3.809427
345.0368,3.809427
344.7584,3.773240
344.3055,3.734704
343.0795,3.699204
343.0795,3.699204
342.4944,3.700096
341.8942,3.700900
341.2874,3.701523
341.2874,3.701523
340.8057,3.716064
340.1920,3.758014
338.9261,3.863328
338.9261,3.863328
338.3631,3.862880
337.7934,3.862252
337.2090,3.861534
337.2090,3.861534
336.6197,3.815247
335.9055,3.767876
335.2080,3.720069
334.6661,3.672475
334.4174,3.625742
334.4174,3.625742
334.1623,3.625782
333.9076,3.625822
333.6532,3.625861
333.6532,3.625861
333.4592,3.615499
333.2936,3.628382
333.2652,3.604955
333.1879,3.631974
333.0741,3.635385
333.0712,3.594319
333.0712,3.594319
332.9441,3.638707
332.6367,3.593565
332.2032,3.592811
331.7709,3.592058
331.7709,3.592058
331.4086,3.597866
331.0312,3.603677
330.6467,3.609489
330.6467,3.609489
330.2188,3.609025
329.7918,3.608378
329.3657,3.607639
329.3657,3.607639
328.0256,3.512050
327.2010,3.459630
326.7182,3.433885
326.4082,3.418318
326.4082,3.418318
324.7468,3.425634
323.8920,3.440306
323.0893,3.463642
323.0893,3.463642
322.6134,3.463721
322.1389,3.463800
321.6658,3.463879
321.6658,3.463879
320.9165,3.416918
320.1547,3.369921
319.3245,3.322857
318.3715,3.275697
317.2427,3.228409
317.2427,3.228409
315.0307,3.192204
313.4478,3.148438
312.3565,3.100329
311.6286,3.051091
311.1409,3.003941
311.1409,3.003941
309.8932,3.007117
308.9880,3.010963
307.7792,3.015230
307.7792,3.015230
307.4979,3.011874
307.2169,3.008334
306.9363,3.004704
306.9363,3.004704
306.1944,2.958852
305.1761,2.916749
303.8411,2.877719
302.1523,2.841087
300.0771,2.806176
297.5876,2.772310
297.5876,2.772310
296.8188,2.751920
296.0540,2.731530
295.2932,2.711139
295.2932,2.711139
293.9322,2.710163
292.5775,2.709097
291.2227,2.707851
291.2227,2.707851
290.8295,2.700932
290.4373,2.693922
290.0460,2.686730
289.7701,2.684732
289.1961,2.684851
288.6245,2.684970
288.0551,2.685088
288.0551,2.685088
285.8449,2.726103
283.7906,2.766908
281.5759,2.807663
281.5759,2.807663
278.0856,2.830087
276.4443,2.842066
275.1950,2.853868
275.1950,2.853868
274.2508,2.871773
273.0635,2.897367
271.5601,2.931202
269.6730,2.973827
267.3418,3.025796
267.3418,3.025796
267.2294,3.031042
267.1169,3.036105
267.0045,3.041078
267.0045,3.041078
266.7659,3.041942
266.5174,3.042718
266.2641,3.043312
266.2641,3.043312
266.2606,3.038794
266.2586,3.036208
266.2565,3.033439
266.2543,3.030579
266.1990,3.051012
265.7145,3.066574
264.4042,3.103338
263.6007,3.122846
263.0115,3.159952
262.4148,3.196969
261.8158,3.233804
261.8158,3.233804
261.6605,3.235365
261.5053,3.236743
261.3502,3.238030
261.3502,3.238030
261.1678,3.283792
260.8032,3.329404
260.3525,3.374939
259.9108,3.420472
259.7261,3.376890
259.6563,3.372785
259.5816,3.368589
259.5719,3.466077
259.5719,3.466077
259.4970,3.364214
259.2962,3.489306
258.9891,3.528520
258.7147,3.551749
258.7147,3.551749
258.5971,3.580507
258.4429,3.607716
258.2296,3.643953
257.9351,3.699793
257.5375,3.785810
257.5375,3.785810
257.4932,3.791236
257.4233,3.805744
257.3302,3.828468
257.2165,3.858544
257.0845,3.895106
256.9369,3.937290
256.7761,3.984231
256.6045,4.035064
256.4247,4.088924
256.2391,4.144946
256.0501,4.202265
255.8602,4.260017
255.6717,4.317337
255.4872,4.373359
255.3090,4.427219
255.1393,4.478052
254.9807,4.524993
254.8355,4.567177
254.7060,4.603739
254.5946,4.633815
254.5035,4.656539
254.4352,4.671046
254.3920,4.676473
254.3920,4.676473
254.3420,4.716275
254.2796,4.756265
254.2052,4.796406
254.1193,4.836665
254.0222,4.877006
253.9143,4.917393
253.7962,4.957792
253.6681,4.998167
253.5306,5.038484
253.3840,5.078706
253.2287,5.118800
253.0652,5.158729
252.8938,5.198459
252.7151,5.237954
252.5293,5.277180
252.5293,5.277180
252.2536,5.278061
251.9693,5.278854
251.6809,5.279465
251.6809,5.279465
251.3776,5.238512
251.0624,5.197483
250.7453,5.156297
250.4364,5.114872
250.1456,5.073125
249.8825,5.030976
249.6571,4.988342
249.6571,4.988342
248.9173,4.989035
248.2414,4.991811
247.5680,4.999609
247.5680,4.999609
247.3667,4.998418
247.1612,4.997138
246.9472,4.995677
246.9472,4.995677
245.7870,4.875958
245.3089,4.831361
245.0961,4.823663
245.0961,4.823663
244.4450,4.848394
244.0777,4.873225
243.6382,4.917752
243.5730,4.907896
243.5035,4.897951
243.4253,4.887825
243.4253,4.887825
243.2103,4.883779
243.0247,4.841510
242.8262,4.798030
242.6004,4.753839
242.3329,4.709438
242.0098,4.665327
241.6170,4.622006
241.1410,4.579974
241.1410,4.579974
240.4786,4.558384
239.8115,4.536704
239.1437,4.514843
239.1437,4.514843
238.7446,4.480866
238.3385,4.446892
237.9297,4.412919
237.9297,4.412919
237.1072,4.382102
236.1697,4.352509
235.3006,4.324174
235.3006,4.324174
234.9710,4.271738
234.5259,4.217970
234.0898,4.163103
234.0898,4.163103
233.6871,4.150632
233.0714,4.122071
231.7243,4.052938
231.7243,4.052938
230.6887,4.014407
229.5386,3.973136
228.2771,3.932852
226.9079,3.897283
225.4347,3.870155
225.4347,3.870155
224.9215,3.870330
224.4070,3.870507
223.8875,3.870686
223.8875,3.870686
222.7432,3.901471
221.5340,3.935753
220.2864,3.971868
219.0258,4.008150
217.7766,4.042935
217.7766,4.042935
217.2878,4.045122
216.8161,4.049769
215.9602,4.060858
215.9602,4.060858
214.2122,4.064158
212.4299,4.067018
210.6726,4.066337
208.9957,4.059012
208.9957,4.059012
207.8844,4.038504
206.8113,4.013397
205.7799,3.984610
204.7933,3.953058
203.8545,3.919662
202.9665,3.885339
202.1323,3.851006
201.3548,3.817582
##END=
