##TITLE=1,3-dimethyl-2,4,7(1H,3H,8H)-pterridinetrione
##JCAMP-DX=4.24
##DATA TYPE=UV/VIS SPECTRUM
##ORIGIN=INSTITUTE OF ENERGY PROBLEMS OF CHEMICAL PHYSICS, RAS
##OWNER=INEP CP RAS, NIST OSRD
Collection (C) 2007 copyright by the U.S. Secretary of Commerce
on behalf of the United States of America. All rights reserved.
##CAS REGISTRY NO=2614-43-9
##MOLFORM=C8H8N4O3
##SOURCE REFERENCE=RAS UV No. 23701
##$NIST SQUIB=1974PFL1299
##$NIST SOURCE=TYUGLMTE
##SPECTROMETER/DATA SYSTEM=unknown
##XUNITS=Wavelength (nm)
##YUNITS=Logarithm epsilon
##XFACTOR=1.0
##YFACTOR=1.0
##FIRSTX=218.587
##LASTX=353.362
##FIRSTY=4.099
##MAXX=353.362
##MINX=218.587
##MAXY=4.108
##MINY=3.254
##NPOINTS=92
##$REF AUTHOR=Pfleiderer, W.
##$REF JOURNAL=Khim. Geterosikl. Soedin.
##$REF PAGE=1299
##$REF DATE=1974
##XYPOINTS=(XY..XY)
218.587,4.099
220.087,4.067
221.587,4.037
223.087,4.011
224.587,3.992
226.087,3.981
227.587,3.978
229.087,3.983
230.492,3.993
231.992,4.003
233.492,4.016
234.992,4.028
236.492,4.036
237.992,4.039
239.492,4.032
240.992,4.011
242.492,3.973
243.707,3.933
244.194,3.919
245.694,3.864
247.194,3.821
248.694,3.791
250.194,3.773
251.694,3.767
253.194,3.769
254.694,3.776
256.099,3.786
257.599,3.793
259.099,3.805
260.599,3.816
262.099,3.822
263.599,3.821
265.099,3.811
266.599,3.793
268.099,3.767
269.599,3.736
271.149,3.698
272.649,3.663
274.149,3.637
275.649,3.617
277.149,3.602
278.649,3.591
280.149,3.582
281.649,3.576
283.149,3.571
284.649,3.567
286.149,3.565
287.649,3.564
289.149,3.566
290.649,3.570
292.149,3.579
293.649,3.593
295.149,3.613
296.981,3.648
298.481,3.681
299.981,3.720
301.481,3.759
302.981,3.797
304.481,3.834
305.981,3.868
307.481,3.900
308.981,3.931
310.481,3.960
311.981,3.988
313.481,4.014
314.981,4.038
316.481,4.059
317.981,4.077
319.481,4.091
320.981,4.101
322.481,4.107
323.981,4.108
325.481,4.106
326.981,4.101
328.481,4.093
329.981,4.083
331.481,4.071
332.981,4.055
334.481,4.035
335.981,4.008
337.481,3.971
338.981,3.920
340.578,3.849
342.078,3.766
343.578,3.686
345.078,3.605
346.578,3.525
348.078,3.449
349.578,3.379
351.078,3.322
352.578,3.277
353.362,3.254
##END=
