##TITLE=Thioxanthene
##JCAMP-DX=4.24
##DATA TYPE=UV/VIS SPECTRUM
##ORIGIN=INSTITUTE OF ENERGY PROBLEMS OF CHEMICAL PHYSICS, RAS
##OWNER=INEP CP RAS, NIST OSRD
Collection (C) 2007 copyright by the U.S. Secretary of Commerce
on behalf of the United States of America. All rights reserved.
##CAS REGISTRY NO=261-31-4
##MOLFORM=C13H10S
##MP=128.5
##BP=341
##SOURCE REFERENCE=RAS UV No. 9016
##$NIST SQUIB=1966FEI/SCHd11/23C
##$NIST SOURCE=TSGMTE
##SPECTROMETER/DATA SYSTEM=Beckman DK 2
##XUNITS=Wavelength (nm)
##YUNITS=Logarithm epsilon
##XFACTOR=1.000000
##YFACTOR=1.000000
##FIRSTX=399.3762
##LASTX=210.0668
##FIRSTY=1.08643
##MAXX=399.376
##MINX=210.067
##MAXY=4.35311
##MINY=1.08643
##NPOINTS=198
##$REF AUTHOR=Feichtmayer, W.; Schlag, J.
##$REF TITLE=Thiobenzophenone
##$REF BOOK TITLE=UV Atlas of Organic Compounds - Vol. 2
##$REF PAGE=D11/23
##$REF DATE=1966
##$REF PUBLISHER=Plenum Press
##$REF LOCATION=New York
##XYPOINTS=(XY..XY)
399.3762,1.086427
398.0287,1.105537
398.0287,1.105537
397.4480,1.134432
396.9520,1.196254
396.9520,1.196254
396.8932,1.203835
396.8598,1.163209
396.7347,1.194908
396.6954,1.208750
396.4994,1.193447
396.2552,1.191931
396.2552,1.191931
396.1184,1.213454
396.1184,1.213454
395.5023,1.246307
394.8881,1.279160
394.2757,1.312014
393.6653,1.344868
393.0567,1.377720
392.4500,1.410570
391.8452,1.443421
391.2422,1.476272
390.6411,1.509123
390.0418,1.541973
389.4443,1.574823
388.8486,1.607672
388.2547,1.640520
387.6626,1.673368
387.0724,1.706217
386.4838,1.739064
385.8970,1.771911
385.3121,1.804758
384.7288,1.837604
384.1473,1.870451
383.5674,1.903296
382.9894,1.936142
382.4130,1.968987
381.8383,2.001831
381.2653,2.034676
380.6940,2.067520
380.1244,2.100364
379.5564,2.133208
378.9901,2.166052
378.4254,2.198895
377.8623,2.231738
377.3010,2.264581
376.7412,2.297423
376.1830,2.330266
375.6264,2.363108
375.0714,2.395950
374.5181,2.428792
373.9662,2.461633
373.4160,2.494475
372.8673,2.527316
372.3202,2.560157
371.7746,2.592999
371.2306,2.625839
370.6881,2.658680
370.1471,2.691521
369.6077,2.724362
369.0697,2.757202
368.5333,2.790043
367.9983,2.822884
367.4649,2.855724
366.9329,2.888564
366.4023,2.921405
365.8733,2.954245
365.3457,2.987086
365.3457,2.987086
365.1591,3.016208
364.9508,3.031159
364.5426,3.044756
364.5426,3.044756
364.0046,3.079569
363.4776,3.114427
362.9587,3.149320
362.4452,3.184242
361.9342,3.219185
361.4231,3.254142
360.9091,3.289104
360.3895,3.324065
359.8617,3.359015
359.3232,3.393949
358.7712,3.428858
358.2034,3.463734
357.6170,3.498570
357.0098,3.533358
356.3793,3.568091
355.7230,3.602761
355.0388,3.637360
354.3242,3.671881
353.5770,3.706316
352.7952,3.740657
351.9766,3.774896
351.9766,3.774896
350.4401,3.821277
348.9140,3.867635
347.3953,3.913945
345.8809,3.960183
345.8809,3.960183
344.8518,3.987234
343.1224,4.028216
341.2661,4.057540
341.2661,4.057540
339.7395,4.087404
337.5567,4.116799
335.3017,4.142445
335.3017,4.142445
333.4471,4.167127
330.3557,4.194455
327.8826,4.214402
327.8826,4.214402
326.2926,4.221646
324.6650,4.230714
322.8904,4.238315
322.8904,4.238315
320.8007,4.248652
318.1265,4.252205
315.5743,4.252678
315.5743,4.252678
311.4300,4.241637
306.9922,4.223798
303.7578,4.199041
303.7578,4.199041
300.8917,4.177172
298.1303,4.147843
295.3957,4.120850
295.3957,4.120850
294.6755,4.111312
293.3700,4.095621
291.6657,4.074047
291.6657,4.074047
291.1612,4.068855
290.3293,4.057203
288.5483,4.032831
288.5483,4.032831
287.2738,4.017768
285.4267,3.991945
284.3718,3.972254
284.3718,3.972254
282.1635,3.944684
279.9814,3.911481
277.4425,3.885315
277.4425,3.885315
276.5620,3.874160
275.1975,3.861003
273.9828,3.852615
273.9828,3.852615
271.7879,3.834026
268.9463,3.830150
265.9036,3.836344
263.0709,3.847969
260.8260,3.860385
260.8260,3.860385
259.2822,3.873170
257.5188,3.883649
255.8900,3.897302
255.8900,3.897302
254.0406,3.911761
252.1363,3.931465
250.4574,3.941471
250.4574,3.941471
249.7932,3.951292
248.9389,3.958802
248.0587,3.966601
248.0587,3.966601
247.5358,3.973105
245.8679,3.990051
242.2125,4.029047
242.2125,4.029047
240.6444,4.050257
238.5575,4.068522
236.7344,4.085333
236.7344,4.085333
234.8159,4.089371
232.7352,4.086925
230.5951,4.079925
228.4919,4.070301
226.5148,4.059981
224.7474,4.050894
224.7474,4.050894
223.8876,4.050253
223.0316,4.049612
222.1764,4.048971
222.1764,4.048971
220.6135,4.060126
219.4022,4.073734
218.1184,4.092364
218.1184,4.092364
216.9322,4.122765
215.8180,4.154119
214.7650,4.186263
213.7627,4.219034
212.8011,4.252268
211.8707,4.285802
210.9623,4.319471
210.0668,4.353113
##END=
