##TITLE=5,6-Dimethyl-2,1,3-benzoselenadiazole
##JCAMP-DX=4.24
##DATA TYPE=UV/VIS SPECTRUM
##ORIGIN=INSTITUTE OF ENERGY PROBLEMS OF CHEMICAL PHYSICS, RAS
##OWNER=INEP CP RAS, NIST OSRD
Collection (C) 2007 copyright by the U.S. Secretary of Commerce
on behalf of the United States of America. All rights reserved.
##CAS REGISTRY NO=2626-34-8
##MOLFORM=C8H8N2Se
##MP=145
##SOURCE REFERENCE=RAS UV No. 7309
##$NIST SQUIB=1965FAJ1773-1775
##$NIST SOURCE=TSGMTE
##SPECTROMETER/DATA SYSTEM=Cary 14
##XUNITS=Wavelength (nm)
##YUNITS=Logarithm epsilon
##XFACTOR=1.000000
##YFACTOR=1.000000
##FIRSTX=209.3766
##LASTX=370.1995
##FIRSTY=3.10231
##MAXX=370.2
##MINX=209.377
##MAXY=3.2655
##MINY=1.3777
##NPOINTS=249
##$REF AUTHOR=Fajer, J.
##$REF TITLE=Absorption spectra of piaselenol radicals
##$REF JOURNAL=J. Phys. Chem.
##$REF VOLUME=69
##$REF PAGE=1773-1775
##$REF DATE=1965
##XYPOINTS=(XY..XY)
209.3766,3.102310
209.6418,3.094496
209.9074,3.086532
210.1735,3.078414
210.4403,3.070137
210.7081,3.061694
210.9772,3.053080
211.2476,3.044288
211.5196,3.035312
211.7936,3.026143
212.0695,3.016776
212.3477,3.007201
212.6284,2.997410
213.0835,2.962847
213.4763,2.949830
213.8103,2.937351
214.1702,2.925274
214.6406,2.913442
215.3065,2.901681
216.2525,2.889792
217.5632,2.877557
219.3237,2.864731
221.6184,2.851039
221.6184,2.851039
223.1932,2.836393
224.7830,2.821176
226.4029,2.805279
226.4029,2.805279
227.3701,2.790680
228.4421,2.774340
229.6429,2.756538
230.9958,2.737597
232.5247,2.717903
234.2532,2.697920
236.2051,2.678203
238.4038,2.659415
240.8733,2.642324
240.8733,2.642324
242.2026,2.615454
243.5356,2.586719
251.6056,2.346010
252.5169,2.305420
253.4967,2.261049
254.5667,2.212519
255.7485,2.159394
257.0635,2.101160
258.5335,2.037235
260.1799,1.966968
262.0244,1.889685
264.0886,1.804791
266.3938,1.712005
268.9619,1.611912
271.8143,1.507130
274.9726,1.404386
275.8276,1.377701
280.4009,1.464011
283.8555,1.550882
286.6113,1.649266
289.0883,1.760570
291.7066,1.880976
294.8864,2.005232
295.8713,2.043817
296.7156,2.131962
297.7422,2.204711
298.8195,2.266692
299.8162,2.320747
300.6006,2.368746
300.6006,2.368746
301.1228,2.369006
301.6593,2.369272
302.2248,2.369553
302.2248,2.369553
302.4308,2.391370
302.6971,2.411744
303.0498,2.433167
303.5149,2.457667
304.1186,2.486768
304.8870,2.521433
305.8460,2.562033
307.0217,2.608384
308.4403,2.659863
308.8612,2.675408
309.8919,2.701161
310.6425,2.723741
311.1494,2.745153
311.4492,2.767035
311.9559,2.776723
312.8224,2.800474
313.5527,2.822084
314.0242,2.844012
314.4581,2.859506
314.4790,2.857405
314.5005,2.855235
314.5231,2.852936
314.8895,2.868366
315.2398,2.880251
315.5956,2.892094
315.9563,2.903870
316.3217,2.915557
316.6913,2.927136
317.0647,2.938590
317.4414,2.949902
317.8210,2.961060
318.2031,2.972051
318.5872,2.982865
318.9731,2.993493
319.3601,3.003926
319.7480,3.014158
320.1362,3.024181
320.5244,3.033991
320.9121,3.043582
321.2990,3.052951
321.6845,3.062094
322.0683,3.071008
322.4500,3.079690
322.8290,3.088138
323.2051,3.096349
323.5778,3.104322
323.9466,3.112054
324.3111,3.119545
324.6710,3.126793
325.0256,3.133797
325.3749,3.140554
325.7181,3.147064
326.0549,3.153326
326.3850,3.159337
326.7079,3.165097
327.0231,3.170605
327.3301,3.175857
327.6287,3.180853
327.9185,3.185590
328.1988,3.190067
328.4695,3.194281
328.7299,3.198229
328.9797,3.201908
328.9797,3.201908
329.6939,3.208462
330.4086,3.214912
331.1242,3.221262
331.8411,3.227516
332.5597,3.233677
333.2803,3.239749
334.0033,3.245735
334.7290,3.251638
335.4579,3.257460
336.1904,3.263205
336.1904,3.263205
336.9770,3.264502
337.5355,3.265097
338.3447,3.265501
338.3447,3.265501
340.8174,3.259485
342.5051,3.253543
343.7166,3.245703
343.7166,3.245703
343.8855,3.240355
344.0545,3.234940
344.2236,3.229458
344.3926,3.223905
344.5616,3.218280
344.7307,3.212581
344.8998,3.206806
345.0690,3.200954
345.2382,3.195022
345.4075,3.189007
345.5769,3.182909
345.7463,3.176723
345.9158,3.170448
346.0854,3.164081
346.2551,3.157619
346.4248,3.151060
346.5947,3.144399
346.7647,3.137636
346.9348,3.130765
347.1051,3.123784
347.2754,3.116689
347.4459,3.109476
347.6166,3.102141
347.7873,3.094680
347.9583,3.087089
348.1294,3.079363
348.3007,3.071496
348.4722,3.063485
348.6439,3.055323
348.8157,3.047005
348.9878,3.038525
349.1600,3.029875
349.3325,3.021050
349.5052,3.012042
349.6780,3.002843
349.8511,2.993445
350.0245,2.983839
350.1982,2.974016
350.2750,2.943023
350.2896,2.932093
350.3017,2.953643
350.3432,2.920840
350.3720,2.963965
350.3720,2.963965
350.4336,2.909251
350.5585,2.897309
350.7157,2.884999
350.7723,2.952783
350.7860,2.951667
350.8010,2.950455
350.8165,2.949192
350.8607,2.945570
350.9030,2.872303
350.9967,2.934237
351.1181,2.859200
351.1338,2.922499
351.2715,2.910384
351.3588,2.845671
351.6228,2.831691
351.9078,2.817236
352.2117,2.802277
352.5321,2.786785
352.8669,2.770724
353.2138,2.754059
353.5704,2.736746
353.9348,2.718740
354.3044,2.699987
354.6771,2.680430
354.7629,2.617985
354.9923,2.623348
355.0507,2.660002
355.2229,2.628447
355.4229,2.638626
355.4541,2.633390
355.4541,2.633390
355.8060,2.632165
356.1867,2.630944
356.5819,2.629723
356.5819,2.629723
357.1239,2.606676
357.6705,2.582539
358.2325,2.557203
358.8213,2.530540
359.4475,2.502399
360.1224,2.472604
360.8569,2.440941
361.6620,2.407149
362.5487,2.370911
363.5281,2.331829
364.6111,2.289397
365.8087,2.242956
367.1320,2.191629
368.5919,2.134209
370.1995,2.068974
##END=
