##TITLE=benz[f]azulene
##JCAMP-DX=4.24
##DATA TYPE=UV/VIS SPECTRUM
##ORIGIN=INSTITUTE OF ENERGY PROBLEMS OF CHEMICAL PHYSICS, RAS
##OWNER=INEP CP RAS, NIST OSRD
Collection (C) 2007 copyright by the U.S. Secretary of Commerce
on behalf of the United States of America. All rights reserved.
##CAS REGISTRY NO=267-00-5
##MOLFORM=C14H10
##MP=159.5-161
##SOURCE REFERENCE=RAS UV No. 23631
##$NIST SQUIB=1974JUT/SCH2383
##$NIST SOURCE=TYUGLMTE
##SPECTROMETER/DATA SYSTEM=Beckman DK-2
##XUNITS=Wavelength (nm)
##YUNITS=Logarithm epsilon
##XFACTOR=1.0
##YFACTOR=1.0
##FIRSTX=258.751
##LASTX=676.292
##FIRSTY=3.833
##MAXX=676.292
##MINX=258.751
##MAXY=4.801
##MINY=1.78
##NPOINTS=99
##$REF AUTHOR=Jutz, C.; Schweiger, E.
##$REF JOURNAL=Chem. Ber.
##$REF VOLUME=107
##$REF PAGE=2383
##$REF DATE=1974
##XYPOINTS=(XY..XY)
258.751,3.833
260.435,3.887
262.142,3.946
263.872,4.008
265.624,4.073
267.400,4.142
269.199,4.216
271.023,4.295
272.872,4.375
274.746,4.450
276.274,4.520
278.196,4.600
280.144,4.669
282.169,4.718
284.174,4.763
286.207,4.793
288.270,4.801
290.362,4.790
292.485,4.766
294.640,4.736
296.826,4.708
299.045,4.684
301.298,4.661
303.584,4.625
305.906,4.550
308.156,4.417
310.548,4.242
312.978,4.053
315.446,3.892
317.954,3.815
320.114,3.737
322.697,3.642
325.321,3.569
327.989,3.523
330.701,3.503
333.457,3.502
336.261,3.513
339.111,3.531
342.011,3.552
344.960,3.572
347.961,3.589
351.015,3.596
354.122,3.580
357.285,3.519
357.287,3.521
360.508,3.501
363.786,3.523
367.125,3.540
370.526,3.505
373.990,3.402
377.520,3.263
381.117,3.201
384.382,3.235
388.112,3.151
391.914,2.739
392.165,2.701
396.048,2.007
399.669,1.884
403.703,1.843
407.819,1.848
412.020,1.882
416.308,1.929
420.686,1.982
425.158,2.035
429.725,2.086
434.392,2.134
439.161,2.180
444.036,2.224
449.021,2.267
454.119,2.311
459.333,2.355
464.669,2.398
470.131,2.440
475.722,2.480
481.448,2.516
487.313,2.547
493.323,2.572
499.484,2.592
505.800,2.609
511.862,2.622
518.497,2.643
525.306,2.653
532.297,2.652
539.476,2.645
546.851,2.634
554.431,2.622
562.224,2.606
570.239,2.583
578.486,2.548
586.974,2.496
595.716,2.428
604.722,2.345
614.005,2.253
623.577,2.163
633.452,2.084
643.645,2.021
654.171,1.970
665.048,1.907
676.292,1.780
##END=
