##TITLE=6,7-dimethyl-2,4(1H,3H)-pteridinedithione
##JCAMP-DX=4.24
##DATA TYPE=UV/VIS SPECTRUM
##ORIGIN=INSTITUTE OF ENERGY PROBLEMS OF CHEMICAL PHYSICS, RAS
##OWNER=INEP CP RAS, NIST OSRD
Collection (C) 2007 copyright by the U.S. Secretary of Commerce
on behalf of the United States of America. All rights reserved.
##CAS REGISTRY NO=26802-96-0
##MOLFORM=C8H8N4S2
##MP=230 (dec.)
##SOURCE REFERENCE=RAS UV No. 23581
##$NIST SQUIB=1974SCH/PFL3377
##$NIST SOURCE=TYUGLMTE
##SPECTROMETER/DATA SYSTEM=Cary 14PM-50
##XUNITS=Wavelength (nm)
##YUNITS=Logarithm epsilon
##XFACTOR=1.0
##YFACTOR=1.0
##FIRSTX=220.694
##LASTX=428.791
##FIRSTY=3.644
##MAXX=428.791
##MINX=220.694
##MAXY=4.276
##MINY=3.379
##NPOINTS=141
##$REF AUTHOR=Schneider, H.-J.; Pfleiderer, W.
##$REF JOURNAL=Chem. Ber.
##$REF VOLUME=107
##$REF PAGE=3377
##$REF DATE=1974
##XYPOINTS=(XY..XY)
220.694,3.644
222.194,3.651
223.694,3.660
225.194,3.669
226.694,3.679
228.194,3.691
229.694,3.703
231.194,3.715
232.694,3.729
234.194,3.742
235.694,3.757
237.194,3.771
238.694,3.785
240.194,3.800
241.694,3.815
243.194,3.830
244.694,3.846
246.194,3.863
247.694,3.880
249.194,3.897
250.694,3.916
252.194,3.936
253.694,3.957
255.194,3.978
256.694,4.000
258.194,4.023
259.371,4.042
260.871,4.060
262.371,4.078
263.871,4.095
265.371,4.111
266.871,4.126
268.371,4.139
269.871,4.150
271.371,4.161
272.871,4.169
274.371,4.176
275.871,4.182
277.371,4.184
278.871,4.182
279.887,4.180
281.387,4.176
282.887,4.175
284.387,4.180
285.887,4.187
287.387,4.194
289.304,4.206
290.804,4.219
292.304,4.232
293.804,4.245
295.304,4.257
296.804,4.266
298.304,4.273
299.804,4.276
301.304,4.275
302.804,4.268
304.304,4.256
305.804,4.239
307.304,4.218
308.475,4.196
309.975,4.171
311.475,4.132
312.975,4.087
314.475,4.041
315.975,3.997
317.475,3.958
318.975,3.926
320.475,3.901
321.975,3.883
323.475,3.873
324.975,3.867
326.475,3.867
327.975,3.870
329.475,3.875
330.975,3.882
332.475,3.889
333.975,3.895
335.475,3.902
336.975,3.908
338.748,3.919
340.248,3.927
341.748,3.934
343.248,3.942
344.748,3.950
346.248,3.958
347.748,3.966
349.248,3.974
350.748,3.982
352.248,3.991
353.748,4.000
355.248,4.009
356.562,4.016
358.062,4.023
359.592,4.030
361.091,4.035
362.441,4.038
363.940,4.039
365.440,4.043
366.940,4.043
368.440,4.042
369.940,4.042
371.440,4.042
372.940,4.043
374.440,4.045
375.940,4.047
377.440,4.050
378.940,4.053
380.440,4.057
381.940,4.062
383.440,4.069
384.940,4.076
386.440,4.082
387.940,4.085
389.440,4.087
390.940,4.085
392.440,4.080
393.940,4.073
395.440,4.063
396.940,4.052
398.440,4.040
400.097,4.027
400.291,4.022
401.791,4.007
403.291,3.989
404.791,3.968
406.291,3.946
407.791,3.922
409.291,3.897
410.791,3.870
412.291,3.842
413.791,3.813
415.291,3.782
416.791,3.750
418.291,3.716
419.791,3.680
421.291,3.640
422.791,3.598
424.291,3.551
425.791,3.500
427.291,3.443
428.791,3.379
##END=
