##TITLE=4-[(4-Chlorophenyl)azo]phenol
##JCAMP-DX=4.24
##DATA TYPE=UV/VIS SPECTRUM
##ORIGIN=INSTITUTE OF ENERGY PROBLEMS OF CHEMICAL PHYSICS, RAS
##OWNER=INEP CP RAS, NIST OSRD
Collection (C) 2007 copyright by the U.S. Secretary of Commerce
on behalf of the United States of America. All rights reserved.
##CAS REGISTRY NO=2703-27-7
##MOLFORM=C12H9ClN2O
##MP=157
##SOURCE REFERENCE=RAS UV No. 22362
##$NIST SQUIB=1983MAH/729
##$NIST SOURCE=TYUGLMTE
##SPECTROMETER/DATA SYSTEM=Unicam SP 8000
##XUNITS=Wavelength (nm)
##YUNITS=Logarithm epsilon
##XFACTOR=1.0
##YFACTOR=1.0
##FIRSTX=230.077
##LASTX=397.125
##FIRSTY=3.903
##MAXX=397.125
##MINX=230.077
##MAXY=4.467
##MINY=3.628
##NPOINTS=169
##$REF AUTHOR=Mahmoud, M.R.; et al.
##$REF JOURNAL=Spectrochim. Acta
##$REF VOLUME=39A
##$REF PAGE=729
##$REF DATE=1983
##XYPOINTS=(XY..XY)
230.077,3.903
231.077,3.927
232.077,3.949
233.077,3.969
234.077,3.987
235.077,4.003
236.077,4.016
237.077,4.026
238.077,4.035
239.077,4.042
240.077,4.047
241.077,4.052
242.077,4.055
243.077,4.058
244.077,4.060
245.077,4.061
246.077,4.061
247.077,4.061
248.077,4.059
249.077,4.056
250.077,4.051
251.077,4.044
252.077,4.035
253.077,4.023
254.077,4.008
255.160,3.990
256.160,3.971
257.160,3.951
258.160,3.930
259.160,3.907
260.160,3.884
261.160,3.859
262.160,3.834
263.160,3.809
264.160,3.784
265.160,3.761
266.160,3.740
267.160,3.720
268.160,3.703
269.160,3.687
269.981,3.672
270.893,3.657
271.893,3.647
272.893,3.636
273.893,3.630
274.893,3.628
275.893,3.629
276.893,3.633
277.893,3.639
278.893,3.646
279.893,3.654
280.893,3.662
281.893,3.670
282.893,3.678
283.893,3.686
284.893,3.694
285.893,3.701
285.943,3.702
286.943,3.711
287.943,3.721
288.943,3.730
289.943,3.740
290.943,3.750
291.943,3.761
292.943,3.771
293.943,3.783
294.943,3.794
295.943,3.806
296.943,3.819
297.943,3.831
298.943,3.845
299.943,3.858
300.943,3.872
301.943,3.886
302.943,3.901
303.943,3.915
304.943,3.930
305.943,3.945
306.943,3.960
307.943,3.975
308.943,3.990
309.943,4.006
310.943,4.021
311.943,4.036
312.943,4.050
313.943,4.065
314.943,4.079
315.943,4.094
316.943,4.107
317.943,4.121
318.943,4.135
319.943,4.148
320.943,4.160
321.943,4.173
322.943,4.185
323.943,4.197
324.943,4.208
325.943,4.220
326.943,4.231
327.943,4.241
328.943,4.252
329.943,4.262
330.943,4.272
331.943,4.282
332.943,4.292
333.943,4.302
334.943,4.311
335.943,4.320
336.943,4.330
337.943,4.339
338.943,4.347
339.943,4.356
341.125,4.365
342.125,4.374
343.125,4.382
344.125,4.391
345.125,4.399
346.125,4.407
347.125,4.415
348.125,4.423
349.125,4.429
350.125,4.436
351.125,4.441
352.125,4.446
353.125,4.451
354.125,4.455
355.125,4.458
356.125,4.461
357.125,4.463
358.125,4.465
359.125,4.466
360.125,4.467
361.125,4.467
362.125,4.466
363.125,4.465
364.125,4.463
365.125,4.460
366.125,4.457
367.125,4.453
368.125,4.448
369.125,4.442
370.125,4.435
371.125,4.427
372.125,4.418
373.125,4.408
374.125,4.396
375.125,4.383
376.125,4.369
377.125,4.353
378.125,4.335
379.125,4.315
380.125,4.294
381.125,4.272
382.125,4.247
383.125,4.221
384.125,4.193
385.125,4.164
386.125,4.133
387.125,4.101
388.125,4.069
389.125,4.035
390.125,4.002
391.125,3.969
392.125,3.936
393.125,3.905
394.125,3.876
395.125,3.850
396.125,3.828
397.125,3.811
##END=
