##TITLE=2,3-Benzofuran
##JCAMP-DX=4.24
##DATA TYPE=UV/VIS SPECTRUM
##ORIGIN=INSTITUTE OF ENERGY PROBLEMS OF CHEMICAL PHYSICS, RAS
##OWNER=INEP CP RAS, NIST OSRD
Collection (C) 2007 copyright by the U.S. Secretary of Commerce
on behalf of the United States of America. All rights reserved.
##CAS REGISTRY NO=271-89-6
##MOLFORM=C8H6O
##BP=174
##SOURCE REFERENCE=RAS UV No. 19762
##$NIST SQUIB=1961LAN357
##$NIST SOURCE=TYUGLMTE
##SPECTROMETER/DATA SYSTEM=Beckman DU
##XUNITS=Wavelength (nm)
##YUNITS=Logarithm epsilon
##XFACTOR=1.0
##YFACTOR=1.0
##FIRSTX=212.04
##LASTX=289.7
##FIRSTY=4.062
##MAXX=289.7
##MINX=212.04
##MAXY=4.062
##MINY=1.784
##NPOINTS=125
##$REF AUTHOR=Lang (editor), L.
##$REF JOURNAL=Absorption Spectra in the Ultraviolet and Visible Region
##$REF VOLUME=2
##$REF PAGE=357
##$REF DATE=1961
##XYPOINTS=(XY..XY)
212.04,4.062
212.21,4.059
212.38,4.059
212.55,4.059
213.06,3.997
214.07,3.936
215.09,3.881
216.11,3.830
217.13,3.789
218.14,3.741
219.16,3.718
220.18,3.700
221.20,3.690
222.21,3.690
223.23,3.694
224.25,3.704
225.27,3.721
226.28,3.738
227.30,3.755
228.32,3.779
229.34,3.799
230.35,3.816
231.37,3.840
232.39,3.871
233.41,3.895
234.42,3.922
235.44,3.943
236.46,3.963
237.48,3.977
238.49,3.994
239.51,4.004
240.53,4.007
241.55,4.007
242.56,4.007
243.58,4.011
244.60,4.018
245.61,4.014
246.63,3.984
247.65,3.946
248.67,3.922
249.68,3.905
250.70,3.888
251.72,3.878
252.74,3.786
253.75,3.632
254.77,3.462
255.79,3.291
256.81,3.206
257.82,3.162
258.84,3.134
259.86,3.121
260.88,3.117
261.89,3.114
262.91,3.124
263.93,3.145
264.95,3.165
265.96,3.182
266.98,3.196
268.00,3.199
268.68,3.206
268.85,3.206
269.02,3.206
269.19,3.206
269.35,3.206
269.52,3.206
269.69,3.206
269.86,3.206
270.03,3.206
270.20,3.206
270.37,3.209
270.71,3.209
271.05,3.216
271.39,3.220
271.73,3.230
272.07,3.240
272.41,3.250
272.75,3.267
273.09,3.284
273.42,3.295
273.76,3.312
274.10,3.342
274.44,3.353
274.78,3.370
275.12,3.383
275.46,3.387
275.80,3.383
276.14,3.353
276.48,3.243
276.82,3.165
277.16,3.158
277.49,3.145
277.83,2.954
278.17,2.851
278.51,2.821
278.85,2.827
279.19,2.858
279.53,2.889
279.87,3.052
280.21,3.087
280.55,3.284
280.89,3.455
281.23,3.475
281.56,3.475
281.90,3.462
282.24,3.445
282.58,3.240
283.60,2.994
283.94,2.882
284.28,2.749
284.62,2.698
284.96,2.609
285.29,2.510
285.63,2.456
285.97,2.408
286.31,2.323
286.65,2.292
286.99,2.193
287.33,2.145
287.67,2.070
288.01,2.039
288.35,1.988
288.69,1.934
289.03,1.865
289.36,1.821
289.70,1.784
##END=
