##TITLE=N,N-diethyl-2-benzothiazole sulfenamide
##JCAMP-DX=4.24
##DATA TYPE=UV/VIS SPECTRUM
##ORIGIN=INSTITUTE OF ENERGY PROBLEMS OF CHEMICAL PHYSICS, RAS
##OWNER=INEP CP RAS, NIST OSRD
Collection (C) 2007 copyright by the U.S. Secretary of Commerce
on behalf of the United States of America. All rights reserved.
##CAS REGISTRY NO=2720-65-2
##MOLFORM=C11H14N2S2
##SOURCE REFERENCE=RAS UV No. 22223
##$NIST SQUIB=1978NIF/1473
##$NIST SOURCE=TYUGLMTE
##SPECTROMETER/DATA SYSTEM=SF-16
##XUNITS=Wavelength (nm)
##YUNITS=Logarithm epsilon
##XFACTOR=1.0
##YFACTOR=1.0
##FIRSTX=226.402
##LASTX=339.96
##FIRSTY=4.463
##MAXX=339.96
##MINX=226.402
##MAXY=4.469
##MINY=2.936
##NPOINTS=84
##$REF AUTHOR=Nifant'ev, E.E.; et al.
##$REF JOURNAL=Zhur. Obshchei. Khim.
##$REF VOLUME=48
##$REF PAGE=1473
##$REF DATE=1978
##XYPOINTS=(XY..XY)
226.402,4.463
228.907,4.469
231.412,4.463
232.803,4.443
233.917,4.420
234.751,4.397
235.586,4.374
236.421,4.349
236.978,4.323
237.813,4.297
238.648,4.275
239.483,4.249
239.761,4.223
240.318,4.197
240.875,4.172
241.710,4.149
242.266,4.123
242.823,4.098
243.380,4.072
243.936,4.046
244.215,4.020
245.050,3.998
245.328,3.972
245.885,3.946
246.441,3.921
246.998,3.895
247.833,3.869
248.111,3.843
248.668,3.818
249.225,3.792
249.781,3.766
250.616,3.744
251.451,3.721
252.008,3.695
252.843,3.672
253.678,3.646
254.791,3.624
255.626,3.598
257.018,3.578
258.688,3.558
260.915,3.547
263.419,3.544
265.924,3.547
268.151,3.555
270.378,3.567
272.604,3.575
275.109,3.578
277.614,3.569
280.119,3.561
282.068,3.547
284.294,3.535
286.521,3.521
289.026,3.512
291.531,3.504
293.757,3.492
295.984,3.478
297.932,3.464
299.602,3.447
301.272,3.429
302.942,3.410
304.891,3.395
306.839,3.378
308.787,3.361
310.457,3.341
311.849,3.321
313.241,3.298
314.076,3.275
315.189,3.252
316.581,3.232
317.694,3.210
319.085,3.187
320.477,3.164
321.869,3.141
323.260,3.121
324.652,3.101
326.044,3.081
327.714,3.061
329.384,3.044
331.054,3.024
332.724,3.004
334.672,2.987
336.342,2.970
338.012,2.953
339.960,2.936
##END=
