##TITLE=2,8-dithiadispiro[3.1.3.1]decane
##JCAMP-DX=4.24
##DATA TYPE=UV/VIS SPECTRUM
##ORIGIN=INSTITUTE OF ENERGY PROBLEMS OF CHEMICAL PHYSICS, RAS
##OWNER=INEP CP RAS, NIST OSRD
Collection (C) 2007 copyright by the U.S. Secretary of Commerce
on behalf of the United States of America. All rights reserved.
##CAS REGISTRY NO=27211-80-9
##MOLFORM=C8H12S2
##MP=49
##SOURCE REFERENCE=RAS UV No. 23534
##$NIST SQUIB=1974SEI/MIK1328
##$NIST SOURCE=TYUGLMTE
##SPECTROMETER/DATA SYSTEM=Zeiss PMQ II
##XUNITS=Wavelength (nm)
##YUNITS=Logarithm epsilon
##XFACTOR=1.0
##YFACTOR=1.0
##FIRSTX=209.028
##LASTX=323.757
##FIRSTY=2.241
##MAXX=323.757
##MINX=209.028
##MAXY=2.241
##MINY=0.259
##NPOINTS=118
##$REF AUTHOR=Seitz, G.; Mikula, W.-D.
##$REF JOURNAL=Liebigs Ann. Chem.
##$REF PAGE=1328
##$REF DATE=1974
##XYPOINTS=(XY..XY)
209.028,2.241
210.028,2.216
211.028,2.190
212.028,2.163
213.028,2.136
214.028,2.110
215.028,2.084
216.028,2.059
217.028,2.035
218.028,2.012
219.028,1.990
220.028,1.969
221.028,1.950
222.028,1.932
223.028,1.915
224.028,1.899
225.028,1.884
226.028,1.870
227.028,1.857
228.028,1.844
229.028,1.832
230.028,1.821
231.028,1.811
232.028,1.801
232.921,1.793
233.921,1.783
234.921,1.775
235.921,1.768
236.921,1.762
237.921,1.758
238.921,1.755
239.921,1.753
240.921,1.753
241.921,1.754
242.921,1.758
243.921,1.765
244.921,1.775
245.921,1.790
246.921,1.810
247.886,1.827
248.886,1.847
249.886,1.867
250.886,1.887
251.886,1.907
252.886,1.927
253.886,1.946
254.886,1.964
255.886,1.982
256.886,1.999
257.886,2.015
258.886,2.030
259.886,2.045
260.886,2.058
261.886,2.070
262.886,2.080
262.970,2.086
263.970,2.090
264.970,2.092
265.970,2.093
266.970,2.091
267.970,2.087
268.970,2.081
269.970,2.073
270.970,2.062
271.970,2.049
272.970,2.034
273.970,2.016
274.970,1.996
275.970,1.973
276.970,1.948
277.970,1.919
278.970,1.889
279.970,1.855
280.970,1.819
281.795,1.791
282.795,1.742
283.795,1.698
284.795,1.658
285.795,1.620
286.795,1.583
287.795,1.547
288.795,1.509
289.795,1.470
290.795,1.429
291.795,1.387
292.795,1.343
293.795,1.298
294.795,1.253
295.795,1.208
296.795,1.163
296.819,1.163
297.819,1.119
298.819,1.076
299.819,1.035
300.819,0.996
301.819,0.958
302.819,0.922
303.819,0.888
304.819,0.854
305.819,0.820
306.819,0.787
307.819,0.754
308.819,0.721
309.819,0.690
310.757,0.663
311.757,0.634
312.757,0.604
313.757,0.575
314.757,0.546
315.757,0.516
316.757,0.486
317.757,0.455
318.757,0.423
319.757,0.391
320.757,0.357
321.757,0.324
322.757,0.290
323.757,0.259
##END=
