##TITLE=Benzoxazole
##JCAMP-DX=4.24
##DATA TYPE=UV/VIS SPECTRUM
##ORIGIN=INSTITUTE OF ENERGY PROBLEMS OF CHEMICAL PHYSICS, RAS
##OWNER=INEP CP RAS, NIST OSRD
Collection (C) 2007 copyright by the U.S. Secretary of Commerce
on behalf of the United States of America. All rights reserved.
##CAS REGISTRY NO=273-53-0
##MOLFORM=C7H5NO
##MP=31
##BP=182.5
##SOURCE REFERENCE=RAS UV No. 3044
##$NIST SQUIB=1954PAS2256-2261
##$NIST SOURCE=TSGMTE
##SPECTROMETER/DATA SYSTEM=Beckman DU
##XUNITS=Wavelength (nm)
##YUNITS=Logarithm epsilon
##XFACTOR=1.000000
##YFACTOR=1.000000
##FIRSTX=212.2099
##LASTX=271.9386
##FIRSTY=3.83245
##MAXX=271.939
##MINX=212.21
##MAXY=3.90103
##MINY=3.12245
##NPOINTS=138
##$REF AUTHOR=Passerini, R.
##$REF TITLE=The near-ultra-violet absorption spectra of some heterocyclic compounds. Part I. Benzoxazoles
##$REF JOURNAL=J. Chem. Soc.
##$REF PAGE=2256-2261
##$REF DATE=1954
##XYPOINTS=(XY..XY)
212.2099,3.832451
213.6371,3.805804
215.0850,3.779429
216.8204,3.749604
217.0997,3.745857
217.3925,3.742041
217.6919,3.738086
217.6919,3.738086
218.1894,3.738555
218.7002,3.738886
219.2178,3.739147
219.2178,3.739147
220.3738,3.758431
221.3199,3.778465
222.2319,3.798177
223.2859,3.816495
224.6576,3.832348
224.6576,3.832348
225.3132,3.850635
226.3627,3.869129
227.7507,3.885347
229.4217,3.896808
231.3204,3.901028
231.3204,3.901028
232.8095,3.886391
234.0831,3.869353
235.1678,3.850400
236.0904,3.830012
236.8776,3.808674
237.5559,3.786867
238.1521,3.765075
238.1521,3.765075
238.3119,3.763502
238.4851,3.761860
238.6650,3.760079
238.6650,3.760079
239.1880,3.741434
239.6953,3.722838
240.1873,3.704283
240.6646,3.685765
241.1279,3.667278
241.5776,3.648817
242.0145,3.630375
242.4391,3.611948
242.8519,3.593531
243.2535,3.575116
243.6446,3.556699
244.0257,3.538274
244.3974,3.519836
244.7602,3.501379
245.1148,3.482898
245.4618,3.464387
245.8017,3.445840
246.1351,3.427252
246.4626,3.408617
246.7847,3.389931
247.1022,3.371186
247.4154,3.352378
247.7251,3.333501
248.0318,3.314550
248.3361,3.295519
248.6386,3.276402
248.9399,3.257195
249.2404,3.237890
249.5410,3.218484
249.8420,3.198970
249.8420,3.198970
250.4135,3.173586
251.1258,3.146884
252.4098,3.122448
252.4098,3.122448
254.3387,3.131260
255.4865,3.147135
256.3836,3.163790
257.5605,3.174944
257.5605,3.174944
258.0980,3.219633
258.2595,3.219614
258.4345,3.219595
258.5692,3.204628
258.6163,3.219574
259.0086,3.215860
259.2552,3.218267
259.2552,3.218267
259.9428,3.238260
260.5356,3.259885
261.0484,3.282489
261.4960,3.305426
261.5081,3.324793
261.5111,3.327478
261.5140,3.330027
261.5167,3.332507
261.8931,3.328044
262.2545,3.349694
262.5948,3.369727
262.5948,3.369727
262.9618,3.369686
263.3356,3.369643
263.7229,3.369599
263.7229,3.369599
264.0520,3.353753
264.5507,3.338094
265.7173,3.325856
265.7173,3.325856
265.9318,3.326746
266.1461,3.327568
266.3603,3.328252
266.3603,3.328252
266.7402,3.349837
267.1225,3.371396
267.5069,3.392934
267.8931,3.414453
268.2808,3.435957
268.6694,3.457450
269.0588,3.478937
269.4485,3.500419
269.4485,3.500419
269.6134,3.503475
269.7918,3.506461
269.9768,3.509309
269.9768,3.509309
270.6453,3.495166
270.9727,3.472585
271.1601,3.447416
271.4083,3.425510
271.4083,3.425510
271.4424,3.405909
271.4623,3.386327
271.4729,3.366761
271.4788,3.347210
271.4851,3.327670
271.4963,3.308139
271.5174,3.288616
271.5532,3.269096
271.6084,3.249579
271.6878,3.230061
271.7963,3.210540
271.9386,3.191013
##END=
