##TITLE=Azulene
##JCAMP-DX=4.24
##DATA TYPE=UV/VIS SPECTRUM
##ORIGIN=INSTITUTE OF ENERGY PROBLEMS OF CHEMICAL PHYSICS, RAS
##OWNER=INEP CP RAS, NIST OSRD
Collection (C) 2007 copyright by the U.S. Secretary of Commerce
on behalf of the United States of America. All rights reserved.
##CAS REGISTRY NO=275-51-4
##MOLFORM=C10H8
##MP=99
##BP=270; 125(10)
##SOURCE REFERENCE=RAS UV No. 3172
##$NIST SQUIB=1962NOZ/SET1179-1188
##$NIST SOURCE=TSGMTE
##SPECTROMETER/DATA SYSTEM=n.i.g.
##XUNITS=Wavelength (nm)
##YUNITS=Logarithm epsilon
##XFACTOR=1.000000
##YFACTOR=1.000000
##FIRSTX=226.7009
##LASTX=359.0175
##FIRSTY=4.17029
##MAXX=359.017
##MINX=226.701
##MAXY=4.76051
##MINY=2.36032
##NPOINTS=304
##$REF AUTHOR=Nozoe, T.; Seto, S.; Matsumura, S.; Murase, Y.
##$REF TITLE=The synthesis of azulene derivatives from troponoids
##$REF JOURNAL=Bull. Chem. Soc. Jpn.
##$REF VOLUME=35
##$REF NUMBER=7
##$REF PAGE=1179-1188
##$REF DATE=1962
##XYPOINTS=(XY..XY)
226.7009,4.170286
227.0836,4.173919
227.4836,4.177471
227.8925,4.180850
231.1735,4.208530
231.4844,4.210586
231.8123,4.212648
232.1487,4.214713
236.8843,4.228329
237.0766,4.227880
237.2694,4.227257
237.4625,4.226547
241.3661,4.185001
242.1377,4.175158
242.7154,4.170659
243.5944,4.167647
243.5944,4.167647
244.5303,4.150025
245.2227,4.140173
246.2651,4.129643
246.6850,4.129773
247.8654,4.133506
248.8791,4.139106
250.5950,4.151371
256.2229,4.264877
256.4494,4.269653
256.6930,4.274435
256.9450,4.279219
258.7423,4.349276
258.7523,4.340564
258.8387,4.353576
259.1240,4.357150
260.5045,4.420718
260.7537,4.426953
261.0034,4.433015
261.2534,4.438989
262.2820,4.492251
262.5289,4.499270
262.7763,4.506115
263.0240,4.512873
264.0537,4.565743
264.2969,4.574040
264.5403,4.582249
264.7842,4.590284
265.6518,4.633299
265.8243,4.639613
265.9972,4.645840
266.1705,4.651892
267.8281,4.699073
267.8638,4.703790
267.9165,4.708512
267.9777,4.713237
270.2690,4.752770
271.0420,4.758891
271.6330,4.760511
272.8091,4.759435
272.8091,4.759435
272.8666,4.756707
272.9411,4.753985
273.0240,4.751265
275.1153,4.715436
276.0799,4.706858
276.7990,4.698031
277.1952,4.683526
277.1952,4.683526
277.5783,4.683644
277.9698,4.683764
278.3784,4.683890
278.3784,4.683890
278.4416,4.679203
278.5218,4.674522
278.6105,4.669843
280.4811,4.644143
280.5364,4.642184
280.6089,4.640144
280.6903,4.637932
281.7835,4.603757
281.8067,4.595804
281.8305,4.587677
281.8545,4.579463
281.9610,4.543023
282.0200,4.539787
282.0965,4.536383
282.1817,4.532894
282.5596,4.482026
282.6892,4.477360
282.8274,4.472696
282.9825,4.468038
283.5742,4.409392
283.5937,4.402716
283.6135,4.395954
283.6337,4.389017
283.9964,4.330300
284.0321,4.335018
284.0848,4.339740
284.1460,4.344465
284.7774,4.259163
284.7889,4.255230
284.8006,4.251211
284.8129,4.247016
284.9790,4.190201
284.9942,4.184991
285.0099,4.179607
285.0259,4.174135
285.6004,4.121367
285.6199,4.114692
285.6397,4.107929
285.6600,4.100992
286.2078,4.044294
286.2310,4.036341
286.2548,4.028214
286.2788,4.020000
286.8407,3.971542
286.8602,3.964867
286.8799,3.958104
286.9002,3.951167
287.0308,3.906498
287.2434,3.899112
287.4560,3.891726
287.6381,3.829424
287.6656,3.820021
287.6686,3.884340
287.6931,3.810617
287.7206,3.801213
288.7237,3.732497
288.8592,3.725857
289.0033,3.719133
289.1650,3.712239
290.5498,3.643641
290.6077,3.629148
290.7353,3.622782
291.0418,3.619085
292.3671,3.570862
292.6975,3.566258
293.0449,3.561658
293.4007,3.557062
295.6771,3.523251
295.7324,3.521292
295.8049,3.519252
295.8863,3.517040
300.2426,3.451318
300.2747,3.445649
300.3928,3.442533
300.6979,3.439301
301.6148,3.387031
301.6781,3.382329
301.7586,3.377546
301.8480,3.372592
303.0974,3.298069
303.1169,3.291393
303.1367,3.284631
303.1569,3.277694
304.0864,3.221113
304.1059,3.214437
304.1257,3.207675
304.1460,3.200738
305.5220,3.148217
305.5673,3.142406
305.7774,3.138302
306.3323,3.132387
308.3354,3.126729
308.5881,3.131789
308.8412,3.136675
309.0946,3.141473
310.9545,3.184795
311.2080,3.189579
311.4614,3.194363
311.7148,3.199148
313.9565,3.242586
314.0624,3.246033
314.1773,3.249307
314.3095,3.252500
316.7675,3.300319
316.9461,3.305081
317.1330,3.309844
317.3370,3.314613
319.9431,3.364047
320.0567,3.368280
320.1877,3.372344
320.3275,3.376323
321.9229,3.431721
321.9927,3.433980
322.0630,3.436064
322.1336,3.438061
324.1912,3.479090
324.3778,3.480600
324.5649,3.481936
324.7523,3.483185
327.5020,3.496582
327.8201,3.496171
328.1557,3.495592
328.5001,3.494928
330.9990,3.515700
331.2559,3.519294
331.5131,3.522801
331.7708,3.526134
334.0391,3.573503
334.2657,3.578279
334.5092,3.583060
334.7612,3.587844
336.6154,3.633125
337.2497,3.638811
337.8924,3.644499
338.5521,3.650193
340.9567,3.650934
341.1613,3.646291
341.3659,3.641647
341.5705,3.637004
343.1557,3.578272
343.1709,3.573063
343.1867,3.567678
343.2027,3.562207
343.3218,3.521457
343.4690,3.510797
343.6252,3.499965
343.7986,3.489052
344.7181,3.448940
344.7341,3.443455
344.7502,3.437969
344.7662,3.432483
345.6475,3.392360
345.7135,3.375109
345.8441,3.367727
346.1510,3.363885
346.2575,3.327445
346.2770,3.320769
346.2968,3.314006
346.3171,3.307069
346.8523,3.254681
346.9956,3.248727
347.0779,3.177490
347.0974,3.170815
347.1172,3.164052
347.1375,3.157115
347.1564,3.242603
347.3150,3.096381
347.3260,3.236395
347.4721,3.085724
347.6466,3.074898
347.8299,3.063988
348.3167,2.897459
348.3903,3.002980
348.4055,2.997770
348.4086,2.905709
348.4213,2.992386
348.4373,2.986915
348.5093,2.913874
348.6274,2.921870
348.6375,2.787746
348.6679,2.842661
348.7071,2.846188
348.7636,2.849634
348.7751,2.780337
348.8290,2.852908
348.9213,2.772930
349.0647,2.641592
349.0727,2.638849
349.0807,2.636106
349.0844,2.765529
349.0887,2.633364
349.2803,2.698525
349.5467,2.690168
349.8652,2.681391
350.1769,2.666250
350.4750,2.694972
350.4830,2.692229
350.4910,2.689486
350.4990,2.686743
351.1815,2.727741
351.2851,2.731971
351.3978,2.736029
351.5276,2.740005
352.5803,2.785039
352.7227,2.795395
353.0209,2.801791
353.7307,2.809709
353.7547,2.801480
353.8802,2.798265
354.0146,2.794878
354.1662,2.791410
355.0686,2.757176
355.0960,2.747772
355.1235,2.738368
355.1510,2.728964
355.6759,2.680102
355.8189,2.674249
355.9792,2.668314
356.1484,2.662207
356.3202,2.603432
356.3915,2.596003
356.4797,2.588578
356.5764,2.581156
356.9516,2.518130
357.2441,2.509578
357.5367,2.500938
357.8299,2.492124
357.9788,2.441186
358.0501,2.433756
358.1383,2.426332
358.2350,2.418910
358.9820,2.372470
358.9935,2.368538
359.0052,2.364518
359.0175,2.360324
##END=
