##TITLE=1,1'-(1,9-nonanediyl)bis[3,4-dichloro-1H-pyrrole-2,5-dione]
##JCAMP-DX=4.24
##DATA TYPE=UV/VIS SPECTRUM
##ORIGIN=INSTITUTE OF ENERGY PROBLEMS OF CHEMICAL PHYSICS, RAS
##OWNER=INEP CP RAS, NIST OSRD
Collection (C) 2007 copyright by the U.S. Secretary of Commerce
on behalf of the United States of America. All rights reserved.
##CAS REGISTRY NO=27692-46-2
##MOLFORM=C17H18Cl4N2O4
##SOURCE REFERENCE=RAS UV No. 23873
##$NIST SQUIB=1974SCH/399
##$NIST SOURCE=TYUGLMTE
##SPECTROMETER/DATA SYSTEM=Perkin-Elmer 124
##XUNITS=Wavelength (nm)
##YUNITS=Logarithm epsilon
##XFACTOR=1.0
##YFACTOR=1.0
##FIRSTX=240.344
##LASTX=374.354
##FIRSTY=2.569
##MAXX=374.354
##MINX=240.344
##MAXY=2.569
##MINY=0.902
##NPOINTS=118
##$REF AUTHOR=De Schryver, F.C.; et al.
##$REF JOURNAL=Macromolecules
##$REF VOLUME=7
##$REF PAGE=399
##$REF DATE=1974
##XYPOINTS=(XY..XY)
240.344,2.569
241.344,2.504
241.997,2.453
242.997,2.390
243.997,2.343
244.997,2.315
245.997,2.305
246.997,2.309
247.092,2.310
248.092,2.318
249.092,2.327
250.092,2.336
251.092,2.347
252.092,2.357
253.092,2.368
254.092,2.378
255.092,2.388
256.092,2.398
257.092,2.407
258.092,2.416
259.092,2.424
260.092,2.432
261.092,2.440
262.092,2.447
263.092,2.454
264.092,2.461
265.092,2.468
266.092,2.474
267.092,2.480
268.092,2.487
269.092,2.493
270.092,2.499
271.092,2.505
272.092,2.510
273.092,2.515
274.092,2.520
274.953,2.521
275.953,2.526
276.953,2.530
277.953,2.534
278.953,2.538
279.953,2.541
280.953,2.544
281.953,2.547
282.953,2.549
283.953,2.551
284.953,2.553
285.953,2.555
286.953,2.556
287.953,2.557
288.953,2.558
289.953,2.559
290.953,2.560
291.953,2.560
292.953,2.561
293.953,2.561
294.953,2.561
295.953,2.561
296.953,2.561
297.953,2.561
298.953,2.561
299.953,2.560
300.953,2.560
301.953,2.558
302.953,2.557
303.684,2.555
304.684,2.552
305.684,2.549
306.684,2.546
307.684,2.542
308.684,2.537
309.684,2.533
310.684,2.528
311.684,2.523
312.684,2.517
313.684,2.512
314.684,2.506
315.684,2.500
316.684,2.493
317.684,2.486
318.684,2.479
319.684,2.471
320.684,2.463
321.684,2.454
322.684,2.444
323.684,2.434
324.362,2.423
325.362,2.414
326.362,2.403
327.362,2.391
328.362,2.378
329.362,2.364
330.362,2.348
331.362,2.332
332.362,2.315
333.362,2.296
334.362,2.277
335.362,2.256
336.362,2.235
337.362,2.214
338.362,2.192
339.362,2.169
340.362,2.147
341.362,2.125
342.362,2.104
342.429,2.103
343.429,2.082
344.429,2.060
345.429,2.037
346.429,2.013
347.429,1.988
348.429,1.961
349.429,1.933
350.429,1.904
351.429,1.873
372.354,1.013
373.354,0.952
374.354,0.902
##END=
