##TITLE=2-Amino-3-chloro-1,4-naphthoquinone
##JCAMP-DX=4.24
##DATA TYPE=UV/VIS SPECTRUM
##ORIGIN=INSTITUTE OF ENERGY PROBLEMS OF CHEMICAL PHYSICS, RAS
##OWNER=INEP CP RAS, NIST OSRD
Collection (C) 2007 copyright by the U.S. Secretary of Commerce
on behalf of the United States of America. All rights reserved.
##CAS REGISTRY NO=2797-51-5
##MOLFORM=C10H6ClNO2
##MP=193
##SOURCE REFERENCE=RAS UV No. 18947
##$NIST SQUIB=1976KOP22
##$NIST SOURCE=TYUGLMTE
##SPECTROMETER/DATA SYSTEM=SF-16
##XUNITS=Wavelength (nm)
##YUNITS=Logarithm epsilon
##XFACTOR=1.0
##YFACTOR=1.0
##FIRSTX=202.15
##LASTX=559.3
##FIRSTY=4.048
##MAXX=559.3
##MINX=202.15
##MAXY=4.341
##MINY=2.046
##NPOINTS=175
##$REF AUTHOR=(editor), Koptyug V.A.
##$REF JOURNAL=Atlas of Spectra of Aromatic and Heterocyclic Compounds
##$REF VOLUME=10
##$REF PAGE=22
##$REF DATE=1976
##XYPOINTS=(XY..XY)
202.15,4.048
202.69,4.048
203.23,4.054
203.77,4.054
204.30,4.059
204.84,4.059
205.38,4.064
205.92,4.064
206.45,4.070
206.99,4.070
207.53,4.075
208.61,4.080
210.76,4.102
212.91,4.112
215.06,4.128
217.21,4.133
219.36,4.128
221.52,4.128
223.67,4.123
225.82,4.123
227.97,4.118
230.12,4.118
232.27,4.102
234.42,4.075
236.58,4.033
238.73,3.990
240.88,3.948
243.03,3.916
245.18,3.910
247.33,3.932
249.48,3.974
251.64,4.038
253.79,4.096
255.94,4.165
258.09,4.224
260.24,4.266
262.39,4.298
264.55,4.319
266.70,4.335
268.85,4.341
271.00,4.303
273.15,4.256
275.30,4.218
277.45,4.171
279.61,4.133
281.76,4.102
283.91,4.075
286.06,4.054
288.21,4.033
290.36,4.011
292.52,3.990
294.67,3.953
296.82,3.905
298.97,3.825
301.12,3.735
303.27,3.592
305.42,3.485
307.58,3.427
309.73,3.406
311.88,3.358
314.03,3.321
316.18,3.305
318.33,3.305
320.48,3.315
322.64,3.321
324.79,3.326
326.94,3.331
329.09,3.347
331.24,3.353
333.39,3.353
335.55,3.347
337.70,3.337
339.85,3.321
342.00,3.300
344.15,3.273
346.30,3.236
348.45,3.220
350.61,3.172
352.76,3.119
354.91,3.050
357.06,2.981
359.21,2.917
361.36,2.859
363.52,2.827
365.67,2.811
367.82,2.806
369.97,2.806
372.12,2.806
374.27,2.827
376.42,2.853
378.58,2.891
380.73,2.917
382.88,2.933
385.03,2.944
387.18,2.981
389.33,3.013
391.48,3.039
393.64,3.066
395.79,3.092
397.94,3.114
400.09,3.135
402.24,3.156
404.39,3.177
406.55,3.193
408.70,3.215
410.85,3.236
413.00,3.246
415.15,3.262
417.30,3.284
419.45,3.305
421.61,3.315
423.76,3.331
425.91,3.342
428.06,3.363
430.21,3.369
432.36,3.379
434.52,3.390
436.67,3.400
438.82,3.406
440.97,3.411
443.12,3.422
445.27,3.427
447.42,3.432
449.58,3.432
451.73,3.432
453.88,3.438
456.03,3.438
458.18,3.438
460.33,3.432
462.48,3.427
464.64,3.411
466.79,3.406
468.94,3.395
471.09,3.379
473.24,3.374
475.39,3.358
477.55,3.347
479.70,3.326
481.85,3.310
484.00,3.294
486.15,3.273
488.30,3.257
490.45,3.230
492.61,3.204
494.76,3.183
496.91,3.156
499.06,3.135
501.21,3.103
503.36,3.076
505.52,3.045
507.67,3.002
509.82,2.970
511.97,2.933
514.12,2.880
516.27,2.843
518.42,2.800
520.58,2.768
522.73,2.721
524.88,2.678
527.03,2.673
529.18,2.614
531.33,2.566
533.48,2.513
535.64,2.476
537.79,2.439
539.94,2.396
542.09,2.354
544.24,2.306
546.39,2.280
548.55,2.242
550.70,2.205
552.85,2.152
555.00,2.120
557.15,2.078
559.30,2.046
##END=
