##TITLE=2-Aminobenzophenone
##JCAMP-DX=4.24
##DATA TYPE=UV/VIS SPECTRUM
##ORIGIN=INSTITUTE OF ENERGY PROBLEMS OF CHEMICAL PHYSICS, RAS
##OWNER=INEP CP RAS, NIST OSRD
Collection (C) 2007 copyright by the U.S. Secretary of Commerce
on behalf of the United States of America. All rights reserved.
##CAS REGISTRY NO=2835-77-0
##MOLFORM=C13H11NO
##MP=110.5
##SOURCE REFERENCE=RAS UV No. 1069
##$NIST SQUIB=1953GRA93-99
##$NIST SOURCE=TSGMTE
##SPECTROMETER/DATA SYSTEM=n.i.g.
##XUNITS=Wavelength (nm)
##YUNITS=Logarithm epsilon
##XFACTOR=1.000000
##YFACTOR=1.000000
##FIRSTX=393.0323
##LASTX=226.4796
##FIRSTY=1.11826
##MAXX=393.032
##MINX=226.48
##MAXY=4.73912
##MINY=1.11826
##NPOINTS=205
##$REF AUTHOR=Grammaticakis, P.
##$REF TITLE=Contribution a l'etude de l'absorption dans l'ultra-violet moyen et le visible des arylamines isomeres et leurs derives N substitues (3^e memoire)
##$REF JOURNAL=Bull. Soc. Chim. Fr.
##$REF VOLUME=20
##$REF PAGE=93-99
##$REF DATE=1953
##XYPOINTS=(XY..XY)
393.0323,1.118261
391.5181,1.149191
390.0583,1.180367
388.6510,1.211780
387.2943,1.243420
385.9866,1.275279
384.7262,1.307344
383.5115,1.339606
382.3409,1.372055
381.2129,1.404682
380.1262,1.437475
379.0792,1.470425
378.0707,1.503521
377.0994,1.536753
376.1639,1.570112
375.2631,1.603587
374.3957,1.637167
373.5606,1.670844
372.7567,1.704607
371.9829,1.738445
371.2381,1.772349
370.5213,1.806308
369.8314,1.840313
369.1674,1.874353
368.5284,1.908418
367.9134,1.942498
367.3215,1.976583
366.7519,2.010662
366.2035,2.044726
365.6755,2.078765
365.1671,2.112768
364.6773,2.146726
364.2054,2.180627
363.7506,2.214462
363.3120,2.248222
362.8888,2.281895
362.4803,2.315472
362.4803,2.315472
362.2348,2.349954
361.9837,2.384432
361.7258,2.418903
361.4599,2.453362
361.1849,2.487806
360.8997,2.522231
360.6032,2.556632
360.2943,2.591005
359.9719,2.625347
359.6351,2.659653
359.2826,2.693920
358.9134,2.728142
358.5267,2.762316
358.1211,2.796438
357.6959,2.830504
357.2500,2.864510
356.7824,2.898451
356.2922,2.932324
355.7785,2.966125
355.2403,2.999849
354.6768,3.033493
354.0871,3.067051
353.4704,3.100522
352.8258,3.133899
352.1526,3.167179
351.4501,3.200359
350.7174,3.233433
349.9539,3.266398
349.1590,3.299250
348.3320,3.331985
347.4724,3.364599
346.5795,3.397087
345.6530,3.429445
344.6922,3.461670
343.6968,3.493758
342.6663,3.525703
341.6005,3.557503
340.4990,3.589153
340.4990,3.589153
338.3757,3.626904
336.2673,3.660557
334.0787,3.690198
331.7197,3.715912
329.1057,3.737786
326.1590,3.755906
326.1590,3.755906
321.5167,3.760064
319.7423,3.762957
319.2274,3.767062
319.2274,3.767062
316.9609,3.762699
314.7111,3.758331
312.5014,3.743144
312.5014,3.743144
312.4962,3.746749
312.4909,3.750355
312.4856,3.753961
312.4856,3.753961
310.0131,3.730247
307.8012,3.712079
305.8007,3.689514
303.9503,3.663424
302.1924,3.634683
300.4717,3.604162
298.7358,3.572737
298.7358,3.572737
297.8972,3.544264
296.5883,3.513319
295.0566,3.488354
295.0566,3.488354
293.7296,3.452083
292.4000,3.415678
291.0976,3.378764
289.8512,3.340965
288.6887,3.301908
287.6371,3.261217
287.6371,3.261217
286.3218,3.228363
285.8435,3.213602
285.7842,3.204281
285.7842,3.204281
285.5877,3.204200
285.3915,3.204119
285.1956,3.204038
285.1956,3.204038
285.0685,3.193525
284.9419,3.182783
284.8155,3.171927
284.8155,3.171927
281.8194,3.092364
279.9975,3.043536
278.9867,3.017092
278.4527,3.004681
278.0737,2.997952
278.0737,2.997952
277.7206,2.997798
277.3566,2.997638
276.9877,2.997476
276.9877,2.997476
276.0166,3.033452
275.2545,3.072853
274.6458,3.114267
274.1359,3.156283
273.6718,3.197489
273.2010,3.236471
273.2010,3.236471
272.1972,3.270386
271.7814,3.312489
271.4343,3.353658
270.6449,3.384766
270.6449,3.384766
270.1341,3.421215
269.5920,3.457071
269.0220,3.492403
268.4272,3.527283
267.8109,3.561778
267.1761,3.595961
266.5260,3.629900
265.8636,3.663667
265.1919,3.697331
264.5139,3.730961
263.8323,3.764629
263.1501,3.798404
262.4699,3.832357
261.7946,3.866557
261.7946,3.866557
260.9997,3.885081
260.2099,3.903376
259.4250,3.921557
259.4250,3.921557
257.9797,3.940953
256.5471,3.959484
255.1289,3.977335
253.7265,3.994688
252.3413,4.011728
250.9749,4.028636
249.6283,4.045597
248.3029,4.062793
246.9999,4.080408
245.7203,4.098625
244.4653,4.117627
243.2358,4.137597
242.0329,4.158720
240.8575,4.181177
239.7105,4.205152
239.7105,4.205152
238.8007,4.234660
237.9042,4.264033
237.0246,4.293381
236.1654,4.322815
235.3302,4.352445
234.5221,4.382382
233.7445,4.412737
233.0005,4.443619
232.2933,4.475139
231.6258,4.507409
231.6258,4.507409
231.2671,4.517987
230.9096,4.528451
230.5534,4.538686
230.5534,4.538686
230.0252,4.575725
229.2801,4.608385
228.4377,4.638861
227.6149,4.669346
226.9252,4.702032
226.4796,4.739115
##END=
