##TITLE=3-Aminobenzophenone
##JCAMP-DX=4.24
##DATA TYPE=UV/VIS SPECTRUM
##ORIGIN=INSTITUTE OF ENERGY PROBLEMS OF CHEMICAL PHYSICS, RAS
##OWNER=INEP CP RAS, NIST OSRD
Collection (C) 2007 copyright by the U.S. Secretary of Commerce
on behalf of the United States of America. All rights reserved.
##CAS REGISTRY NO=2835-78-1
##MOLFORM=C13H11NO
##MP=87
##SOURCE REFERENCE=RAS UV No. 1070
##$NIST SQUIB=1953GRA93-99
##$NIST SOURCE=TSGMTE
##SPECTROMETER/DATA SYSTEM=n.i.g.
##XUNITS=Wavelength (nm)
##YUNITS=Logarithm epsilon
##XFACTOR=1.000000
##YFACTOR=1.000000
##FIRSTX=415.5147
##LASTX=231.4890
##FIRSTY=1.00812
##MAXX=415.515
##MINX=231.489
##MAXY=4.3255
##MINY=1.00812
##NPOINTS=164
##$REF AUTHOR=Grammaticakis, P.
##$REF TITLE=Contribution a l'etude de l'absorption dans l'ultra-violet moyen et le visible des arylamines isomeres et leurs derives N substitues (3^e memoire)
##$REF JOURNAL=Bull. Soc. Chim. Fr.
##$REF VOLUME=20
##$REF PAGE=93-99
##$REF DATE=1953
##XYPOINTS=(XY..XY)
415.5147,1.008115
414.8169,1.009939
414.1217,1.011537
413.4290,1.013023
411.9706,1.239952
411.5578,1.252134
411.1458,1.264317
410.7346,1.276499
408.1798,1.495691
407.9864,1.503669
407.7686,1.511418
407.5387,1.519052
403.6000,1.732514
403.5165,1.744196
403.4087,1.755764
403.2891,1.767103
398.3471,1.943297
397.3785,1.970055
397.1361,2.032784
397.1361,2.032784
397.0768,2.004909
395.9624,2.040684
395.4508,2.046838
395.1585,2.056521
390.6665,2.235285
390.5016,2.244282
390.3257,2.253051
390.1273,2.261705
384.1669,2.477472
383.8094,2.488108
383.4527,2.498630
383.0968,2.508927
376.3447,2.724587
375.9344,2.731840
375.5428,2.742489
374.8441,2.756500
372.8263,2.803628
372.4994,2.803592
372.1730,2.803556
371.8472,2.803521
371.8472,2.803521
371.8390,2.812533
371.8310,2.821319
371.8230,2.829992
370.8668,2.861451
370.5432,2.861415
370.2203,2.861380
369.8979,2.861344
351.4714,3.186553
351.1808,3.186517
350.8907,3.186482
350.6011,3.186446
350.6011,3.186446
350.5982,3.190009
350.5953,3.193573
350.5924,3.197136
345.7038,3.243872
344.5078,3.249735
344.0189,3.253765
343.8127,3.259414
326.9192,3.252048
326.3814,3.249407
325.8375,3.246652
325.2798,3.243669
325.2798,3.243669
325.2129,3.237550
325.1461,3.231431
325.0792,3.225312
317.6138,3.070977
317.0369,3.070890
316.4545,3.070803
315.8698,3.054932
315.8698,3.054932
315.8662,3.060381
315.8627,3.065603
315.8594,3.070712
315.8594,3.070712
315.1051,3.048744
314.4646,3.039067
313.8182,3.031200
313.4824,3.038785
313.4419,3.035215
313.3867,3.031642
313.3241,3.028069
309.1031,3.006536
308.3615,3.002025
307.7730,2.995954
307.2973,2.982320
298.8762,2.809364
298.6660,2.809329
298.4562,2.809293
298.2466,2.809257
298.2466,2.809257
298.2434,2.814706
298.2403,2.819929
298.2373,2.825038
292.8768,2.644904
292.7876,2.634556
292.6858,2.623979
292.5777,2.613287
292.5777,2.613287
292.3394,2.612585
292.0889,2.611654
291.8325,2.610609
291.8325,2.610609
291.5502,2.601886
291.2621,2.593048
290.9621,2.583981
289.9862,2.501840
289.7026,2.501789
289.4133,2.501737
289.1121,2.501682
284.8575,2.379224
284.7690,2.376662
284.6683,2.374098
284.5617,2.371533
277.0727,2.493807
277.0681,2.502819
277.0636,2.511605
277.0592,2.520278
272.8636,2.978650
272.7788,2.996433
272.6886,3.014101
272.5874,3.031541
272.3248,3.057960
272.0544,3.089885
271.8356,3.119217
271.2402,3.142249
268.0770,3.363051
267.9678,3.385636
267.8375,3.396564
267.5745,3.405201
265.5267,3.542223
265.5136,3.549592
265.4441,3.553670
265.2588,3.557948
264.6388,3.571051
264.1874,3.614981
263.2540,3.660955
262.4063,3.702422
262.4063,3.702422
262.1274,3.703360
261.8441,3.704184
261.5512,3.704779
260.7088,3.741757
260.3572,3.747128
259.9965,3.752270
259.6318,3.757298
250.0349,3.936810
249.6738,3.944850
249.3092,3.952775
248.9365,3.960471
247.5383,3.984056
247.2886,3.988557
247.0350,3.992944
246.7728,3.997103
242.5475,4.143674
242.1328,4.143567
241.7194,4.143461
241.3075,4.143354
231.4946,4.309717
231.4927,4.315166
231.4908,4.320389
231.4890,4.325498
##END=
