##TITLE=3-Chloroanisole
##JCAMP-DX=4.24
##DATA TYPE=UV/VIS SPECTRUM
##ORIGIN=INSTITUTE OF ENERGY PROBLEMS OF CHEMICAL PHYSICS, RAS
##OWNER=INEP CP RAS, NIST OSRD
Collection (C) 2007 copyright by the U.S. Secretary of Commerce
on behalf of the United States of America. All rights reserved.
##CAS REGISTRY NO=2845-89-8
##MOLFORM=C7H7ClO
##BP=193.5
##SOURCE REFERENCE=RAS UV No. 5261
##$NIST SQUIB=1952BUR/CHA2310-2316
##$NIST SOURCE=TSGMTE
##SPECTROMETER/DATA SYSTEM=Hilger spectrophotometer
##XUNITS=Wavelength (nm)
##YUNITS=Logarithm epsilon
##XFACTOR=1.000000
##YFACTOR=1.000000
##FIRSTX=275.2746
##LASTX=294.0243
##FIRSTY=2.74186
##MAXX=294.024
##MINX=275.275
##MAXY=2.94791
##MINY=2.46067
##NPOINTS=200
##$REF AUTHOR=Burawoy, A.; Chamberlain, J.T.
##$REF TITLE=Effect of methylation on the light absorption of phenols. Part I.
##$REF JOURNAL=J. Chem. Soc.
##$REF PAGE=2310-2316
##$REF DATE=1952
##XYPOINTS=(XY..XY)
275.2746,2.741856
275.5257,2.761944
275.6072,2.762037
275.6876,2.768273
275.7679,2.774420
275.7691,2.768364
275.9412,2.774612
276.0214,2.781411
276.1131,2.781511
276.1934,2.787475
276.2738,2.793358
276.2750,2.787562
276.3655,2.793455
276.6967,2.817590
276.7771,2.823082
276.7783,2.817672
276.8574,2.828505
276.8586,2.823162
276.9491,2.828594
277.1097,2.839886
277.2002,2.845114
277.2014,2.839973
277.2805,2.850270
277.2817,2.845191
277.4524,2.856073
277.4538,2.850431
277.5328,2.861102
277.5340,2.856148
277.6131,2.866073
277.6143,2.861176
277.6933,2.871589
277.6946,2.866146
277.7838,2.876451
277.7850,2.871670
277.9457,2.881321
277.9469,2.876594
278.0362,2.886076
278.0374,2.881400
278.1164,2.891345
278.1178,2.886145
278.2885,2.896060
278.2897,2.891491
278.3688,2.900649
278.3700,2.896128
278.4503,2.900716
278.5407,2.905820
278.6210,2.910307
278.6223,2.905887
278.7026,2.910373
278.8733,2.919756
278.9549,2.919820
279.0352,2.924166
279.1269,2.924237
279.2073,2.928539
279.2888,2.928602
279.3792,2.933391
279.4607,2.933453
279.5411,2.937665
279.7132,2.941905
279.7144,2.937797
280.5593,2.942541
280.6420,2.938501
280.8969,2.938694
280.9797,2.934617
281.2345,2.934812
281.2359,2.930110
281.4092,2.930244
281.4104,2.926023
281.5837,2.926158
281.5850,2.921897
281.6665,2.921961
281.7494,2.917182
281.8310,2.917247
281.8322,2.912897
281.9240,2.912971
281.9252,2.908578
282.0067,2.908644
282.0081,2.903649
282.0897,2.903716
282.1826,2.899303
282.2642,2.899371
282.2654,2.894837
282.3470,2.894906
282.3484,2.889749
282.4401,2.889826
282.4413,2.885191
282.5229,2.885261
282.6986,2.875993
282.7000,2.870606
282.7816,2.870678
283.0402,2.855588
283.1218,2.855663
283.2046,2.850722
283.2963,2.850807
283.3791,2.845810
283.4606,2.845887
283.4620,2.840109
283.6353,2.840274
283.7181,2.835154
283.8099,2.835242
283.8926,2.830062
283.9742,2.830141
284.0570,2.824900
284.6584,2.825492
284.7413,2.819516
284.9962,2.819770
285.1567,2.831290
285.3288,2.836700
285.3300,2.831459
285.5021,2.836866
285.6614,2.852995
285.6626,2.847948
285.7519,2.858069
285.7531,2.853080
285.8309,2.868556
285.8321,2.863687
285.9098,2.878796
285.9124,2.868629
286.1596,2.898090
286.1610,2.892971
286.2399,2.902657
286.2412,2.898157
286.3305,2.907185
286.3317,2.902732
286.9127,2.939132
286.9930,2.943289
286.9943,2.939193
287.3295,2.943541
287.4200,2.947664
287.7564,2.947914
287.8392,2.943923
288.0940,2.944114
288.3527,2.931406
288.4343,2.931469
288.6929,2.918380
288.7847,2.918452
288.9504,2.909314
288.9516,2.904884
289.0344,2.900475
289.1261,2.900551
289.1275,2.895461
289.2091,2.895529
289.2103,2.890955
289.2918,2.891024
289.2931,2.886402
289.5517,2.871857
289.5530,2.867025
289.6447,2.867107
289.6461,2.861607
289.9875,2.841143
289.9888,2.835954
290.2474,2.819584
290.2487,2.814130
290.4144,2.802477
290.4156,2.796803
290.5073,2.796899
290.5087,2.790427
290.6743,2.778856
290.6757,2.772107
290.7674,2.772209
290.7686,2.766123
290.8514,2.760042
290.8526,2.753781
290.9356,2.746724
290.9368,2.740267
291.0285,2.740376
291.0298,2.733823
291.1113,2.733922
291.1139,2.719662
291.2796,2.705130
291.2808,2.698018
291.3726,2.698139
291.3738,2.690911
291.4554,2.691020
291.4567,2.682744
291.5383,2.682856
291.5395,2.675366
291.7982,2.651467
291.7994,2.643411
291.8924,2.635343
291.9739,2.635467
292.3983,2.590364
292.4901,2.590519
292.4913,2.581237
292.5729,2.581377
292.5742,2.570695
292.7475,2.571001
292.7488,2.561287
292.8303,2.561434
292.9131,2.551652
293.0048,2.551821
293.2533,2.519741
293.3451,2.519924
293.4278,2.509148
293.5094,2.509314
293.6853,2.485496
293.7669,2.485672
293.8598,2.474022
293.9414,2.474202
294.0243,2.460668
##END=
