##TITLE=9-nitrodibenzo[c,e][1,2]dithiin-2-amine
##JCAMP-DX=4.24
##DATA TYPE=UV/VIS SPECTRUM
##ORIGIN=INSTITUTE OF ENERGY PROBLEMS OF CHEMICAL PHYSICS, RAS
##OWNER=INEP CP RAS, NIST OSRD
Collection (C) 2007 copyright by the U.S. Secretary of Commerce
on behalf of the United States of America. All rights reserved.
##CAS REGISTRY NO=28534-21-6
##MOLFORM=C12H8N2O2S2
##MP=243.5-245
##SOURCE REFERENCE=RAS UV No. 23431
##$NIST SQUIB=1975ZHE/1304
##$NIST SOURCE=TYUGLMTE
##SPECTROMETER/DATA SYSTEM=SFD-2
##XUNITS=Wavelength (nm)
##YUNITS=Logarithm epsilon
##XFACTOR=1.0
##YFACTOR=1.0
##FIRSTX=209.982
##LASTX=480.736
##FIRSTY=4.281
##MAXX=480.736
##MINX=209.982
##MAXY=4.361
##MINY=2.12
##NPOINTS=274
##$REF AUTHOR=Zheltov, A.Ya.; et al.
##$REF JOURNAL=Zhur. Organ. Khim.
##$REF VOLUME=11
##$REF PAGE=1304
##$REF DATE=1975
##XYPOINTS=(XY..XY)
209.982,4.281
210.508,4.281
210.834,4.284
211.834,4.268
212.834,4.256
213.834,4.248
214.834,4.242
215.834,4.239
216.834,4.236
217.834,4.234
218.834,4.232
219.834,4.230
220.834,4.228
221.834,4.226
222.834,4.223
223.834,4.220
224.834,4.216
225.834,4.212
226.834,4.209
227.834,4.205
228.834,4.201
229.834,4.198
230.834,4.195
231.834,4.194
232.834,4.193
233.834,4.193
234.834,4.194
235.834,4.196
236.834,4.199
237.834,4.204
238.834,4.210
239.834,4.217
240.834,4.225
241.834,4.234
242.834,4.244
243.834,4.255
244.834,4.266
245.834,4.278
246.834,4.289
247.834,4.301
248.834,4.312
249.834,4.322
250.834,4.332
251.834,4.340
252.834,4.347
253.834,4.353
254.834,4.357
255.834,4.360
256.834,4.361
257.834,4.361
258.834,4.360
259.351,4.357
260.351,4.357
261.351,4.356
262.351,4.353
263.351,4.348
264.351,4.343
265.351,4.336
266.351,4.330
267.351,4.322
268.351,4.315
269.351,4.307
270.351,4.300
271.351,4.292
272.351,4.284
273.351,4.277
274.351,4.270
275.351,4.262
276.351,4.255
277.351,4.249
278.351,4.242
279.351,4.235
280.351,4.229
281.351,4.223
282.351,4.216
283.351,4.210
284.351,4.204
285.351,4.198
286.351,4.191
287.351,4.185
288.351,4.178
289.351,4.171
290.351,4.164
291.351,4.156
292.351,4.148
293.351,4.140
294.351,4.131
295.351,4.122
296.351,4.112
297.351,4.102
298.351,4.092
299.351,4.081
300.351,4.069
301.351,4.057
302.351,4.045
303.351,4.032
304.351,4.018
305.351,4.004
306.351,3.990
307.351,3.974
308.351,3.959
309.351,3.943
310.351,3.926
311.351,3.909
312.351,3.892
313.351,3.873
314.351,3.855
315.103,3.838
316.103,3.820
317.103,3.804
318.103,3.790
319.103,3.778
320.103,3.768
321.103,3.759
322.103,3.752
323.103,3.747
324.103,3.744
325.103,3.742
326.103,3.742
327.103,3.743
328.103,3.745
329.103,3.748
330.103,3.753
331.103,3.758
332.103,3.763
333.103,3.770
334.103,3.776
335.103,3.783
336.103,3.790
337.103,3.797
338.103,3.804
339.103,3.811
340.103,3.817
341.103,3.822
342.103,3.827
343.103,3.832
344.103,3.835
345.103,3.838
346.103,3.839
347.103,3.840
348.103,3.839
349.103,3.837
350.103,3.834
351.103,3.830
352.103,3.825
353.103,3.818
354.103,3.810
355.103,3.801
356.103,3.791
357.103,3.780
358.103,3.768
359.103,3.754
360.103,3.739
361.103,3.724
362.103,3.707
363.103,3.690
364.103,3.672
365.103,3.653
366.103,3.633
367.103,3.612
368.103,3.591
369.103,3.569
370.103,3.546
371.103,3.522
372.103,3.497
372.984,3.473
373.984,3.445
374.984,3.419
375.984,3.392
376.984,3.367
377.984,3.342
378.984,3.318
379.984,3.294
380.984,3.271
381.984,3.249
382.984,3.227
383.984,3.205
384.984,3.184
385.984,3.164
386.984,3.144
387.984,3.124
388.984,3.105
389.984,3.086
390.984,3.068
391.984,3.050
392.984,3.033
393.984,3.016
394.984,2.999
395.984,2.983
396.984,2.967
397.984,2.952
398.984,2.937
399.984,2.923
400.984,2.909
401.984,2.896
402.984,2.883
403.984,2.871
404.984,2.860
405.984,2.849
406.984,2.838
407.984,2.828
408.984,2.819
409.984,2.810
410.984,2.801
411.984,2.793
412.984,2.786
413.984,2.779
414.984,2.773
415.984,2.767
416.984,2.761
417.984,2.755
418.984,2.750
419.984,2.745
420.984,2.740
421.984,2.735
422.984,2.730
423.984,2.724
424.984,2.718
425.984,2.711
426.984,2.704
427.984,2.696
428.736,2.693
429.736,2.680
430.736,2.668
431.736,2.658
432.736,2.649
433.736,2.640
434.736,2.633
435.736,2.625
436.736,2.618
437.736,2.611
438.736,2.605
439.736,2.598
440.736,2.591
441.736,2.584
442.736,2.577
443.736,2.569
444.736,2.562
445.736,2.553
446.736,2.545
447.736,2.536
448.736,2.527
449.736,2.517
450.736,2.507
451.736,2.496
452.736,2.485
453.736,2.474
454.736,2.463
455.736,2.451
456.736,2.439
457.736,2.426
458.736,2.414
459.736,2.401
460.736,2.388
461.736,2.376
462.736,2.363
463.736,2.350
464.736,2.337
465.736,2.324
466.736,2.311
467.736,2.298
468.736,2.285
469.736,2.272
470.736,2.259
471.736,2.246
472.736,2.233
473.736,2.220
474.736,2.207
475.736,2.194
476.736,2.180
477.736,2.166
478.736,2.151
479.736,2.136
480.736,2.120
##END=
