##TITLE=2,6-Dimethylphenylisocyanate
##JCAMP-DX=4.24
##DATA TYPE=UV/VIS SPECTRUM
##ORIGIN=INSTITUTE OF ENERGY PROBLEMS OF CHEMICAL PHYSICS, RAS
##OWNER=INEP CP RAS, NIST OSRD
Collection (C) 2007 copyright by the U.S. Secretary of Commerce
on behalf of the United States of America. All rights reserved.
##CAS REGISTRY NO=28556-81-2
##MOLFORM=C9H9NO
##MP=117-118
##SOURCE REFERENCE=RAS UV No. 19053
##$NIST SQUIB=1969LAN79
##$NIST SOURCE=TYUGLMTE
##SPECTROMETER/DATA SYSTEM=Spekromom 201
##XUNITS=Wavelength (nm)
##YUNITS=Logarithm epsilon
##XFACTOR=1.0
##YFACTOR=1.0
##FIRSTX=203.27
##LASTX=298.47
##FIRSTY=4.418
##MAXX=298.47
##MINX=203.27
##MAXY=4.436
##MINY=0.774
##NPOINTS=150
##$REF AUTHOR=Lang (editor), L.
##$REF JOURNAL=Absorption Spectra in the Ultraviolet and Visible Region
##$REF VOLUME=13
##$REF PAGE=79
##$REF DATE=1969
##XYPOINTS=(XY..XY)
203.27,4.418
203.38,4.424
203.55,4.430
203.70,4.432
203.90,4.435
204.08,4.436
204.25,4.436
204.42,4.436
204.58,4.435
204.73,4.433
204.96,4.428
205.29,4.421
205.92,4.404
206.59,4.389
207.26,4.365
207.94,4.345
208.61,4.318
209.29,4.280
209.97,4.243
210.64,4.202
211.32,4.151
211.99,4.104
212.67,4.060
213.34,4.022
214.02,3.985
214.69,3.955
215.37,3.927
216.05,3.907
216.72,3.887
217.40,3.870
218.07,3.856
218.75,3.839
219.42,3.822
220.10,3.805
220.78,3.788
221.45,3.775
222.13,3.761
222.84,3.751
223.48,3.744
224.15,3.737
224.82,3.731
225.50,3.724
226.18,3.720
226.86,3.714
227.53,3.710
228.21,3.710
228.88,3.707
229.57,3.701
230.23,3.693
230.91,3.690
231.59,3.676
232.26,3.663
232.94,3.652
233.61,3.639
234.29,3.612
234.96,3.591
235.64,3.561
236.31,3.527
236.99,3.493
237.67,3.456
238.34,3.408
239.02,3.354
239.69,3.289
240.37,3.194
241.04,3.075
241.72,2.974
242.40,2.892
243.09,2.838
243.71,2.786
244.42,2.736
245.02,2.689
245.77,2.627
246.45,2.580
247.12,2.525
247.80,2.478
248.48,2.441
249.15,2.417
249.83,2.390
250.50,2.373
250.97,2.365
251.74,2.357
252.53,2.356
253.21,2.359
253.88,2.369
254.56,2.373
255.23,2.386
255.91,2.390
256.58,2.407
257.26,2.417
257.93,2.427
258.61,2.441
259.29,2.444
259.96,2.461
260.64,2.464
261.31,2.478
261.99,2.481
262.66,2.492
263.34,2.498
264.02,2.505
264.69,2.508
265.37,2.512
266.04,2.512
266.72,2.502
267.39,2.498
268.07,2.495
268.74,2.481
269.42,2.478
270.10,2.475
270.77,2.471
271.45,2.478
272.12,2.495
272.80,2.498
273.47,2.468
274.15,2.420
274.82,2.369
275.50,2.325
276.18,2.284
276.85,2.240
277.53,2.203
278.20,2.166
278.88,2.132
279.55,2.094
280.23,2.057
280.91,2.006
281.58,1.959
282.26,1.908
282.93,1.847
283.66,1.769
284.36,1.696
285.07,1.627
285.74,1.567
286.37,1.513
286.99,1.460
287.66,1.402
288.34,1.324
289.01,1.259
289.69,1.195
290.36,1.144
291.04,1.093
291.72,1.052
292.39,1.012
293.07,0.978
293.74,0.944
294.42,0.913
295.09,0.889
295.77,0.862
296.44,0.842
297.12,0.815
297.80,0.794
298.47,0.774
##END=
