##TITLE=3-nitrodibenzo[c,e][1,2]dithiin
##JCAMP-DX=4.24
##DATA TYPE=UV/VIS SPECTRUM
##ORIGIN=INSTITUTE OF ENERGY PROBLEMS OF CHEMICAL PHYSICS, RAS
##OWNER=INEP CP RAS, NIST OSRD
Collection (C) 2007 copyright by the U.S. Secretary of Commerce
on behalf of the United States of America. All rights reserved.
##CAS REGISTRY NO=28547-70-8
##MOLFORM=C12H7NO2S2
##MP=164.5-165.5
##SOURCE REFERENCE=RAS UV No. 23421
##$NIST SQUIB=1975ZHE/1304
##$NIST SOURCE=TYUGLMTE
##SPECTROMETER/DATA SYSTEM=SFD-2
##XUNITS=Wavelength (nm)
##YUNITS=Logarithm epsilon
##XFACTOR=1.0
##YFACTOR=1.0
##FIRSTX=219.454
##LASTX=448.579
##FIRSTY=4.45
##MAXX=448.579
##MINX=219.454
##MAXY=4.453
##MINY=2.201
##NPOINTS=154
##$REF AUTHOR=Zheltov, A.Ya.; et al.
##$REF JOURNAL=Zhur. Organ. Khim.
##$REF VOLUME=11
##$REF PAGE=1304
##$REF DATE=1975
##XYPOINTS=(XY..XY)
219.454,4.450
220.954,4.453
222.454,4.441
223.954,4.419
225.454,4.387
226.954,4.349
228.454,4.308
229.954,4.265
231.454,4.224
232.954,4.186
234.454,4.152
235.954,4.123
237.454,4.099
238.954,4.080
240.454,4.065
241.954,4.053
243.454,4.042
244.954,4.033
246.454,4.023
247.954,4.013
249.454,4.002
250.954,3.990
252.436,3.978
253.936,3.978
255.436,3.981
256.936,3.983
258.436,3.986
259.936,3.987
261.436,3.988
262.936,3.986
264.436,3.982
265.936,3.977
267.436,3.969
268.936,3.960
270.436,3.949
271.936,3.936
273.436,3.921
274.936,3.906
276.436,3.890
277.936,3.873
279.436,3.857
280.936,3.842
282.436,3.829
283.936,3.820
285.436,3.815
286.936,3.816
287.984,3.826
289.484,3.834
290.984,3.850
292.484,3.871
293.984,3.895
295.484,3.921
296.984,3.948
298.484,3.976
299.984,4.004
301.484,4.032
302.984,4.060
304.484,4.087
305.984,4.112
307.484,4.136
308.984,4.157
310.484,4.174
311.984,4.187
313.484,4.196
314.984,4.200
316.484,4.200
318.436,4.199
319.936,4.198
321.436,4.194
322.936,4.187
324.436,4.177
325.936,4.164
327.436,4.148
328.936,4.129
330.436,4.107
331.936,4.082
333.436,4.055
334.936,4.024
336.436,3.991
337.936,3.955
339.436,3.917
340.936,3.876
342.436,3.834
343.936,3.789
345.436,3.742
346.936,3.693
348.436,3.642
349.936,3.589
351.436,3.534
352.936,3.477
354.436,3.418
355.782,3.356
357.282,3.319
358.782,3.276
360.282,3.230
361.782,3.184
363.282,3.139
364.782,3.098
366.282,3.061
367.782,3.029
369.282,3.002
370.782,2.979
372.282,2.962
373.782,2.949
375.282,2.939
376.782,2.932
378.282,2.928
379.782,2.925
381.282,2.924
382.782,2.923
384.282,2.922
385.782,2.922
387.282,2.921
388.782,2.919
390.282,2.918
391.782,2.916
392.151,2.916
393.651,2.915
395.151,2.913
396.651,2.911
398.151,2.910
399.651,2.910
401.151,2.910
402.651,2.910
404.151,2.909
405.651,2.906
407.151,2.900
408.651,2.891
410.151,2.879
411.651,2.866
413.151,2.851
415.579,2.830
417.079,2.817
418.579,2.803
420.079,2.789
421.579,2.774
423.079,2.758
424.579,2.741
426.079,2.721
427.579,2.700
429.079,2.676
430.579,2.650
432.079,2.622
433.579,2.592
435.079,2.561
436.579,2.527
438.079,2.493
439.579,2.458
441.079,2.421
442.579,2.383
444.079,2.343
445.579,2.301
447.079,2.254
448.579,2.201
##END=
