##TITLE=Acridarsine,10-phenyl-
##JCAMP-DX=4.24
##DATA TYPE=UV/VIS SPECTRUM
##ORIGIN=INSTITUTE OF ENERGY PROBLEMS OF CHEMICAL PHYSICS, RAS
##OWNER=INEP CP RAS, NIST OSRD
Collection (C) 2007 copyright by the U.S. Secretary of Commerce
on behalf of the United States of America. All rights reserved.
##CAS REGISTRY NO=28660-45-9
##MOLFORM=C19H13As
##MP=172-176
##SOURCE REFERENCE=RAS UV No. 15879
##$NIST SQUIB=1970ACH/GWI3255
##$NIST SOURCE=TYUGLMTE
##SPECTROMETER/DATA SYSTEM=unknown
##XUNITS=Wavelength (nm)
##YUNITS=Logarithm epsilon
##XFACTOR=1.0
##YFACTOR=1.0
##FIRSTX=351.79
##LASTX=487.07
##FIRSTY=2.787
##MAXX=487.07
##MINX=351.79
##MAXY=3.928
##MINY=2.534
##NPOINTS=121
##$REF AUTHOR=Ache4nbach, H.; G.Wittmann.
##$REF JOURNAL=Tetrahedron Letters
##$REF PAGE=3255
##$REF DATE=1970
##XYPOINTS=(XY..XY)
351.79,2.787
353.97,2.787
356.15,2.785
358.32,2.787
360.50,2.790
362.68,2.795
364.62,2.802
366.55,2.812
368.25,2.824
369.94,2.836
371.39,2.850
372.84,2.867
374.05,2.884
375.02,2.903
375.99,2.923
376.72,2.942
377.93,2.961
378.65,2.981
379.62,3.000
380.35,3.022
381.32,3.041
382.28,3.060
383.49,3.080
384.70,3.099
386.16,3.114
387.85,3.126
389.30,3.140
390.75,3.157
391.96,3.174
393.17,3.193
394.38,3.213
395.11,3.232
396.32,3.251
397.29,3.271
398.01,3.292
398.98,3.312
399.95,3.331
400.68,3.350
401.64,3.370
402.37,3.389
403.34,3.408
404.31,3.428
405.76,3.444
407.45,3.459
409.39,3.469
411.57,3.471
413.74,3.471
415.92,3.469
418.10,3.464
419.31,3.481
420.52,3.500
421.49,3.519
422.21,3.541
422.94,3.563
423.67,3.585
424.39,3.606
425.12,3.628
425.84,3.650
426.33,3.672
426.81,3.693
427.54,3.715
428.02,3.737
428.75,3.756
429.96,3.775
430.68,3.795
432.14,3.812
433.59,3.826
435.77,3.824
437.22,3.807
437.95,3.787
438.91,3.768
439.40,3.746
440.12,3.725
440.85,3.705
441.58,3.686
442.30,3.667
443.03,3.647
444.24,3.628
446.17,3.616
447.63,3.633
448.35,3.655
448.84,3.676
449.56,3.698
450.29,3.720
451.01,3.742
451.74,3.763
452.71,3.783
453.43,3.804
454.16,3.826
454.89,3.848
455.85,3.867
456.58,3.886
457.31,3.906
458.76,3.923
460.94,3.928
462.39,3.911
463.36,3.891
464.08,3.872
464.81,3.850
465.53,3.829
466.02,3.807
466.50,3.785
467.23,3.766
467.47,3.744
467.95,3.722
468.44,3.701
474.00,3.374
474.49,3.316
475.46,3.234
476.42,3.169
477.39,3.092
478.36,3.029
479.33,2.978
480.30,2.906
481.26,2.853
482.23,2.800
483.20,2.739
484.17,2.688
485.14,2.643
486.11,2.582
487.07,2.534
##END=
