##TITLE=Cyclopentane
##JCAMP-DX=4.24
##DATA TYPE=UV/VIS SPECTRUM
##ORIGIN=INSTITUTE OF ENERGY PROBLEMS OF CHEMICAL PHYSICS, RAS
##OWNER=INEP CP RAS, NIST OSRD
Collection (C) 2007 copyright by the U.S. Secretary of Commerce
on behalf of the United States of America. All rights reserved.
##CAS REGISTRY NO=287-92-3
##MOLFORM=C5H10
##MP=-93.8
##BP=49.3
##SOURCE REFERENCE=RAS UV No. 4885
##$NIST SQUIB=1951PIC/MUN4862-4865
##$NIST SOURCE=TSGMTE
##SPECTROMETER/DATA SYSTEM=Hilger fluorite prism spectrograph
##XUNITS=Wavelength (nm)
##YUNITS=Logarithm epsilon
##XFACTOR=1.000000
##YFACTOR=1.000000
##FIRSTX=170.4259
##LASTX=154.0752
##FIRSTY=1.53558
##MAXX=170.426
##MINX=154.075
##MAXY=3.39345
##MINY=1.53558
##NPOINTS=113
##$REF AUTHOR=Pickett, L.W.; Muntz, M.; McPherson, E.M.
##$REF TITLE=Vacuum ultraviolet absorption spectra of cyclic compounds. I. Cyclohexane, cyclohexene, cyclopentane, Cyclopentene and benzene
##$REF JOURNAL=J. Am. Chem. Soc.
##$REF VOLUME=73
##$REF PAGE=4862-4865
##$REF DATE=1951
##XYPOINTS=(XY..XY)
170.4259,1.535579
170.3943,1.567145
170.3474,1.620834
170.3474,1.620834
170.2450,1.651752
170.1427,1.682677
170.0402,1.713621
169.9375,1.744591
169.8343,1.775596
169.7307,1.806645
169.7307,1.806645
169.5979,1.838976
169.4648,1.871340
169.3315,1.903732
169.1981,1.936146
169.0646,1.968577
168.9312,2.001019
168.7980,2.033466
168.7980,2.033466
168.7738,2.035055
168.7476,2.036714
168.7204,2.038513
168.7204,2.038513
168.6277,2.061636
168.5332,2.084899
168.4378,2.108231
168.4378,2.108231
168.1406,2.159786
167.8999,2.201620
167.7052,2.235405
167.5465,2.262816
167.4135,2.285524
167.2964,2.305205
167.1852,2.323530
167.0701,2.342172
166.9412,2.362806
166.7889,2.387105
166.7889,2.387105
166.6372,2.408447
166.5035,2.426884
166.3728,2.444655
166.2303,2.464000
166.0613,2.487161
165.8512,2.516378
165.5857,2.553890
165.2507,2.601938
165.2507,2.601938
165.1563,2.612914
165.0298,2.629175
164.8380,2.654112
164.5482,2.691117
164.1285,2.743584
164.1285,2.743584
163.5960,2.800954
163.2706,2.835345
163.0800,2.855244
162.9533,2.869140
162.9533,2.869140
162.6036,2.898981
162.2986,2.923844
161.7780,2.965042
161.7780,2.965042
161.3782,2.991822
161.0877,3.010820
160.9097,3.023719
160.9097,3.023719
160.7160,3.035683
160.4200,3.056551
160.1369,3.076086
160.1369,3.076086
159.7921,3.104490
159.4478,3.132964
159.1032,3.161578
159.1032,3.161578
159.0138,3.166310
158.9236,3.171042
158.8317,3.175774
158.8317,3.175774
158.7941,3.176101
158.7547,3.176499
158.7145,3.177036
158.7145,3.177036
158.6608,3.180518
158.6053,3.184070
158.5490,3.187762
158.5490,3.187762
158.3533,3.192529
158.1546,3.199399
157.8826,3.208583
157.8826,3.208583
157.7456,3.211515
157.6071,3.214588
157.4680,3.217731
157.4680,3.217731
157.2983,3.224695
156.9832,3.235374
156.4683,3.254326
156.4683,3.254326
155.8628,3.284541
155.5840,3.298982
155.4464,3.305431
155.4464,3.305431
155.3003,3.315153
155.0447,3.331253
154.7097,3.354014
154.7097,3.354014
154.6106,3.358722
154.4767,3.368128
154.3574,3.378935
154.3574,3.378935
154.2528,3.386413
154.1796,3.390176
154.0752,3.393447
##END=
