##TITLE=Oxazole
##JCAMP-DX=4.24
##DATA TYPE=UV/VIS SPECTRUM
##ORIGIN=INSTITUTE OF ENERGY PROBLEMS OF CHEMICAL PHYSICS, RAS
##OWNER=INEP CP RAS, NIST OSRD
Collection (C) 2007 copyright by the U.S. Secretary of Commerce
on behalf of the United States of America. All rights reserved.
##CAS REGISTRY NO=288-42-6
##MOLFORM=C3H3NO
##BP=69.5
##SOURCE REFERENCE=RAS UV No. 9072
##$NIST SQUIB=1967JOH/SHEg3/1C
##$NIST SOURCE=TSGMTE
##SPECTROMETER/DATA SYSTEM=Unicam SP 500 or Hilger Ultrascan
##XUNITS=Wavelength (nm)
##YUNITS=Logarithm epsilon
##XFACTOR=1.000000
##YFACTOR=1.000000
##FIRSTX=238.2830
##LASTX=192.4924
##FIRSTY=1.12098
##MAXX=238.283
##MINX=192.492
##MAXY=4.63955
##MINY=1.12098
##NPOINTS=666
##$REF AUTHOR=Johnson, E.A.; Sheridan, J.
##$REF TITLE=Oxazole
##$REF BOOK TITLE=UV Atlas of Organic Compounds - Vol. 3
##$REF PAGE=G3/1
##$REF DATE=1967
##$REF PUBLISHER=Plenum Press
##$REF LOCATION=New York
##XYPOINTS=(XY..XY)
238.2830,1.120978
238.1693,1.136096
238.1672,1.120982
238.0424,1.159666
238.0394,1.138151
237.9289,1.174528
237.9271,1.161721
237.8164,1.195792
237.8137,1.176580
237.6892,1.215008
237.6865,1.195797
237.5761,1.230127
237.5739,1.215013
237.4636,1.249343
237.4612,1.232180
237.3371,1.270607
237.3344,1.251397
237.2249,1.289823
237.2222,1.270611
237.1125,1.306989
237.1100,1.289827
236.9858,1.324157
236.9837,1.309044
236.8736,1.341324
236.8712,1.324161
236.7621,1.362588
236.7594,1.343377
236.6358,1.379755
236.6337,1.364643
236.5256,1.409473
236.5218,1.381810
236.4148,1.433043
236.4118,1.411783
236.3099,1.499390
236.3082,1.486582
236.3046,1.460968
236.3010,1.435354
236.1835,1.512203
236.1820,1.501444
236.1796,1.484283
236.1767,1.463024
236.0703,1.516562
236.0700,1.514257
235.9580,1.527069
235.9569,1.518617
235.8332,1.548591
235.8302,1.527074
235.7229,1.571904
235.7200,1.550645
235.6122,1.591120
235.6096,1.571910
235.4884,1.616996
235.4848,1.591126
235.3781,1.638262
235.3755,1.619051
235.2680,1.659526
235.2654,1.640315
235.1445,1.685402
235.1413,1.661837
235.0343,1.704618
235.0317,1.685408
234.9254,1.732287
234.9219,1.706673
234.8016,1.753552
234.7990,1.734341
234.6923,1.777122
234.6894,1.755863
234.5835,1.802742
234.5800,1.777128
234.4604,1.826313
234.4575,1.805053
234.3511,1.847578
234.3482,1.826318
234.2426,1.873453
234.2390,1.847583
234.1201,1.899073
234.1169,1.875508
234.0120,1.926742
234.0085,1.901127
233.9044,1.956715
233.9006,1.928796
233.7814,1.975932
233.7790,1.958770
233.6736,2.003600
233.6701,1.977986
233.5642,2.018718
233.5625,2.005911
233.4428,2.046387
233.4393,2.020773
233.3345,2.067908
233.3318,2.048441
233.2263,2.089173
233.2237,2.069962
233.1046,2.112744
233.1017,2.091228
232.9972,2.138363
232.9940,2.114798
232.8893,2.159628
232.8867,2.140417
232.7685,2.187553
232.7651,2.161939
232.6611,2.210867
232.6582,2.189607
232.5535,2.232388
232.5510,2.213178
232.4469,2.260057
232.4435,2.234443
232.3258,2.281579
232.3232,2.262368
232.2191,2.307198
232.2159,2.283633
232.1125,2.332817
232.1093,2.309252
231.9914,2.352034
231.9891,2.334872
231.8855,2.382007
231.8818,2.354088
231.7787,2.403272
231.7761,2.384062
231.6593,2.433247
231.6556,2.405327
231.5527,2.454512
231.5501,2.435301
231.4467,2.480131
231.4436,2.456822
231.3271,2.505751
231.3240,2.482442
231.2211,2.529321
231.2182,2.508061
231.1148,2.550842
231.1123,2.531632
230.9945,2.567753
230.9925,2.552897
230.8893,2.595678
230.8859,2.570064
230.7830,2.614894
230.7808,2.597732
230.6636,2.636159
230.6611,2.616949
230.5579,2.657680
230.5553,2.638470
230.4531,2.685349
230.4497,2.659735
230.3340,2.706871
230.3314,2.687404
230.2291,2.732490
230.2260,2.708925
230.1240,2.755804
230.1212,2.734544
230.0053,2.777326
230.0028,2.758115
229.9010,2.804994
229.8976,2.779380
229.7962,2.828564
229.7934,2.807305
229.6778,2.849830
229.6753,2.830619
229.5738,2.877755
229.5704,2.852140
229.4699,2.905423
229.4665,2.879809
229.3521,2.928994
229.3493,2.907734
229.2475,2.950259
229.2450,2.931048
229.1431,2.971780
229.1406,2.952569
229.0262,2.999449
229.0226,2.971786
228.9217,3.018665
228.9194,3.001759
228.8172,3.037881
228.8150,3.020975
228.7134,3.061451
228.7107,3.040191
228.5959,3.080667
228.5937,3.063762
228.4920,3.102188
228.4895,3.082978
228.3883,3.123453
228.3858,3.104242
228.2710,3.142670
228.2688,3.125508
228.1675,3.164191
228.1649,3.144724
228.0640,3.185456
228.0615,3.166245
227.9471,3.204672
227.9448,3.187510
227.8438,3.225937
227.8413,3.206726
227.7406,3.247458
227.7381,3.228247
227.6246,3.271029
227.6218,3.249513
227.5211,3.287939
227.5191,3.273083
227.4179,3.307155
227.4157,3.290250
227.3014,3.324322
227.2995,3.309466
227.1987,3.345843
227.1962,3.326377
227.0958,3.365059
227.0936,3.347898
226.9794,3.379921
226.9777,3.367114
226.8764,3.397088
226.8745,3.381976
226.7741,3.418353
226.7716,3.399142
226.6583,3.435520
226.6563,3.420408
226.5559,3.454736
226.5537,3.437574
226.4536,3.473952
226.4514,3.456790
226.3381,3.491119
226.3361,3.476007
226.2349,3.501626
226.2338,3.493173
226.1329,3.521098
226.1307,3.503936
226.0176,3.538009
226.0158,3.523153
225.9150,3.550821
225.9137,3.540319
225.8128,3.565939
225.8112,3.553132
225.6976,3.580801
225.6960,3.567994
225.5953,3.593613
225.5939,3.582855
225.4928,3.604376
225.4917,3.595667
225.3785,3.623593
225.3763,3.606431
225.2762,3.634356
225.2751,3.625647
225.1743,3.647168
225.1729,3.636410
225.0724,3.659980
225.0711,3.649222
224.9580,3.674842
224.9564,3.662035
224.8564,3.687654
224.8550,3.676896
224.7545,3.698417
224.7534,3.689709
224.6399,3.709181
224.6388,3.700472
224.5391,3.726092
224.5372,3.711235
224.4381,3.741209
224.4365,3.728402
224.3243,3.756071
224.3227,3.743264
224.2230,3.766834
224.2219,3.758125
224.1220,3.779646
224.1206,3.768889
224.0080,3.790154
224.0069,3.781701
223.9075,3.805272
223.9059,3.792464
223.8067,3.818084
223.8054,3.807326
223.6934,3.830897
223.6920,3.820139
223.5926,3.841660
223.5915,3.832951
223.4922,3.854472
223.4908,3.843714
223.3788,3.864980
223.3778,3.856527
223.2789,3.880097
223.2773,3.867290
223.1785,3.890860
223.1774,3.882151
223.0657,3.903673
223.0644,3.892915
222.9655,3.914180
222.9644,3.905727
222.8656,3.926992
222.8643,3.916490
222.7532,3.939805
222.7519,3.929303
222.6532,3.950568
222.6519,3.939810
222.5531,3.959026
222.5523,3.952623
222.4407,3.969790
222.4397,3.961337
222.3405,3.976198
222.3398,3.969795
222.2410,3.986962
222.2400,3.978509
222.1297,4.004129
222.1279,3.989016
222.0295,4.008232
222.0293,4.006183
221.9310,4.025399
221.9289,4.008237
221.8188,4.031808
221.8182,4.027454
221.7191,4.038217
221.7186,4.033862
221.6201,4.048980
221.6191,4.040271
221.5209,4.057438
221.5202,4.051034
221.4093,4.065896
221.4085,4.059493
221.3106,4.076659
221.3096,4.068207
221.2117,4.085373
221.2109,4.078970
221.1004,4.093832
221.0996,4.087428
221.0017,4.102290
221.0009,4.095886
220.9031,4.111004
220.9020,4.102295
220.7923,4.121511
220.7913,4.113058
220.6936,4.127920
220.6928,4.121516
220.5953,4.136634
220.5945,4.130230
220.4843,4.143043
220.4838,4.138689
220.3864,4.153550
220.3854,4.145097
220.2883,4.162264
220.2876,4.155860
220.1780,4.170722
220.1772,4.164319
220.0801,4.179436
220.0793,4.173033
219.9817,4.183540
219.9812,4.179442
219.8719,4.194304
219.8709,4.185851
219.7741,4.200712
219.7733,4.194309
219.6763,4.207121
219.6757,4.202766
219.5665,4.215579
219.5655,4.207127
219.4692,4.224293
219.4684,4.217890
219.3714,4.228397
219.3709,4.224298
219.2619,4.237111
219.2612,4.230708
219.1646,4.243520
219.1638,4.237116
219.0673,4.249929
219.0668,4.245574
218.9582,4.258387
218.9574,4.251984
218.8611,4.264796
218.8603,4.258392
218.7641,4.271204
218.7636,4.267106
218.6553,4.279919
218.6542,4.271210
218.5582,4.284022
218.5577,4.279924
218.4618,4.292736
218.4610,4.286333
218.3530,4.299146
218.3522,4.292742
218.2562,4.303249
218.2557,4.299151
218.1600,4.311963
218.1592,4.305560
218.0636,4.318372
218.0629,4.311968
217.9549,4.322476
217.9544,4.318378
217.8590,4.331190
217.8580,4.322481
217.7627,4.335293
217.7622,4.331195
217.6545,4.341702
217.6538,4.335299
217.5584,4.346062
217.5579,4.341708
217.4626,4.352471
217.4621,4.348372
217.3545,4.356831
217.3540,4.352476
217.2588,4.363240
217.2583,4.358885
217.1630,4.367599
217.1628,4.365294
217.0555,4.374008
217.0550,4.369654
216.9599,4.378112
216.9596,4.376063
216.8648,4.386826
216.8641,4.380422
216.7571,4.388881
216.7569,4.386832
216.6620,4.395289
216.6615,4.390935
216.5667,4.399649
216.5664,4.397344
216.4593,4.401704
216.3646,4.410162
216.2698,4.416570
216.2691,4.410167
216.1630,4.420930
216.1625,4.416576
216.0679,4.422985
216.0676,4.420936
215.9733,4.429393
215.9729,4.425295
215.8665,4.431704
215.8662,4.429399
215.7719,4.435808
215.7717,4.433759
215.6774,4.440167
215.6772,4.438118
215.5711,4.444528
215.5709,4.442478
215.4768,4.448887
215.4763,4.444533
215.2763,4.455302
215.2760,4.452996
215.1822,4.459405
215.1819,4.457356
215.0882,4.463764
215.0879,4.461715
214.9822,4.465819
214.9820,4.463770
214.8884,4.470179
214.8882,4.468130
214.7947,4.474538
214.7944,4.472233
214.7008,4.476593
214.7005,4.474544
214.5954,4.480953
214.5949,4.476598
214.5019,4.485056
214.5015,4.480958
214.4083,4.487367
214.4080,4.485061
214.3030,4.489422
214.3028,4.487372
214.2098,4.493781
214.2095,4.491476
214.1164,4.495835
214.1161,4.493786
214.0114,4.497890
214.0111,4.495841
213.9184,4.502250
213.9182,4.500201
213.8255,4.506609
213.8252,4.504304
213.7208,4.508664
213.7205,4.506615
213.6278,4.510719
213.6276,4.508669
213.5352,4.515078
213.5349,4.513029
213.4307,4.517133
213.4305,4.515084
213.3380,4.519443
213.3378,4.517138
213.1410,4.521503
213.1407,4.519454
213.0485,4.523558
213.0483,4.521508
212.9566,4.530222
212.9561,4.525868
212.8525,4.530228
212.7608,4.536637
212.7603,4.532282
212.6686,4.538691
212.6684,4.536642
212.5650,4.540746
212.5648,4.538697
212.4731,4.543056
212.4728,4.540751
212.3812,4.545111
212.3810,4.543062
212.2781,4.549471
212.2779,4.547166
212.1864,4.551525
212.1862,4.549476
212.0945,4.551530
211.9917,4.555890
211.9915,4.553585
211.9003,4.557945
211.9000,4.555896
211.8089,4.559999
211.8086,4.557950
211.7176,4.562309
211.7173,4.560004
211.6149,4.564364
211.6147,4.562315
211.5237,4.566419
211.5235,4.564369
211.4327,4.568729
211.4324,4.566424
211.3303,4.570784
211.3301,4.568735
211.2394,4.572838
211.2391,4.570789
211.1486,4.575149
211.1483,4.572843
211.0464,4.577203
211.0462,4.575154
210.9558,4.579258
210.9556,4.577209
210.8652,4.581568
210.8650,4.579263
210.7634,4.583623
210.7631,4.581574
210.6727,4.583628
210.4808,4.587993
210.3906,4.590048
210.3904,4.587999
210.3005,4.592102
210.3003,4.590053
210.1993,4.594413
210.1990,4.592108
210.1093,4.596467
210.1091,4.594418
209.9182,4.598527
209.9180,4.596478
209.8283,4.598532
209.6381,4.604947
209.6379,4.602898
209.5487,4.607257
209.5485,4.604952
209.3584,4.607268
209.2692,4.609322
209.1800,4.611377
209.1798,4.609327
209.0798,4.613688
209.0796,4.611382
208.9908,4.615742
208.9906,4.613693
208.9017,4.615747
208.8017,4.617802
208.7128,4.617807
208.6241,4.620117
208.4357,4.622177
208.4355,4.620128
208.3470,4.622183
208.1593,4.626548
208.0709,4.626553
207.9828,4.628607
207.7072,4.628623
207.6084,4.630934
207.3338,4.630950
207.2462,4.633005
206.9728,4.635070
206.9726,4.633021
206.7871,4.635081
206.7001,4.637391
206.3409,4.637412
206.2434,4.639467
204.9061,4.639546
204.8095,4.637503
204.1054,4.637545
204.0095,4.635246
203.8397,4.635256
203.7441,4.633213
203.5747,4.633223
203.4794,4.631180
203.0471,4.631206
202.9522,4.628906
202.6059,4.628927
202.5219,4.626883
202.2606,4.626899
202.2604,4.624850
202.1769,4.624855
202.0828,4.622556
201.9995,4.622561
201.9160,4.620517
201.7393,4.620528
201.6560,4.618228
201.3969,4.618244
201.3036,4.616200
201.2209,4.616206
201.1380,4.614162
201.0452,4.614167
200.9625,4.611867
200.8800,4.611872
200.8798,4.609823
200.7049,4.609834
200.6225,4.607790
200.5301,4.607796
200.4478,4.605496
200.1918,4.605512
200.1916,4.603462
200.1098,4.603468
200.1096,4.601418
199.9356,4.597075
199.5995,4.597096
199.5180,4.595052
199.4266,4.595058
199.1726,4.588670
199.0916,4.588675
199.0105,4.586375
198.8388,4.586386
198.8386,4.584337
198.7579,4.584342
198.5056,4.577955
198.4151,4.577960
198.3346,4.575916
198.1641,4.575927
198.1638,4.573622
198.0036,4.573632
198.0034,4.571583
197.9134,4.571589
197.9132,4.569540
197.8333,4.569545
197.7532,4.567245
197.6634,4.567250
197.5835,4.565206
197.4143,4.565217
197.3345,4.563173
197.2551,4.563178
197.0860,4.558835
197.0067,4.558840
197.0065,4.556791
196.9174,4.556797
196.8380,4.554496
196.6800,4.554507
196.5910,4.552463
196.5121,4.552468
196.4331,4.550424
196.3445,4.550430
196.3443,4.548125
196.2656,4.548130
196.0982,4.544043
196.0198,4.544048
195.9411,4.541748
195.7747,4.541758
195.6963,4.539714
195.6084,4.539720
195.6082,4.537671
195.3638,4.531284
195.2080,4.531294
195.1203,4.528994
194.8777,4.529010
194.8776,4.526961
194.8000,4.526966
194.7998,4.524661
194.7224,4.524666
194.6351,4.522623
194.4806,4.522633
194.3936,4.520590
194.2394,4.520600
194.1526,4.518300
194.1524,4.516251
193.8354,4.516272
193.7586,4.514228
193.4429,4.514249
193.3568,4.511950
192.4924,4.512008
##END=
