##TITLE=Thiazole
##JCAMP-DX=4.24
##DATA TYPE=UV/VIS SPECTRUM
##ORIGIN=INSTITUTE OF ENERGY PROBLEMS OF CHEMICAL PHYSICS, RAS
##OWNER=INEP CP RAS, NIST OSRD
Collection (C) 2007 copyright by the U.S. Secretary of Commerce
on behalf of the United States of America. All rights reserved.
##CAS REGISTRY NO=288-47-1
##MOLFORM=C3H3NS
##BP=118
##SOURCE REFERENCE=RAS UV No. 9074
##$NIST SQUIB=1967PER/SCHg2/1C
##$NIST SOURCE=TSGMTE
##SPECTROMETER/DATA SYSTEM=Zeiss PMQ II
##XUNITS=Wavelength (nm)
##YUNITS=Logarithm epsilon
##XFACTOR=1.000000
##YFACTOR=1.000000
##FIRSTX=261.8622
##LASTX=184.8234
##FIRSTY=1.14311
##MAXX=261.862
##MINX=184.823
##MAXY=3.70954
##MINY=1.14311
##NPOINTS=955
##$REF AUTHOR=Perkampus, H.-H.; Schmiele, c.; Braunschweig, T.H.
##$REF TITLE=Thiazole
##$REF BOOK TITLE=UV Atlas of Organic Compounds - Vol. 3
##$REF PAGE=G2/1
##$REF DATE=1967
##$REF PUBLISHER=Plenum Press
##$REF LOCATION=New York
##XYPOINTS=(XY..XY)
261.8622,1.143109
261.7336,1.166563
261.7225,1.145162
261.6061,1.192057
261.5940,1.168615
261.4590,1.213220
261.4481,1.192074
261.3286,1.232343
261.3187,1.213236
261.1983,1.251468
261.1884,1.232358
261.0604,1.289703
261.0550,1.279256
261.0463,1.262185
261.0419,1.253779
260.9238,1.296088
260.9217,1.292010
260.9140,1.276979
260.9074,1.264239
260.7853,1.298395
260.7841,1.296103
260.6501,1.340961
260.6293,1.300450
260.5204,1.360086
260.5117,1.343014
260.3909,1.379209
260.3822,1.362139
260.2452,1.400372
260.2354,1.381265
260.1171,1.421790
260.1062,1.400388
259.9890,1.442951
259.9793,1.423844
259.8438,1.464115
259.8330,1.442969
259.7149,1.483239
259.7052,1.464132
259.5863,1.502618
259.5776,1.485548
259.4415,1.523783
259.4318,1.504673
259.3163,1.549276
259.3044,1.525836
259.1880,1.568400
259.1793,1.551329
259.0437,1.589819
259.0328,1.568416
258.9177,1.613019
258.9060,1.589833
258.7877,1.628066
258.7813,1.615327
258.6438,1.649231
258.6341,1.630122
258.5161,1.668354
258.5065,1.649245
258.3854,1.681108
258.3789,1.668369
258.2408,1.700235
258.2324,1.683419
258.1136,1.719358
258.1051,1.702543
257.9854,1.736444
257.9780,1.721666
257.8562,1.751237
257.8498,1.738498
257.7135,1.772655
257.7039,1.753546
257.5857,1.789741
257.5771,1.772671
257.4579,1.806572
257.4505,1.791794
257.3134,1.823659
257.3060,1.808882
257.1871,1.842783
257.1785,1.825713
257.0598,1.859869
257.0513,1.842798
256.9146,1.874663
256.9083,1.861924
256.7887,1.893787
256.7803,1.876971
256.6608,1.908834
256.6545,1.896096
256.5182,1.927960
256.5097,1.910890
256.3926,1.947084
256.3842,1.930014
256.2672,1.966208
256.2577,1.947099
256.1240,1.983296
256.1156,1.966225
255.9977,2.000126
255.9894,1.983311
255.8716,2.017212
255.8643,2.002435
255.7299,2.036338
255.7205,2.017229
255.6062,2.057755
255.5967,2.038391
255.4794,2.072547
255.4721,2.057770
255.3360,2.087342
255.3287,2.072565
255.2116,2.106466
255.2033,2.089650
255.0873,2.125590
255.0790,2.108774
254.9434,2.138600
254.9382,2.127900
254.8214,2.161801
254.8110,2.140654
254.6965,2.178887
254.6892,2.164109
254.5561,2.198012
254.5477,2.180942
254.4334,2.219174
254.4241,2.200066
254.3079,2.234222
254.3005,2.219190
254.1669,2.251309
254.1595,2.236277
254.0436,2.270433
254.0353,2.253363
253.9193,2.287264
253.9111,2.270448
253.7767,2.300020
253.7716,2.289574
253.6539,2.319399
253.6456,2.302329
253.5321,2.340561
253.5228,2.321453
253.4094,2.359685
253.4011,2.342615
253.2704,2.378811
253.2621,2.361740
253.1470,2.395896
253.1397,2.380864
253.0226,2.410689
253.0165,2.397950
252.8851,2.432108
252.8759,2.412999
252.7631,2.451232
252.7549,2.434161
252.6412,2.470356
252.6330,2.453285
252.5000,2.483112
252.4948,2.472411
252.3783,2.502236
252.3701,2.485165
252.2558,2.519321
252.2485,2.504289
252.1149,2.532078
252.1098,2.521377
251.9937,2.551201
251.9855,2.534131
251.8694,2.563956
251.8643,2.553255
251.7321,2.583082
251.7239,2.566011
251.6081,2.595836
251.6030,2.585135
251.4863,2.612922
251.4791,2.597889
251.3464,2.625678
251.3413,2.614977
251.2247,2.642509
251.2177,2.627731
251.1023,2.657556
251.0963,2.644817
250.9648,2.674389
250.9577,2.659611
250.8447,2.693767
250.8366,2.676697
250.7216,2.706522
250.7165,2.695821
250.5855,2.725648
250.5774,2.708577
250.4596,2.732032
250.4566,2.725663
250.3328,2.736124
250.3318,2.734086
250.1972,2.755250
250.1881,2.736141
250.0828,2.785075
250.0698,2.757558
249.9615,2.800122
249.9555,2.787383
249.8242,2.814916
249.8182,2.802177
249.7021,2.827671
249.6970,2.816970
249.5821,2.844756
249.5751,2.829724
249.4443,2.857513
249.4393,2.846812
249.3175,2.859566
249.1940,2.868244
249.1899,2.859581
249.0785,2.893737
249.0675,2.870298
248.9392,2.902162
248.9362,2.895793
248.8179,2.914917
248.8129,2.904216
248.6959,2.925633
248.6918,2.916970
248.5579,2.936096
248.5540,2.927688
248.4352,2.944774
248.4322,2.938404
248.3135,2.955490
248.3094,2.946827
248.1760,2.965953
248.1720,2.957545
248.0525,2.972338
248.0506,2.968262
247.9312,2.983054
247.9273,2.974646
247.7961,2.997849
247.7892,2.983071
247.5491,3.008580
247.5462,3.002211
247.4126,3.019298
247.4086,3.010635
247.2908,3.027721
247.2879,3.021352
247.1702,3.038437
247.1662,3.029775
247.0321,3.044824
247.0301,3.040493
246.9107,3.053247
246.9068,3.044839
246.7905,3.063963
246.7856,3.053262
246.6537,3.072388
246.6499,3.063980
246.5328,3.081066
246.5289,3.072403
246.4119,3.089489
246.4090,3.083119
246.2747,3.095876
246.2727,3.091544
246.1540,3.104299
246.1511,3.097929
246.0345,3.115015
246.0296,3.104314
245.8986,3.123440
245.8948,3.115032
245.7765,3.127786
245.7745,3.123455
245.6563,3.136209
245.6534,3.129840
245.5209,3.144889
245.5170,3.136227
245.4010,3.153312
245.3972,3.144905
245.2803,3.159697
245.2774,3.153328
245.1443,3.166084
245.1424,3.162007
245.0249,3.174762
245.0220,3.168392
244.9064,3.185223
244.9025,3.176815
244.7852,3.189570
244.7832,3.185238
244.6507,3.197995
244.6478,3.191625
244.5317,3.206672
244.5278,3.198010
244.4128,3.215095
244.4090,3.206688
244.2768,3.219444
244.2748,3.215113
244.1581,3.227867
244.1543,3.219459
244.0386,3.234252
244.0357,3.227882
243.9039,3.240639
243.9021,3.236562
243.7847,3.247023
243.7829,3.242947
243.6666,3.255701
243.6637,3.249332
243.5324,3.262088
243.5304,3.257757
243.4135,3.268473
243.4115,3.264141
243.2956,3.276896
243.2928,3.270526
243.1618,3.283283
243.1599,3.278951
243.0433,3.289667
243.0413,3.285336
242.9249,3.296052
242.9220,3.289683
242.7914,3.302439
242.7895,3.298108
242.6733,3.308824
242.6713,3.304492
242.5561,3.317247
242.5524,3.308839
242.4222,3.321595
242.4203,3.317264
242.3044,3.327980
242.3016,3.321611
242.1877,3.336658
242.1849,3.330288
242.0541,3.340752
242.0532,3.338713
241.9377,3.349429
241.9338,3.340767
241.8184,3.351483
241.8175,3.349445
241.6871,3.359908
241.6843,3.353538
241.5682,3.362216
241.5672,3.359923
241.4513,3.368601
241.4493,3.364270
241.2008,3.377041
241.1989,3.372710
241.0833,3.381388
241.0823,3.379095
240.9500,3.383443
240.9491,3.381405
240.8327,3.387790
240.8317,3.385497
240.7154,3.391882
240.7145,3.389843
240.5975,3.394190
240.5965,3.391897
240.4656,3.398284
240.4638,3.394207
240.0998,3.409032
240.0979,3.404701
239.7341,3.417743
239.7331,3.415450
239.6179,3.421834
239.6171,3.419796
239.5011,3.424143
239.5001,3.421850
239.3704,3.428236
239.3686,3.424160
239.2547,3.432583
239.2538,3.430545
239.1380,3.434637
239.1372,3.432598
239.0079,3.438985
239.0070,3.436947
238.7762,3.445385
238.7753,3.443347
238.6464,3.449734
238.6454,3.447441
238.4164,3.458172
238.4145,3.453841
238.2860,3.460227
238.2851,3.458189
238.0557,3.466627
238.0548,3.464589
237.9267,3.470976
237.9249,3.466645
237.8114,3.473030
237.8105,3.470991
237.6963,3.475338
237.6953,3.473045
237.5676,3.479432
237.5667,3.477393
237.4527,3.481740
237.4517,3.479447
237.2105,3.490180
237.2086,3.485849
237.0958,3.492234
237.0950,3.490195
236.9823,3.496580
236.9814,3.494542
236.8535,3.498636
236.8526,3.496597
236.6251,3.502998
236.5111,3.505306
236.5102,3.503013
236.3847,3.511693
236.3820,3.505323
236.2708,3.513746
236.2700,3.511708
236.1571,3.515800
236.1563,3.513761
236.0293,3.518110
236.0283,3.515817
235.9167,3.522202
235.9158,3.520163
235.8034,3.524510
235.8024,3.522217
235.6758,3.526565
235.6750,3.524527
235.4488,3.528634
235.4479,3.526596
235.2089,3.532998
235.0962,3.535052
235.0954,3.533013
234.8553,3.535084
234.7430,3.537392
234.6158,3.537410
234.5036,3.539463
234.3916,3.541517
234.3908,3.539478
234.2647,3.541534
234.1530,3.543842
233.5634,3.543922
233.4505,3.541645
232.2951,3.541803
232.1852,3.544112
231.9502,3.544144
231.8388,3.541866
231.2608,3.541947
231.1502,3.539924
230.9172,3.539956
230.8070,3.537933
230.4656,3.537981
230.3420,3.535705
230.0020,3.535753
230.0012,3.533715
229.8926,3.533730
229.8918,3.531692
229.7833,3.531707
229.7824,3.529414
229.6605,3.529431
229.5514,3.527408
229.4433,3.527423
229.3209,3.525402
229.2129,3.525418
229.2120,3.523125
229.1042,3.523140
229.1034,3.521102
228.9822,3.521119
228.9814,3.519081
228.8738,3.519096
228.6571,3.514795
228.5364,3.514812
228.4283,3.512789
228.4274,3.510496
228.3195,3.508473
228.0923,3.508506
228.0915,3.506468
227.9838,3.504190
227.8638,3.504207
227.7564,3.502184
227.7555,3.499891
227.6482,3.497868
227.5285,3.497885
227.4215,3.495862
227.4206,3.493569
227.3136,3.491546
227.1943,3.491564
227.0876,3.489541
227.0867,3.487248
226.9808,3.487263
226.8611,3.485242
226.7554,3.485257
226.7546,3.483219
226.6491,3.483234
226.6474,3.478903
226.5280,3.476882
226.4227,3.476897
226.1975,3.472598
226.1958,3.468267
226.0908,3.468282
225.7607,3.461961
225.7600,3.459922
225.4309,3.453601
225.4301,3.451562
225.3258,3.451578
225.3241,3.447246
225.2069,3.447264
225.1020,3.445241
224.9980,3.445256
224.9971,3.442963
224.8932,3.442978
224.8917,3.438902
224.7749,3.438919
224.7740,3.436626
224.6703,3.436641
224.6695,3.434603
224.5659,3.434618
224.3444,3.430319
224.3436,3.428281
224.2403,3.428296
224.2395,3.426258
224.1234,3.426275
224.1225,3.423982
224.0194,3.423998
223.7991,3.419954
223.7982,3.417660
223.6954,3.417676
223.6947,3.415638
223.5919,3.415653
223.4756,3.413377
223.3731,3.413392
223.3724,3.411354
223.2699,3.411369
223.2692,3.409331
223.0502,3.405032
222.9481,3.405048
222.5120,3.396705
222.5111,3.394412
222.4095,3.394427
222.3072,3.392404
222.1930,3.392421
222.1914,3.388090
222.0901,3.388105
222.0886,3.384029
221.9865,3.381751
221.9857,3.379713
221.8719,3.379730
221.5541,3.373408
221.4533,3.373424
221.4526,3.371385
221.3519,3.371401
221.3503,3.367069
221.2497,3.367085
221.2490,3.365046
221.1359,3.365063
221.0347,3.362786
220.9344,3.362801
220.8210,3.360780
220.7209,3.360795
220.7193,3.356464
220.6193,3.356479
220.5061,3.354458
220.4063,3.354474
220.3059,3.352451
220.0943,3.352483
219.9940,3.350205
219.7830,3.350238
219.6831,3.348215
218.5492,3.348391
218.4519,3.350444
218.2438,3.350477
218.1469,3.352785
217.7445,3.352848
217.6358,3.354903
217.4414,3.354934
217.1407,3.361351
216.9351,3.361384
216.8392,3.363437
216.6342,3.363470
216.5387,3.365778
216.3350,3.367849
216.3343,3.365811
216.2396,3.369902
216.2389,3.367864
216.1325,3.372213
216.1317,3.369920
215.9408,3.372243
215.8338,3.374299
215.5353,3.374346
215.2398,3.380764
215.1454,3.382817
215.1447,3.380779
214.9436,3.382850
214.8496,3.385158
214.6483,3.385191
214.5544,3.387244
214.4607,3.389298
214.4599,3.387259
214.3670,3.391606
214.3662,3.389313
214.2609,3.391623
214.1674,3.393677
213.9674,3.393709
213.8741,3.395763
213.7802,3.395778
213.6755,3.398088
213.5825,3.400142
213.5818,3.398104
213.4895,3.402195
213.4888,3.400157
213.2908,3.402228
213.1982,3.404536
213.0001,3.404569
212.9076,3.406622
212.8030,3.406639
212.7107,3.408693
212.6186,3.411001
212.6178,3.408708
212.5142,3.411018
212.4222,3.413072
212.2255,3.413104
212.1337,3.415158
211.5585,3.417547
211.5577,3.415253
211.0884,3.417625
210.9862,3.419680
210.8956,3.421989
210.8949,3.419696
210.4179,3.424107
210.4172,3.422069
209.4787,3.424266
209.3893,3.426319
208.5486,3.426463
208.4475,3.424442
208.1801,3.424487
208.0794,3.422466
207.9905,3.422482
207.8005,3.418183
207.6233,3.418213
207.5230,3.415938
207.1588,3.416001
207.0701,3.413978
206.9710,3.413995
206.6944,3.407673
206.5191,3.407704
206.4200,3.405683
206.2451,3.405713
206.1462,3.403437
206.0589,3.403453
205.7847,3.397131
205.6001,3.397163
205.5127,3.395140
205.3285,3.395173
205.1541,3.390872
205.1535,3.388834
205.0671,3.388849
204.9693,3.386828
204.7969,3.386859
204.6994,3.384583
204.6133,3.384598
204.6127,3.382560
204.5268,3.382575
204.5261,3.380537
204.4295,3.380554
204.4288,3.378261
204.3430,3.378276
204.2566,3.376254
204.1603,3.376271
204.0741,3.374248
203.9886,3.374263
203.9879,3.371970
203.8918,3.371987
203.8912,3.369949
203.8058,3.369964
203.8052,3.367926
203.7199,3.367941
203.6234,3.365665
203.5382,3.365681
203.4526,3.363658
203.3570,3.363675
203.2715,3.361652
203.2707,3.359359
203.1853,3.357336
203.0899,3.357353
203.0046,3.355330
202.9200,3.355346
202.8242,3.353070
202.7398,3.353085
202.7392,3.351047
202.6548,3.351062
202.6542,3.349024
202.5586,3.346748
202.4744,3.346763
202.3896,3.344740
202.2950,3.344757
202.2944,3.342719
202.2104,3.342735
202.2097,3.340442
202.1257,3.340457
202.1251,3.338419
202.0412,3.338434
202.0406,3.336396
201.9463,3.336413
201.8619,3.334135
201.7783,3.334150
201.7776,3.332112
201.6836,3.332129
201.6830,3.330091
201.5147,3.325790
201.4210,3.325808
201.3370,3.323530
201.2538,3.323545
201.2531,3.321507
201.1590,3.319486
201.1583,3.317193
201.0752,3.317208
200.9916,3.315185
200.8983,3.315202
200.8977,3.313164
200.8148,3.313179
200.8135,3.308848
200.7307,3.308863
200.7301,3.306825
200.6371,3.306842
200.5537,3.304565
200.4712,3.304580
200.3778,3.302559
200.3771,3.300520
200.2947,3.300536
200.2940,3.298243
200.2117,3.298258
200.2111,3.296220
200.0363,3.296252
199.9535,3.294229
199.7792,3.294262
199.7785,3.291969
199.6966,3.291984
199.6953,3.287908
199.5215,3.287940
199.4391,3.285662
199.1841,3.285710
199.1021,3.283687
199.0105,3.283704
198.9286,3.281681
198.9279,3.279388
198.8467,3.279404
198.8461,3.277365
198.7548,3.277383
198.7542,3.275344
198.6731,3.275360
198.5914,3.273082
198.5902,3.269005
198.4991,3.269023
198.4984,3.266730
198.4169,3.264707
198.3361,3.264722
198.3355,3.262684
198.2440,3.260408
198.2434,3.258370
198.1621,3.256347
198.1614,3.254054
198.0808,3.254069
198.0802,3.252031
197.9890,3.250009
197.9883,3.247716
197.7352,3.241395
197.7346,3.239356
197.4821,3.233035
197.4020,3.233050
197.4014,3.230757
197.3214,3.230772
197.3208,3.228734
197.2303,3.226713
197.1504,3.226728
197.0699,3.224450
196.8210,3.224498
196.7310,3.222477
196.4036,3.222540
196.3251,3.224594
195.8316,3.224689
195.7535,3.226998
195.6650,3.227015
195.3437,3.235486
195.2653,3.235501
195.1780,3.237811
195.1003,3.239865
195.0998,3.237827
195.0228,3.241918
195.0222,3.239880
194.8582,3.246282
194.7808,3.248336
194.7802,3.246297
194.6945,3.252684
194.6939,3.250646
194.6172,3.254738
194.6166,3.252699
194.5395,3.254753
194.4539,3.261140
194.4527,3.257063
194.3769,3.263448
194.3763,3.261155
194.2140,3.269850
194.2134,3.267557
194.1377,3.273942
194.1372,3.271903
193.9752,3.280344
193.9746,3.278306
193.8992,3.284690
193.8986,3.282652
193.7377,3.293131
193.7365,3.289054
193.5866,3.303862
193.5848,3.297492
193.4256,3.312302
193.4245,3.308226
193.2751,3.323034
193.2733,3.316664
193.1152,3.333767
193.1134,3.327397
193.0399,3.338113
193.0392,3.335820
192.9556,3.344500
192.9538,3.338131
192.8810,3.350885
192.8798,3.346554
192.8058,3.354977
192.8046,3.350900
192.7211,3.359325
192.7206,3.357287
192.6467,3.365710
192.6455,3.361379
192.4872,3.374150
192.4861,3.370074
192.4124,3.378497
192.4118,3.376459
192.3376,3.382843
192.3364,3.378512
192.2533,3.386937
192.2527,3.384899
192.1040,3.395630
192.1028,3.391299
192.0194,3.397686
192.0188,3.395648
191.9449,3.402032
191.9437,3.397701
191.8704,3.406124
191.8698,3.404086
191.7860,3.408434
191.7854,3.406141
191.7123,3.414819
191.7105,3.408450
191.6374,3.416873
191.6368,3.414834
191.5538,3.421221
191.5531,3.418928
191.4802,3.427606
191.4790,3.423275
191.4055,3.429660
191.4049,3.427621
191.3221,3.434008
191.3209,3.429677
191.2482,3.438355
191.2475,3.436062
191.0910,3.446795
191.0898,3.442464
190.9434,3.455233
190.9423,3.451157
190.8698,3.459580
190.8692,3.457542
190.7869,3.463928
190.7862,3.461635
190.7133,3.468020
190.7127,3.465982
190.6398,3.472367
190.6392,3.470328
190.5576,3.478753
190.5564,3.474422
190.4109,3.487192
190.4098,3.483115
190.2552,3.495887
190.2540,3.491555
190.1820,3.499978
190.1808,3.495902
190.0991,3.502289
190.0984,3.499996
189.9525,3.508689
189.9519,3.506396
189.8709,3.515076
189.8697,3.510744
189.7981,3.519422
189.7974,3.517129
189.7252,3.523514
189.7247,3.521476
189.6433,3.527862
189.6421,3.523531
189.5706,3.532209
189.5700,3.529916
189.4980,3.536301
189.4974,3.534262
189.4162,3.540649
189.4157,3.538611
189.2712,3.549088
189.2701,3.545011
189.1168,3.555490
189.1162,3.553451
189.0445,3.559836
189.0440,3.557798
188.9631,3.564185
188.9625,3.561892
188.8909,3.568276
188.8904,3.566238
188.8189,3.572623
188.8183,3.570585
188.6657,3.581063
188.6646,3.576987
188.4398,3.589774
188.4392,3.587481
188.3680,3.593865
188.3675,3.591827
188.2958,3.596174
188.2952,3.593881
188.2150,3.600267
188.2145,3.598229
187.9908,3.611016
187.9897,3.606939
187.7666,3.619726
187.7660,3.617433
187.6953,3.623818
187.6948,3.621780
187.4718,3.632528
187.4712,3.630235
187.2487,3.640984
187.2482,3.638946
187.1779,3.645330
187.1773,3.643037
187.0975,3.647386
187.0970,3.645348
187.0262,3.649439
187.0257,3.647401
186.9556,3.653786
186.9544,3.649455
186.8754,3.655841
186.8748,3.653803
186.8037,3.655857
186.6532,3.662259
186.6527,3.660221
186.5823,3.664567
186.5817,3.662274
186.5114,3.666621
186.5108,3.664582
186.4316,3.668676
186.4310,3.666638
186.3608,3.670984
186.3602,3.668691
186.2901,3.673038
186.2895,3.671000
186.2104,3.675093
186.2099,3.673055
186.1399,3.677402
186.1393,3.675109
186.0693,3.679455
186.0687,3.677417
185.9898,3.681511
185.9893,3.679472
185.9194,3.683819
185.9188,3.681526
185.8490,3.685873
185.8485,3.683834
185.7786,3.687926
185.7781,3.685888
185.6995,3.690236
185.6989,3.687943
185.6287,3.690252
185.4801,3.696654
185.4796,3.694615
185.4100,3.698707
185.4095,3.696669
185.2607,3.701033
185.2601,3.698740
185.1908,3.703086
185.1903,3.701048
185.1209,3.705140
185.1204,3.703101
185.0424,3.707450
185.0418,3.705157
184.9726,3.709504
184.9721,3.707465
184.8234,3.709536
##END=
