##TITLE=Isoxazole
##JCAMP-DX=4.24
##DATA TYPE=UV/VIS SPECTRUM
##ORIGIN=INSTITUTE OF ENERGY PROBLEMS OF CHEMICAL PHYSICS, RAS
##OWNER=INEP CP RAS, NIST OSRD
Collection (C) 2007 copyright by the U.S. Secretary of Commerce
on behalf of the United States of America. All rights reserved.
##CAS REGISTRY NO=288-14-2
##MOLFORM=C3H3NO
##SOURCE REFERENCE=RAS UV No. 19849
##$NIST SQUIB=1967JOH/SHEg3/2
##$NIST SOURCE=TYUGLMTE
##SPECTROMETER/DATA SYSTEM=Unicam SP 500
##XUNITS=Wavelength (nm)
##YUNITS=Logarithm epsilon
##XFACTOR=1.0
##YFACTOR=1.0
##FIRSTX=192.06
##LASTX=248.48
##FIRSTY=4.289
##MAXX=248.48
##MINX=192.06
##MAXY=4.535
##MINY=1.472
##NPOINTS=137
##$REF AUTHOR=Johnson, E.A.; Sheridan, J.
##$REF JOURNAL=UV atlas of organic compounds
##$REF VOLUME=3
##$REF PAGE=G3/2
##$REF DATE=1967
##XYPOINTS=(XY..XY)
192.06,4.289
192.28,4.286
192.53,4.281
192.71,4.276
193.04,4.270
193.36,4.270
193.69,4.268
194.02,4.268
194.35,4.266
194.68,4.266
195.01,4.266
195.35,4.266
195.68,4.268
196.02,4.268
196.36,4.268
196.69,4.270
197.03,4.274
197.37,4.279
197.72,4.281
198.06,4.287
198.40,4.291
198.75,4.300
199.09,4.302
199.44,4.311
199.79,4.319
200.14,4.326
200.49,4.334
200.84,4.345
201.20,4.355
201.55,4.364
201.91,4.372
202.27,4.381
202.63,4.390
202.99,4.398
203.35,4.407
203.71,4.415
204.07,4.424
204.44,4.430
204.81,4.439
205.17,4.449
205.54,4.454
205.91,4.462
206.29,4.469
206.66,4.473
207.03,4.481
207.41,4.490
207.79,4.494
208.17,4.498
208.55,4.503
208.93,4.509
209.31,4.513
209.70,4.515
210.08,4.520
210.47,4.524
210.86,4.526
211.25,4.528
211.64,4.530
212.03,4.535
212.43,4.535
212.82,4.535
213.22,4.535
213.62,4.535
214.02,4.528
214.42,4.528
214.82,4.526
215.23,4.522
215.64,4.515
216.04,4.511
216.45,4.505
216.86,4.496
217.28,4.492
217.69,4.483
218.11,4.473
218.52,4.460
218.94,4.449
219.36,4.436
219.79,4.422
220.21,4.407
220.63,4.394
221.06,4.377
221.49,4.362
221.92,4.343
222.35,4.328
222.79,4.306
223.22,4.289
223.66,4.261
224.10,4.236
224.54,4.212
224.98,4.189
225.46,4.162
225.92,4.136
226.38,4.111
226.79,4.090
227.19,4.067
227.60,4.042
228.11,4.007
228.57,3.971
229.04,3.931
229.50,3.888
229.97,3.845
230.43,3.803
230.89,3.753
231.36,3.707
231.83,3.660
232.30,3.606
232.80,3.550
233.25,3.502
233.73,3.442
234.21,3.376
234.69,3.318
235.17,3.256
235.66,3.196
236.15,3.132
236.64,3.073
237.13,3.002
237.62,2.930
238.12,2.857
238.61,2.778
239.11,2.710
239.62,2.641
240.12,2.569
240.63,2.498
241.13,2.409
241.64,2.336
242.16,2.244
242.67,2.150
243.19,2.080
243.71,2.007
244.23,1.939
244.75,1.877
245.28,1.820
245.80,1.751
246.33,1.687
246.87,1.632
247.40,1.578
247.94,1.525
248.48,1.472
##END=
