##TITLE=Isothiazole
##JCAMP-DX=4.24
##DATA TYPE=UV/VIS SPECTRUM
##ORIGIN=INSTITUTE OF ENERGY PROBLEMS OF CHEMICAL PHYSICS, RAS
##OWNER=INEP CP RAS, NIST OSRD
Collection (C) 2007 copyright by the U.S. Secretary of Commerce
on behalf of the United States of America. All rights reserved.
##CAS REGISTRY NO=288-16-4
##MOLFORM=C3H3NS
##BP=114-116
##SOURCE REFERENCE=RAS UV No. 19855
##$NIST SQUIB=1967JOH/SLAg2/4
##$NIST SOURCE=TYUGLMTE
##SPECTROMETER/DATA SYSTEM=Unicam SP 500
##XUNITS=Wavelength (nm)
##YUNITS=Logarithm epsilon
##XFACTOR=1.0
##YFACTOR=1.0
##FIRSTX=184.57
##LASTX=272.9
##FIRSTY=3.399
##MAXX=272.9
##MINX=184.57
##MAXY=3.851
##MINY=1.088
##NPOINTS=165
##$REF AUTHOR=Johnson, E.A.; Slack, R.
##$REF JOURNAL=UV atlas of organic compounds
##$REF VOLUME=3
##$REF PAGE=G2/4
##$REF DATE=1967
##XYPOINTS=(XY..XY)
184.57,3.399
184.94,3.388
185.45,3.380
185.98,3.370
186.57,3.362
187.18,3.356
187.78,3.349
188.47,3.348
189.16,3.348
189.78,3.354
190.41,3.362
190.95,3.370
191.43,3.380
191.97,3.390
192.38,3.399
192.81,3.409
193.26,3.421
193.68,3.432
194.15,3.445
194.56,3.457
194.97,3.468
195.43,3.481
195.88,3.490
196.37,3.500
196.87,3.509
197.38,3.520
197.88,3.532
198.48,3.540
199.07,3.549
199.67,3.557
200.19,3.567
200.80,3.575
201.41,3.583
202.02,3.591
202.73,3.599
203.44,3.605
204.25,3.607
205.06,3.608
205.88,3.607
206.71,3.607
207.54,3.604
208.28,3.597
209.04,3.591
209.79,3.584
210.46,3.576
211.13,3.567
211.81,3.557
212.29,3.546
212.88,3.535
213.46,3.524
213.96,3.511
214.45,3.500
214.95,3.487
215.45,3.476
215.95,3.464
216.45,3.452
216.96,3.439
217.47,3.426
217.98,3.415
218.49,3.404
219.11,3.393
219.63,3.381
220.26,3.370
220.99,3.362
221.73,3.354
222.69,3.351
223.66,3.354
224.42,3.362
225.07,3.373
225.51,3.386
225.95,3.399
226.50,3.412
226.83,3.426
227.17,3.439
227.58,3.455
227.89,3.468
228.17,3.480
228.51,3.495
228.93,3.510
229.20,3.520
229.64,3.535
229.98,3.549
230.33,3.564
230.67,3.576
231.11,3.591
231.48,3.604
231.82,3.618
232.17,3.632
232.61,3.647
232.99,3.660
233.46,3.672
233.87,3.685
234.28,3.697
234.87,3.713
235.23,3.724
235.83,3.738
236.43,3.751
236.92,3.763
237.52,3.775
238.01,3.787
238.63,3.799
239.36,3.810
240.11,3.821
240.86,3.832
241.74,3.840
242.75,3.848
243.90,3.850
245.06,3.851
246.23,3.848
247.28,3.840
248.07,3.829
248.87,3.818
249.46,3.808
250.03,3.797
250.54,3.785
251.04,3.771
251.57,3.754
251.98,3.743
252.40,3.728
252.81,3.712
253.22,3.696
253.64,3.672
254.06,3.653
254.47,3.631
254.89,3.607
255.32,3.575
255.74,3.544
256.16,3.509
256.59,3.472
257.01,3.442
257.44,3.396
257.89,3.352
258.30,3.306
258.68,3.253
259.16,3.188
259.60,3.127
260.01,3.066
260.48,3.003
260.92,2.939
261.36,2.863
261.80,2.793
262.25,2.718
262.69,2.670
263.14,2.584
263.59,2.525
264.04,2.438
264.49,2.386
264.95,2.307
265.40,2.254
265.86,2.176
266.32,2.103
266.78,2.039
267.24,1.962
267.70,1.904
268.16,1.820
268.63,1.759
269.10,1.676
269.57,1.625
270.04,1.543
270.51,1.481
270.99,1.396
271.46,1.330
271.94,1.259
272.42,1.180
272.90,1.088
##END=
