##TITLE=1,3-Diazine
##JCAMP-DX=4.24
##DATA TYPE=UV/VIS SPECTRUM
##ORIGIN=INSTITUTE OF ENERGY PROBLEMS OF CHEMICAL PHYSICS, RAS
##OWNER=INEP CP RAS, NIST OSRD
Collection (C) 2007 copyright by the U.S. Secretary of Commerce
on behalf of the United States of America. All rights reserved.
##CAS REGISTRY NO=289-95-2
##MOLFORM=C4H4N2
##MP=22
##BP=123.8
##SOURCE REFERENCE=RAS UV No. 14
##$NIST SQUIB=1957BRE/GOM942-952
##$NIST SOURCE=TSGMTE
##SPECTROMETER/DATA SYSTEM=Spectrophotometer SF-16
##XUNITS=Wavelength (nm)
##YUNITS=Logarithm epsilon
##XFACTOR=1.000000
##YFACTOR=1.000000
##FIRSTX=210.0000
##LASTX=299.0000
##FIRSTY=2.93
##MAXX=299
##MINX=210
##MAXY=3.28001
##MINY=2.15
##NPOINTS=90
##$REF AUTHOR=Bredereck, H.; Gompper, R.; Morlock, G.
##$REF TITLE=Eine neue pyrimidin-synthese
##$REF JOURNAL=Chem. Ber.
##$REF VOLUME=90
##$REF PAGE=942-952
##$REF DATE=1957
##XYPOINTS=(XY..XY)
210.0000,2.930001
211.0000,2.860000
212.0000,2.850000
213.0000,2.790000
214.0000,2.760000
215.0000,2.720000
216.0000,2.680000
217.0000,2.660000
218.0000,2.640000
219.0000,2.640000
220.0000,2.630000
221.0000,2.630000
222.0000,2.640000
223.0000,2.660000
224.0000,2.700000
225.0000,2.720000
226.0000,2.760000
227.0000,2.810000
228.0000,2.900000
229.0000,2.940000
230.0000,2.979999
231.0000,3.010000
232.0000,3.040000
233.0000,3.070000
234.0000,3.100000
235.0000,3.140000
236.0000,3.170000
237.0000,3.200000
238.0000,3.230000
239.0000,3.280000
240.0000,3.280009
241.0000,3.250000
242.0000,3.250000
243.0000,3.270000
244.0000,3.280000
245.0000,3.280000
246.0000,3.270000
247.0000,3.220000
248.0000,3.190000
249.0000,3.130000
250.0000,3.060018
251.0000,2.950000
252.0000,2.810000
253.0000,2.690000
254.0000,2.570000
255.0000,2.500000
256.0000,2.440000
257.0000,2.390000
258.0000,2.380000
259.0000,2.370000
260.0000,2.360006
261.0000,2.350000
262.0000,2.350000
263.0000,2.350000
264.0000,2.360000
265.0000,2.370000
266.0000,2.380000
267.0000,2.380000
268.0000,2.390000
269.0000,2.400000
270.0000,2.410001
271.0000,2.420000
272.0000,2.430000
273.0000,2.440000
274.0000,2.450000
275.0000,2.460000
276.0000,2.470000
277.0000,2.470000
278.0000,2.480000
279.0000,2.480000
280.0000,2.480007
281.0000,2.480000
282.0000,2.470000
283.0000,2.470000
284.0000,2.460000
285.0000,2.450000
286.0000,2.440000
287.0000,2.420000
288.0000,2.410000
289.0000,2.390000
290.0000,2.369995
291.0000,2.350000
292.0000,2.330000
293.0000,2.310000
294.0000,2.290000
295.0000,2.250000
296.0000,2.230000
297.0000,2.200000
298.0000,2.190000
299.0000,2.150000
##END=
