##TITLE=Pyrazine
##JCAMP-DX=4.24
##DATA TYPE=UV/VIS SPECTRUM
##ORIGIN=INSTITUTE OF ENERGY PROBLEMS OF CHEMICAL PHYSICS, RAS
##OWNER=INEP CP RAS, NIST OSRD
Collection (C) 2007 copyright by the U.S. Secretary of Commerce
on behalf of the United States of America. All rights reserved.
##CAS REGISTRY NO=290-37-9
##MOLFORM=C4H4N2
##MP=47
##BP=115.5-115.8/ 768.4 mm
##SOURCE REFERENCE=RAS UV No. 10436
##$NIST SQUIB=1951HAL/HIR711
##$NIST SOURCE=TYUGLMTE
##SPECTROMETER/DATA SYSTEM=Beckman DU
##XUNITS=Wavelength (nm)
##YUNITS=Logarithm epsilon
##XFACTOR=1.0
##YFACTOR=1.0
##FIRSTX=215.81
##LASTX=329.59
##FIRSTY=2.031
##MAXX=329.59
##MINX=215.81
##MAXY=3.803
##MINY=1.799
##NPOINTS=154
##$REF AUTHOR=Halverson, F.; Hirt, R.C.
##$REF JOURNAL=J. Chem. Phys.
##$REF VOLUME=19
##$REF PAGE=711
##$REF DATE=1951
##XYPOINTS=(XY..XY)
215.81,2.031
216.32,2.036
216.82,2.046
217.33,2.056
217.83,2.056
218.34,2.076
218.86,2.090
219.37,2.110
219.89,2.120
220.41,2.135
220.93,2.150
221.46,2.164
221.99,2.189
222.52,2.209
223.05,2.224
223.58,2.243
224.12,2.283
224.66,2.308
225.21,2.337
225.75,2.362
226.30,2.401
226.85,2.431
227.41,2.470
227.96,2.500
228.52,2.530
229.08,2.569
229.65,2.599
230.22,2.633
230.79,2.668
231.36,2.692
231.94,2.727
232.51,2.762
233.10,2.796
233.68,2.831
234.27,2.860
234.86,2.900
235.45,2.929
236.05,2.959
236.65,2.993
237.25,3.028
237.86,3.067
238.47,3.107
239.08,3.137
239.69,3.166
240.31,3.201
240.93,3.235
241.56,3.270
242.19,3.304
242.82,3.329
243.45,3.359
244.09,3.393
244.73,3.418
245.38,3.438
246.02,3.467
246.68,3.487
247.33,3.516
247.99,3.536
248.65,3.561
249.32,3.586
249.99,3.610
250.66,3.635
251.33,3.660
252.01,3.669
252.70,3.679
253.39,3.684
254.08,3.689
254.77,3.699
255.47,3.709
256.17,3.734
256.88,3.778
257.59,3.798
258.30,3.803
259.02,3.803
259.74,3.798
260.47,3.773
261.20,3.753
261.94,3.734
262.67,3.714
263.42,3.704
264.16,3.709
264.91,3.709
265.67,3.709
266.43,3.689
267.19,3.660
267.96,3.590
268.74,3.502
269.51,3.413
270.30,3.304
271.08,3.245
271.87,3.156
272.67,3.097
273.47,3.033
274.28,2.964
275.09,2.914
275.90,2.865
276.72,2.821
277.54,2.786
278.37,2.762
279.21,2.742
280.05,2.727
280.89,2.707
281.74,2.702
282.60,2.692
283.46,2.688
284.32,2.683
285.19,2.688
286.07,2.688
286.95,2.697
287.84,2.702
288.73,2.712
289.62,2.727
290.53,2.742
291.44,2.757
292.35,2.776
293.27,2.786
294.20,2.801
295.13,2.806
296.07,2.821
297.01,2.826
297.96,2.831
298.92,2.845
299.88,2.850
300.85,2.855
301.82,2.860
302.81,2.870
303.79,2.870
304.79,2.870
305.79,2.865
306.79,2.855
307.81,2.850
308.83,2.840
309.86,2.831
310.89,2.816
311.93,2.791
312.98,2.771
314.03,2.752
315.10,2.717
316.17,2.688
317.24,2.643
318.33,2.594
319.42,2.535
320.52,2.461
321.62,2.382
322.74,2.298
323.86,2.234
324.99,2.115
326.13,2.012
327.27,1.913
328.14,1.829
328.43,1.824
328.72,1.819
329.01,1.814
329.30,1.804
329.59,1.799
##END=
