##TITLE=Propen-2-ol
##JCAMP-DX=4.24
##DATA TYPE=UV/VIS SPECTRUM
##ORIGIN=INSTITUTE OF ENERGY PROBLEMS OF CHEMICAL PHYSICS, RAS
##OWNER=INEP CP RAS, NIST OSRD
Collection (C) 2007 copyright by the U.S. Secretary of Commerce
on behalf of the United States of America. All rights reserved.
##CAS REGISTRY NO=29456-04-0
##MOLFORM=C3H6O
##BP=95-97
##SOURCE REFERENCE=RAS UV No. 19912
##$NIST SQUIB=1966PERa1/1
##$NIST SOURCE=TYUGLMTE
##SPECTROMETER/DATA SYSTEM=Zeiss PMQ II
##XUNITS=Wavelength (nm)
##YUNITS=Logarithm epsilon
##XFACTOR=1.0
##YFACTOR=1.0
##FIRSTX=181.96
##LASTX=208.46
##FIRSTY=3.789
##MAXX=208.46
##MINX=181.96
##MAXY=3.789
##MINY=1.019
##NPOINTS=121
##$REF AUTHOR=Perkampus, H.-H.
##$REF JOURNAL=UV atlas of organic compounds
##$REF VOLUME=1
##$REF PAGE=A1/1
##$REF DATE=1966
##XYPOINTS=(XY..XY)
181.96,3.789
182.03,3.787
182.10,3.785
182.16,3.783
182.24,3.780
182.32,3.777
182.39,3.775
182.46,3.772
182.53,3.770
182.60,3.768
182.67,3.766
182.74,3.763
182.80,3.760
182.87,3.756
182.93,3.752
182.99,3.749
183.07,3.743
183.24,3.734
183.46,3.725
183.68,3.715
183.89,3.706
184.11,3.698
184.32,3.689
184.53,3.681
184.76,3.672
184.98,3.666
185.20,3.657
185.42,3.649
185.64,3.638
185.86,3.630
186.08,3.619
186.31,3.609
186.53,3.600
186.75,3.589
186.98,3.581
187.20,3.572
187.42,3.562
187.65,3.553
187.88,3.543
188.10,3.532
188.33,3.522
188.56,3.510
188.79,3.498
189.01,3.485
189.24,3.475
189.47,3.462
189.70,3.451
189.94,3.439
190.17,3.422
190.40,3.411
190.63,3.398
190.86,3.381
191.10,3.369
191.33,3.354
191.57,3.339
191.80,3.322
192.04,3.307
192.28,3.290
192.51,3.271
192.75,3.252
192.99,3.237
193.23,3.218
193.47,3.199
193.71,3.180
193.95,3.158
194.19,3.143
194.43,3.122
194.68,3.099
194.92,3.075
195.16,3.050
195.41,3.027
195.65,2.999
195.90,2.980
196.14,2.948
196.39,2.922
196.64,2.893
196.89,2.863
197.13,2.837
197.39,2.810
197.64,2.776
197.89,2.746
198.14,2.714
198.39,2.685
198.64,2.653
198.90,2.623
199.14,2.596
199.40,2.563
199.66,2.536
199.91,2.502
200.17,2.472
200.43,2.438
200.69,2.400
200.94,2.364
201.20,2.321
201.46,2.277
201.72,2.234
201.99,2.187
202.25,2.136
202.51,2.090
202.74,2.047
203.04,1.996
203.25,1.956
203.57,1.905
203.83,1.854
204.06,1.812
204.37,1.758
204.63,1.701
204.90,1.654
205.17,1.601
205.44,1.552
205.71,1.514
205.99,1.467
206.26,1.416
206.53,1.372
206.81,1.314
207.08,1.261
207.35,1.215
207.63,1.166
207.91,1.115
208.19,1.062
208.46,1.019
##END=
