##TITLE=4-(4'-methoxyphenyl)azo-1-naphthol
##JCAMP-DX=4.24
##DATA TYPE=UV/VIS SPECTRUM
##ORIGIN=INSTITUTE OF ENERGY PROBLEMS OF CHEMICAL PHYSICS, RAS
##OWNER=INEP CP RAS, NIST OSRD
Collection (C) 2007 copyright by the U.S. Secretary of Commerce
on behalf of the United States of America. All rights reserved.
##CAS REGISTRY NO=3009-53-8
##MOLFORM=C17H14N2O2
##SOURCE REFERENCE=RAS UV No. 22166
##$NIST SQUIB=1978S/3882
##$NIST SOURCE=TYUGLMTE
##SPECTROMETER/DATA SYSTEM=Shimadzu MPS-50 L
##XUNITS=Wavelength (nm)
##YUNITS=Logarithm epsilon
##XFACTOR=1.0
##YFACTOR=1.0
##FIRSTX=319.446
##LASTX=570.333
##FIRSTY=3.773
##MAXX=570.333
##MINX=319.446
##MAXY=4.261
##MINY=3.202
##NPOINTS=127
##$REF AUTHOR=kishimoto, S.; et al.
##$REF JOURNAL=J. Org. Chem.
##$REF VOLUME=43
##$REF PAGE=3882
##$REF DATE=1978
##XYPOINTS=(XY..XY)
319.446,3.773
321.446,3.778
323.446,3.779
325.446,3.780
327.446,3.780
329.446,3.779
331.446,3.779
333.446,3.779
335.446,3.781
337.446,3.784
339.446,3.788
341.446,3.795
343.446,3.803
345.446,3.814
347.446,3.827
349.446,3.843
351.446,3.860
353.446,3.880
355.446,3.901
357.446,3.925
359.446,3.949
361.446,3.975
363.446,4.001
365.446,4.028
367.446,4.054
369.446,4.079
371.446,4.103
373.446,4.125
375.446,4.144
376.983,4.163
378.983,4.181
380.983,4.196
382.983,4.208
384.983,4.218
386.983,4.227
388.983,4.234
390.983,4.241
392.983,4.248
394.983,4.253
396.983,4.257
398.983,4.260
400.983,4.261
402.983,4.261
404.983,4.258
406.983,4.253
408.983,4.245
410.983,4.234
412.983,4.220
414.983,4.205
416.983,4.187
418.983,4.168
420.983,4.149
423.481,4.126
425.481,4.110
427.481,4.094
429.481,4.079
431.481,4.063
433.481,4.048
435.481,4.033
437.481,4.019
439.481,4.006
441.481,3.993
443.481,3.981
445.481,3.970
447.481,3.960
449.481,3.950
451.481,3.940
453.481,3.931
455.481,3.923
457.481,3.915
459.481,3.908
461.281,3.900
463.281,3.898
465.281,3.894
467.281,3.889
469.281,3.884
471.281,3.881
473.281,3.879
475.281,3.878
477.281,3.877
479.281,3.875
481.281,3.872
483.281,3.868
485.281,3.861
487.281,3.853
489.281,3.846
491.281,3.841
493.137,3.840
495.060,3.841
497.060,3.838
499.060,3.834
501.060,3.831
503.060,3.828
505.060,3.824
507.060,3.819
509.060,3.814
511.060,3.808
513.060,3.801
515.060,3.793
517.060,3.785
519.060,3.775
521.060,3.764
523.060,3.752
525.060,3.740
527.060,3.726
529.060,3.711
531.060,3.696
533.060,3.680
535.060,3.664
537.060,3.646
539.060,3.628
541.060,3.610
543.060,3.591
545.060,3.571
547.060,3.550
549.060,3.529
551.060,3.507
553.060,3.484
555.060,3.459
557.060,3.434
559.060,3.406
561.060,3.377
563.060,3.345
565.060,3.311
567.060,3.273
569.060,3.231
570.333,3.202
##END=
