##TITLE=Benzene, 2-propenyl-
##JCAMP-DX=4.24
##DATA TYPE=UV/VIS SPECTRUM
##ORIGIN=INSTITUTE OF ENERGY PROBLEMS OF CHEMICAL PHYSICS, RAS
##OWNER=INEP CP RAS, NIST OSRD
Collection (C) 2007 copyright by the U.S. Secretary of Commerce
on behalf of the United States of America. All rights reserved.
##CAS REGISTRY NO=300-57-2
##MOLFORM=C9H10
##MP=-40
##BP=156
##SOURCE REFERENCE=RAS UV No. 3167
##$NIST SQUIB=1962RAB/AST746-747
##$NIST SOURCE=TSGMTE
##SPECTROMETER/DATA SYSTEM=n.i.g.
##XUNITS=Wavelength (nm)
##YUNITS=Logarithm epsilon
##XFACTOR=1.000000
##YFACTOR=1.000000
##FIRSTX=391.6436
##LASTX=469.6843
##FIRSTY=4.00102
##MAXX=469.684
##MINX=391.644
##MAXY=4.32354
##MINY=3.7432
##NPOINTS=513
##$REF AUTHOR=Rabinovich, E.A.; Astaf'ev, I.V.; Shatenshtein, A.I.
##$REF TITLE=The problem of the carbane ion mechanism of isomerization of unsaturated hydrocarbons
##$REF JOURNAL=Zh. Obshch. Khim.
##$REF VOLUME=32
##$REF PAGE=746-747
##$REF DATE=1962
##XYPOINTS=(XY..XY)
391.6436,4.001017
391.6436,4.001903
391.7729,4.002790
391.7729,4.004673
391.9184,4.004673
391.9184,4.007443
392.4518,4.026832
392.4518,4.033369
392.9852,4.038909
392.9852,4.041679
393.1307,4.041679
393.1307,4.044449
393.2600,4.045335
393.2600,4.048105
393.3893,4.048991
393.3893,4.051872
393.5348,4.052758
393.5348,4.053645
393.6641,4.054642
393.6641,4.057412
393.7934,4.058298
393.7934,4.060182
393.9227,4.060182
393.9227,4.062952
394.4723,4.074031
394.4723,4.075804
394.6016,4.076801
395.0057,4.084113
395.0057,4.085997
395.1350,4.086883
396.4928,4.108156
396.4928,4.109153
396.6221,4.110040
396.6221,4.110926
396.7515,4.110926
396.7515,4.112809
396.8969,4.112809
396.8969,4.115579
397.0263,4.116466
397.0263,4.118349
397.1556,4.119236
397.1556,4.122005
397.3010,4.123003
397.3010,4.123889
397.4304,4.124775
397.4304,4.126659
397.5597,4.126659
397.5597,4.129429
397.7051,4.130426
397.7051,4.133196
397.8345,4.134082
397.8345,4.136852
397.9638,4.137738
397.9638,4.139622
398.1093,4.140508
398.1093,4.141505
398.2386,4.141505
398.2386,4.143278
398.3679,4.144275
399.3054,4.162667
399.4509,4.163664
399.4509,4.164551
399.5802,4.165437
400.7925,4.184937
400.9218,4.185823
400.9218,4.187707
401.0673,4.187707
401.0673,4.189480
401.4714,4.193247
401.4714,4.196017
401.6007,4.196903
401.6007,4.197789
401.7300,4.197789
401.7300,4.199673
401.8755,4.199673
401.8755,4.200559
402.0048,4.201556
402.1341,4.204326
402.1341,4.208980
402.2796,4.209866
402.2796,4.210752
402.4089,4.211750
402.4089,4.213522
402.5382,4.213522
402.5382,4.215406
403.0717,4.221832
403.2171,4.222829
403.2171,4.224602
403.7506,4.232025
403.8799,4.232911
403.8799,4.233909
404.0253,4.234795
404.5588,4.242218
404.5588,4.243105
404.6881,4.243991
405.4963,4.254184
405.4963,4.255181
405.6418,4.256068
405.6418,4.257951
405.7711,4.257951
405.7711,4.258838
406.0459,4.260721
406.0459,4.261607
406.1752,4.262494
406.3045,4.262494
406.3045,4.263491
406.4500,4.263491
406.4500,4.264377
406.5793,4.265264
406.5793,4.266261
407.2582,4.270803
407.2582,4.271801
407.3875,4.272687
407.3875,4.273573
407.5168,4.273573
407.5168,4.274570
407.7916,4.276343
409.2625,4.289306
409.5373,4.291190
411.4285,4.303156
411.6872,4.305039
411.8326,4.305039
411.8326,4.305926
411.9620,4.305926
412.0913,4.306923
412.2206,4.306923
412.2206,4.307809
412.3661,4.307809
412.4954,4.308695
412.6247,4.308695
412.6247,4.309693
412.8995,4.309693
413.0288,4.310579
413.3036,4.310579
413.3036,4.311465
413.5784,4.311465
413.5784,4.312462
413.8370,4.312462
413.8370,4.313349
414.1118,4.313349
414.1118,4.314235
414.2411,4.314235
414.3866,4.315232
414.6452,4.315232
414.6452,4.316119
414.9200,4.316119
415.0493,4.317005
415.1948,4.317005
415.3241,4.318002
415.7282,4.318002
415.8575,4.318889
417.1992,4.321658
417.4740,4.321658
418.5570,4.322545
418.8156,4.322545
421.3695,4.323542
421.7736,4.323542
421.9191,4.322545
422.0484,4.321658
422.0484,4.322545
422.1777,4.320772
422.1777,4.321658
422.4525,4.320772
422.7273,4.318889
422.8566,4.318889
423.1314,4.316119
423.1314,4.317005
423.2607,4.315232
423.2607,4.316119
423.3900,4.314235
423.3900,4.315232
423.5355,4.312462
423.5355,4.313349
423.6648,4.310579
423.6648,4.311465
423.7942,4.308695
423.7942,4.309693
423.9396,4.307809
423.9396,4.308695
424.0689,4.305926
424.0689,4.306923
424.1983,4.303156
424.1983,4.305039
427.7059,4.266261
427.7059,4.267147
427.8352,4.262494
427.8352,4.265264
427.9645,4.261607
427.9645,4.262494
428.1100,4.259724
428.1100,4.260721
428.2393,4.257951
428.2393,4.258838
428.3686,4.256068
428.3686,4.256954
428.5141,4.254184
428.5141,4.255181
428.6434,4.253298
428.6434,4.254184
428.7727,4.251414
428.7727,4.252411
428.9182,4.249642
428.9182,4.250528
429.0475,4.246761
429.0475,4.248644
429.3223,4.243991
429.3223,4.244988
429.4516,4.242218
429.4516,4.243105
430.2598,4.232911
430.2598,4.234795
430.7932,4.225599
430.7932,4.226485
430.9226,4.223715
430.9226,4.224602
431.6015,4.215406
431.6015,4.217289
431.7308,4.214519
432.0056,4.207983
432.0056,4.208980
432.1349,4.206099
432.1349,4.207096
432.2804,4.205213
432.2804,4.206099
432.5390,4.202443
432.5390,4.203329
432.6845,4.199673
432.6845,4.202443
432.8138,4.197789
432.8138,4.198787
432.9431,4.196017
432.9431,4.196903
433.2179,4.193247
433.2179,4.194133
433.3472,4.189480
433.3472,4.193247
433.4927,4.186710
433.4927,4.188593
433.6220,4.183940
433.6220,4.185823
433.7513,4.180284
433.7513,4.183054
433.8968,4.178400
433.8968,4.180284
434.1554,4.176627
434.1554,4.178400
434.1554,4.179397
434.1554,4.180284
434.1554,4.179397
434.3009,4.173858
434.3009,4.175630
434.9636,4.161781
434.9636,4.164551
436.9841,4.129429
436.9841,4.132199
437.1134,4.127545
437.1134,4.128542
437.2589,4.124775
437.2589,4.126659
437.3882,4.121119
437.3882,4.123889
437.6630,4.118349
437.6630,4.119236
437.7923,4.116466
437.7923,4.117463
437.9217,4.112809
437.9217,4.115579
438.0671,4.110926
438.0671,4.111923
438.1964,4.109153
438.1964,4.110040
438.3258,4.106383
438.3258,4.108156
438.4712,4.104500
438.4712,4.105386
439.0047,4.096190
439.0047,4.098074
439.1340,4.093420
439.1340,4.096190
439.8129,4.085111
439.8129,4.086883
439.9422,4.084113
440.0715,4.084113
440.3463,4.075804
440.3463,4.078574
440.3463,4.084113
440.4756,4.074917
440.6211,4.074917
440.8797,4.068491
440.8797,4.074917
441.1545,4.064724
441.1545,4.066608
441.4293,4.062952
441.5586,4.060182
441.5586,4.062952
441.6879,4.058298
441.6879,4.060182
441.8334,4.057412
441.8334,4.058298
442.0920,4.053645
442.0920,4.055528
442.2375,4.051872
442.2375,4.052758
442.3668,4.048991
442.3668,4.050875
442.4961,4.048991
442.6416,4.047219
442.6416,4.048105
442.7709,4.043452
442.7709,4.046221
442.9002,4.042565
442.9002,4.043452
443.1750,4.038909
443.1750,4.040682
443.3043,4.036139
443.3043,4.037912
443.4498,4.030599
443.4498,4.036139
443.5791,4.029602
443.7084,4.026832
443.7084,4.029602
443.8377,4.025060
443.8377,4.026832
443.9832,4.023176
443.9832,4.024062
444.1125,4.021292
444.1125,4.023176
444.2419,4.019520
444.2419,4.021292
444.3873,4.016750
444.3873,4.018523
444.5166,4.013980
444.5166,4.015753
444.6460,4.012983
444.6460,4.013980
444.7914,4.010213
444.7914,4.012096
447.2161,3.976088
447.2161,3.977861
447.3454,3.974204
447.3454,3.976088
447.7495,3.964898
447.7495,3.966781
447.8788,3.963125
447.8788,3.964011
448.0243,3.961241
448.0243,3.963125
448.1536,3.958472
448.1536,3.960355
448.2829,3.956588
448.2829,3.957585
448.4122,3.953818
448.4122,3.955702
448.5577,3.952932
448.5577,3.953818
448.6870,3.950162
448.6870,3.952932
448.8163,3.948278
448.8163,3.950162
448.9618,3.947392
448.9618,3.948278
449.0911,3.945509
449.0911,3.946506
449.3659,3.942739
449.3659,3.943736
449.4952,3.940966
449.4952,3.941852
449.6245,3.939969
449.6245,3.940966
449.7700,3.938196
449.7700,3.939082
450.0286,3.936313
450.5782,3.928003
450.5782,3.929776
450.7075,3.927006
451.9198,3.909500
451.9198,3.911384
452.0492,3.908614
452.0492,3.909500
452.1946,3.907617
452.7281,3.896537
452.7281,3.898421
452.8574,3.894764
452.8574,3.895651
452.9867,3.892881
452.9867,3.894764
453.2615,3.890111
453.2615,3.890997
453.3908,3.888227
453.3908,3.889114
453.5363,3.885457
453.5363,3.887341
453.6656,3.884571
453.6656,3.885457
453.7949,3.882688
453.7949,3.883574
453.9404,3.881801
454.0697,3.880804
454.0697,3.881801
454.1990,3.879031
454.1990,3.880804
454.4738,3.876261
454.4738,3.877148
454.6031,3.874378
454.6031,3.876261
454.8779,3.871608
454.8779,3.872494
455.8154,3.861415
455.8154,3.862412
456.0902,3.859642
456.7691,3.852219
456.7691,3.853105
456.8984,3.851222
457.5611,3.842912
457.5611,3.844796
457.7066,3.842026
457.7066,3.842912
457.8359,3.841139
457.8359,3.842026
457.9653,3.840142
458.3694,3.840142
458.6441,3.837372
458.6441,3.838369
458.7735,3.833716
458.7735,3.837372
458.9189,3.832830
459.0483,3.831833
459.0483,3.832830
459.3230,3.828176
459.3230,3.830060
459.4524,3.828176
459.5817,3.826293
459.5817,3.827290
459.7271,3.824520
459.7271,3.826293
459.8565,3.823523
459.8565,3.824520
459.9858,3.822637
460.1313,3.821750
460.1313,3.822637
460.2606,3.819867
460.2606,3.821750
460.5354,3.817097
460.5354,3.817983
460.6647,3.816210
460.7940,3.815213
460.7940,3.816210
460.9395,3.813441
460.9395,3.815213
461.0688,3.812443
461.0688,3.813441
461.4729,3.808787
461.4729,3.809674
461.6022,3.806904
461.6022,3.808787
461.7477,3.806017
461.8770,3.805020
461.8770,3.806017
462.0063,3.803247
462.0063,3.804134
462.1356,3.801364
462.1356,3.802250
462.2811,3.801364
462.4104,3.799480
462.4104,3.800478
462.5397,3.797708
462.5397,3.799480
462.6852,3.795824
462.6852,3.796710
462.8145,3.795824
462.9438,3.794938
463.0893,3.793941
463.0893,3.794938
463.4934,3.793054
463.4934,3.793941
463.6227,3.792168
463.7520,3.790284
463.7520,3.792168
463.8975,3.790284
464.0268,3.789398
464.1561,3.788401
464.1561,3.789398
464.3016,3.786628
464.3016,3.788401
464.4309,3.786628
464.5602,3.784745
464.5602,3.785631
464.7057,3.784745
464.8350,3.781975
464.8350,3.783858
464.9643,3.781088
465.1098,3.780091
465.1098,3.781088
465.2391,3.777321
465.2391,3.780091
465.3685,3.775549
465.3685,3.776435
465.5139,3.774551
465.5139,3.775549
465.7726,3.774551
465.9180,3.772779
465.9180,3.773665
466.0473,3.771782
468.1972,3.755162
468.1972,3.756049
468.4720,3.752392
468.4720,3.753279
468.6013,3.752392
468.8761,3.748736
468.8761,3.750509
469.0054,3.747739
469.0054,3.748736
469.6843,3.743196
##END=
