##TITLE=Phenazine, 5-oxide
##JCAMP-DX=4.24
##DATA TYPE=UV/VIS SPECTRUM
##ORIGIN=INSTITUTE OF ENERGY PROBLEMS OF CHEMICAL PHYSICS, RAS
##OWNER=INEP CP RAS, NIST OSRD
Collection (C) 2007 copyright by the U.S. Secretary of Commerce
on behalf of the United States of America. All rights reserved.
##CAS REGISTRY NO=304-81-4
##MOLFORM=C12H8N2O
##MP=266
##SOURCE REFERENCE=RAS UV No. 17153
##$NIST SQUIB=1974ALB/342
##$NIST SOURCE=TYUGLMTE
##SPECTROMETER/DATA SYSTEM=Perkin-Elmer 137
##XUNITS=Wavelength (nm)
##YUNITS=Logarithm epsilon
##XFACTOR=1.0
##YFACTOR=1.0
##FIRSTX=342.95
##LASTX=461.96
##FIRSTY=3.401
##MAXX=461.96
##MINX=342.95
##MAXY=4.049
##MINY=2.885
##NPOINTS=415
##$REF AUTHOR=Albini, A.; et al.
##$REF JOURNAL=J. Chem. Soc. Perkin. Trans.
##$REF VOLUME=II
##$REF PAGE=342
##$REF DATE=1974
##XYPOINTS=(XY..XY)
342.95,3.401
343.22,3.401
343.75,3.403
344.30,3.406
345.56,3.413
346.62,3.419
347.02,3.421
348.14,3.427
349.66,3.434
351.09,3.442
351.64,3.446
351.89,3.448
352.18,3.451
352.47,3.454
352.73,3.457
353.00,3.460
353.32,3.463
353.54,3.465
353.78,3.467
354.09,3.469
354.36,3.474
354.63,3.478
354.90,3.482
355.13,3.484
355.44,3.487
355.72,3.491
355.99,3.495
356.31,3.499
356.57,3.501
356.80,3.504
357.07,3.506
357.35,3.508
357.62,3.512
357.89,3.516
358.16,3.520
358.43,3.524
358.71,3.528
358.98,3.532
359.18,3.536
359.56,3.541
359.79,3.544
360.06,3.547
360.34,3.551
360.61,3.555
360.88,3.562
361.15,3.566
361.42,3.570
361.69,3.577
361.97,3.584
362.24,3.584
362.51,3.587
362.78,3.594
363.05,3.597
363.32,3.597
363.60,3.601
363.87,3.604
364.14,3.604
364.41,3.607
364.68,3.611
364.95,3.614
365.23,3.617
365.50,3.620
365.77,3.620
366.04,3.624
366.31,3.630
366.59,3.630
366.86,3.633
367.13,3.636
367.40,3.639
367.67,3.642
367.94,3.645
368.22,3.654
368.49,3.663
368.76,3.669
369.03,3.680
369.30,3.685
369.57,3.694
369.85,3.704
370.12,3.707
370.39,3.717
370.66,3.720
370.93,3.727
371.20,3.730
371.48,3.732
371.75,3.735
372.02,3.737
372.29,3.742
372.56,3.742
372.83,3.742
373.11,3.742
373.38,3.744
373.65,3.744
373.92,3.747
374.19,3.747
374.47,3.749
374.74,3.749
375.01,3.749
375.28,3.749
375.55,3.749
375.82,3.749
376.10,3.749
376.37,3.747
376.64,3.747
376.91,3.747
377.18,3.749
377.45,3.749
377.73,3.749
378.00,3.749
378.27,3.749
378.54,3.749
378.81,3.749
379.08,3.749
379.36,3.749
379.63,3.749
379.90,3.752
380.17,3.752
380.44,3.754
380.71,3.754
380.99,3.754
381.53,3.756
381.80,3.759
382.07,3.761
382.62,3.768
382.89,3.770
383.16,3.777
383.43,3.788
383.70,3.796
383.98,3.803
384.25,3.807
384.52,3.811
384.79,3.813
385.06,3.821
385.33,3.829
385.61,3.839
385.88,3.849
386.15,3.850
386.42,3.858
386.69,3.867
386.96,3.872
387.24,3.878
387.51,3.879
387.78,3.885
388.05,3.890
388.32,3.893
388.59,3.897
388.87,3.898
389.14,3.903
389.41,3.905
389.68,3.907
389.95,3.910
390.22,3.912
390.50,3.912
390.77,3.913
391.04,3.915
391.31,3.915
391.58,3.917
391.86,3.920
392.13,3.920
392.40,3.921
392.67,3.923
392.94,3.925
393.21,3.928
393.49,3.929
393.76,3.929
394.03,3.931
394.30,3.934
394.57,3.935
394.84,3.939
395.12,3.943
395.39,3.946
395.66,3.946
395.93,3.952
396.20,3.958
396.47,3.962
396.75,3.967
397.02,3.973
397.29,3.975
397.56,3.982
397.83,3.986
398.10,3.991
398.38,3.996
398.65,4.001
398.92,4.004
399.19,4.009
399.46,4.011
399.74,4.014
400.01,4.016
400.28,4.016
400.55,4.013
400.82,4.009
401.09,4.007
401.37,4.003
401.64,3.999
401.91,3.995
402.18,3.991
402.45,3.988
402.72,3.982
403.00,3.980
403.27,3.974
403.54,3.971
403.81,3.967
404.08,3.964
404.35,3.960
404.63,3.955
404.90,3.945
405.17,3.940
405.44,3.935
405.71,3.928
405.98,3.921
406.26,3.915
406.53,3.913
406.80,3.912
407.07,3.908
407.34,3.905
407.61,3.903
407.89,3.903
408.16,3.902
408.43,3.902
408.70,3.902
408.97,3.902
409.25,3.902
409.52,3.902
409.79,3.903
410.06,3.903
410.33,3.907
410.60,3.910
410.88,3.912
411.15,3.913
411.42,3.915
411.69,3.918
411.96,3.923
412.23,3.928
412.51,3.929
412.78,3.934
413.05,3.937
413.32,3.940
413.59,3.945
413.86,3.946
414.14,3.951
414.41,3.952
414.68,3.958
414.95,3.962
415.22,3.968
415.49,3.974
415.77,3.980
416.04,3.981
416.31,3.985
416.58,3.986
416.85,3.991
417.13,3.995
417.40,3.996
417.67,4.000
417.94,4.001
418.21,4.001
418.48,4.000
418.76,3.996
419.03,3.993
419.30,3.988
419.57,3.985
419.84,3.980
420.11,3.977
420.39,3.973
420.66,3.967
420.93,3.965
421.20,3.962
421.47,3.958
421.74,3.957
422.02,3.951
422.29,3.942
422.56,3.935
422.83,3.929
423.10,3.925
423.37,3.913
423.65,3.910
423.92,3.905
424.19,3.902
424.46,3.895
424.73,3.890
425.01,3.885
425.28,3.881
425.55,3.874
425.82,3.869
426.09,3.865
426.36,3.858
426.64,3.854
426.91,3.849
427.18,3.845
427.45,3.839
427.72,3.835
427.99,3.831
428.27,3.829
428.54,3.827
428.81,3.825
429.08,3.825
429.35,3.823
429.62,3.821
429.90,3.821
430.17,3.821
430.44,3.821
430.71,3.823
430.98,3.825
431.25,3.825
431.53,3.827
431.80,3.829
432.07,3.833
432.34,3.835
432.61,3.837
432.89,3.841
433.16,3.843
433.43,3.847
433.70,3.849
433.97,3.852
434.24,3.856
434.52,3.858
434.79,3.863
435.06,3.867
435.33,3.872
435.60,3.878
435.87,3.883
436.15,3.885
436.42,3.892
436.69,3.900
436.96,3.905
437.23,3.910
437.50,3.913
437.78,3.918
438.05,3.925
438.32,3.932
438.59,3.945
438.86,3.945
439.13,3.949
439.41,3.957
439.68,3.964
439.95,3.971
440.22,3.982
440.49,3.992
440.76,4.000
441.04,4.009
441.31,4.016
441.58,4.021
441.85,4.027
442.12,4.033
442.40,4.039
442.67,4.043
442.94,4.045
443.21,4.049
443.48,4.049
443.75,4.048
444.03,4.044
444.30,4.039
444.57,4.037
444.84,4.033
445.11,4.031
445.38,4.026
445.66,4.022
445.93,4.016
446.20,4.013
446.47,4.005
446.74,3.992
447.01,3.985
447.29,3.973
447.56,3.967
447.83,3.957
448.10,3.940
448.30,3.926
448.64,3.915
448.92,3.893
449.19,3.881
449.39,3.874
449.73,3.863
449.93,3.853
450.28,3.835
450.47,3.813
450.82,3.788
451.09,3.775
451.36,3.761
451.63,3.747
451.91,3.735
452.18,3.709
452.45,3.688
452.72,3.674
452.99,3.639
453.26,3.566
453.54,3.528
453.81,3.491
454.08,3.469
454.35,3.436
454.62,3.416
454.89,3.390
455.17,3.373
455.44,3.344
455.71,3.319
455.98,3.300
456.25,3.279
456.52,3.258
456.80,3.243
457.07,3.211
457.34,3.194
457.61,3.186
457.88,3.150
458.16,3.130
458.43,3.100
458.70,3.089
458.97,3.067
459.24,3.043
459.51,3.018
459.79,2.992
460.06,2.978
460.33,2.978
460.60,2.964
460.87,2.949
461.14,2.918
461.42,2.902
461.69,2.902
461.96,2.885
##END=
