##TITLE=3-(1-methyl-1H-benzimidazol-2-yl)-2-propenoic acid, methyl ester
##JCAMP-DX=4.24
##DATA TYPE=UV/VIS SPECTRUM
##ORIGIN=INSTITUTE OF ENERGY PROBLEMS OF CHEMICAL PHYSICS, RAS
##OWNER=INEP CP RAS, NIST OSRD
Collection (C) 2007 copyright by the U.S. Secretary of Commerce
on behalf of the United States of America. All rights reserved.
##CAS REGISTRY NO=30780-01-9
##MOLFORM=C12H12N2O2
##MP=130
##SOURCE REFERENCE=RAS UV No. 23654
##$NIST SQUIB=1974POP/408
##$NIST SOURCE=TYUGLMTE
##SPECTROMETER/DATA SYSTEM=SF-4A
##XUNITS=Wavelength (nm)
##YUNITS=Logarithm epsilon
##XFACTOR=1.0
##YFACTOR=1.0
##FIRSTX=228.161
##LASTX=375.307
##FIRSTY=4.117
##MAXX=375.307
##MINX=228.161
##MAXY=4.413
##MINY=2.846
##NPOINTS=101
##$REF AUTHOR=Popov, I.I.; et al.
##$REF JOURNAL=Khim. Geterosikl. Soedin.
##$REF PAGE=408
##$REF DATE=1974
##XYPOINTS=(XY..XY)
228.161,4.117
229.661,4.097
231.161,4.080
232.661,4.065
234.161,4.051
235.661,4.040
237.161,4.030
238.661,4.023
240.161,4.018
241.661,4.014
243.407,4.014
244.793,4.005
246.410,3.987
247.796,3.956
249.294,3.911
250.468,3.863
251.492,3.807
252.992,3.682
254.492,3.473
255.188,3.350
256.112,3.239
257.612,3.073
259.112,2.964
260.612,2.901
262.112,2.877
263.612,2.881
265.112,2.906
266.612,2.943
268.112,2.987
269.612,3.035
271.112,3.087
272.858,3.160
274.358,3.258
275.858,3.357
277.358,3.439
278.981,3.502
280.481,3.547
281.981,3.591
283.481,3.629
284.981,3.678
285.911,3.750
286.718,3.824
288.218,3.918
289.718,3.979
291.218,4.011
292.718,4.026
294.218,4.037
295.843,4.056
297.343,4.069
298.843,4.085
300.343,4.110
301.843,4.142
303.343,4.179
304.843,4.219
306.343,4.257
307.624,4.288
309.124,4.305
310.624,4.323
312.124,4.340
313.624,4.356
315.124,4.371
316.624,4.383
318.124,4.393
319.624,4.401
321.124,4.407
322.624,4.411
324.124,4.413
325.624,4.413
327.124,4.412
328.624,4.409
330.124,4.404
331.624,4.397
333.124,4.388
334.624,4.376
336.124,4.363
337.624,4.347
339.124,4.329
340.624,4.309
342.124,4.287
343.624,4.264
345.124,4.239
346.624,4.213
348.124,4.186
349.624,4.158
351.124,4.128
352.624,4.097
354.124,4.064
355.624,4.027
357.124,3.985
358.624,3.937
360.124,3.880
361.624,3.813
363.124,3.733
364.624,3.639
366.124,3.530
367.624,3.406
369.124,3.272
370.624,3.135
372.124,3.007
373.624,2.908
375.307,2.846
##END=
