##TITLE=Phenanthro[4,5-bcd]thiphene
##JCAMP-DX=4.24
##DATA TYPE=UV/VIS SPECTRUM
##ORIGIN=INSTITUTE OF ENERGY PROBLEMS OF CHEMICAL PHYSICS, RAS
##OWNER=INEP CP RAS, NIST OSRD
Collection (C) 2007 copyright by the U.S. Secretary of Commerce
on behalf of the United States of America. All rights reserved.
##CAS REGISTRY NO=30796-92-0
##MOLFORM=C14H8S
##MP=139-140
##SOURCE REFERENCE=RAS UV No. 22437
##$NIST SQUIB=1977HOR3329
##$NIST SOURCE=TYUGLMTE
##SPECTROMETER/DATA SYSTEM=Shimadzu UV-200
##XUNITS=Wavelength (nm)
##YUNITS=Logarithm epsilon
##XFACTOR=1.0
##YFACTOR=1.0
##FIRSTX=212.744
##LASTX=361.22
##FIRSTY=3.814
##MAXX=361.22
##MINX=212.744
##MAXY=4.641
##MINY=2.934
##NPOINTS=104
##$REF AUTHOR=Horaguchi, T.
##$REF JOURNAL=Bull. Chem. Soc. Japan
##$REF VOLUME=50
##$REF PAGE=3329
##$REF DATE=1977
##XYPOINTS=(XY..XY)
212.744,3.814
214.479,3.928
215.979,4.035
217.479,4.145
218.979,4.243
220.501,4.326
221.834,4.395
223.501,4.452
225.001,4.498
226.501,4.500
228.001,4.456
229.758,4.413
231.258,4.393
232.758,4.388
234.258,4.395
235.758,4.412
237.258,4.434
238.601,4.449
240.101,4.476
241.601,4.477
243.101,4.449
244.478,4.390
245.978,4.343
247.478,4.301
248.978,4.263
250.478,4.227
251.978,4.192
253.478,4.157
254.978,4.122
256.478,4.089
257.978,4.061
259.611,4.035
261.111,4.034
262.611,4.049
264.111,4.073
265.853,4.091
267.369,4.134
268.869,4.319
270.549,4.513
271.160,4.577
272.114,4.635
273.369,4.641
274.096,4.619
274.566,4.582
274.801,4.549
276.301,4.332
277.801,4.114
279.301,3.922
280.801,3.747
281.241,3.676
282.883,3.524
284.383,3.493
286.319,3.518
287.965,3.544
289.375,3.565
290.474,3.592
291.904,3.618
293.335,3.650
295.051,3.681
296.551,3.719
298.051,3.755
299.551,3.790
301.051,3.823
302.634,3.867
303.949,3.899
305.449,3.945
306.949,3.976
308.449,3.991
309.949,3.994
311.449,3.987
312.949,3.973
314.449,3.956
316.027,3.939
317.527,3.922
319.027,3.905
320.527,3.892
322.027,3.884
323.527,3.885
325.027,3.895
326.527,3.915
328.027,3.948
329.646,4.003
330.896,4.049
332.393,4.037
333.396,3.923
334.646,3.780
336.859,3.526
338.109,3.470
340.708,3.444
343.676,3.439
344.926,3.400
346.176,3.314
347.426,3.205
348.612,3.104
349.862,3.001
351.112,2.949
352.362,2.939
353.612,2.959
354.516,2.985
355.974,3.022
357.224,3.028
358.474,3.010
359.884,2.978
361.220,2.934
##END=
