##TITLE=Sulfone, methyl phenyl
##JCAMP-DX=4.24
##DATA TYPE=UV/VIS SPECTRUM
##ORIGIN=INSTITUTE OF ENERGY PROBLEMS OF CHEMICAL PHYSICS, RAS
##OWNER=INEP CP RAS, NIST OSRD
Collection (C) 2007 copyright by the U.S. Secretary of Commerce
on behalf of the United States of America. All rights reserved.
##CAS REGISTRY NO=3112-85-4
##MOLFORM=C7H8O2S
##MP=86-88
##SOURCE REFERENCE=RAS UV No. 12270
##$NIST SQUIB=1953KLO/BAS655
##$NIST SOURCE=TYUGLMTE
##SPECTROMETER/DATA SYSTEM=Beckman DU
##XUNITS=Wavelength (nm)
##YUNITS=Logarithm epsilon
##XFACTOR=1.0
##YFACTOR=1.0
##FIRSTX=208.13
##LASTX=271.48
##FIRSTY=3.834
##MAXX=271.48
##MINX=208.13
##MAXY=3.834
##MINY=3.043
##NPOINTS=126
##$REF AUTHOR=Kloosterziel, H.; Basker, H.J.
##$REF JOURNAL=Rec. trav. chim.
##$REF VOLUME=72
##$REF PAGE=655
##$REF DATE=1953
##XYPOINTS=(XY..XY)
208.13,3.834
208.44,3.816
208.92,3.778
209.31,3.738
209.70,3.696
210.10,3.647
210.33,3.617
210.72,3.573
211.24,3.519
211.67,3.472
212.04,3.437
212.38,3.407
212.85,3.366
213.28,3.337
214.03,3.296
214.43,3.276
214.82,3.259
215.21,3.237
215.61,3.219
216.00,3.200
216.39,3.181
216.79,3.168
217.18,3.154
217.45,3.141
217.84,3.126
218.22,3.107
219.15,3.069
219.54,3.060
219.93,3.052
220.29,3.046
220.80,3.043
221.74,3.043
223.01,3.043
224.22,3.043
225.57,3.043
226.99,3.043
228.09,3.043
229.03,3.043
230.10,3.043
231.24,3.043
232.35,3.043
233.59,3.044
234.56,3.046
235.68,3.048
236.68,3.051
237.34,3.054
237.96,3.058
238.50,3.064
238.96,3.069
239.50,3.074
240.16,3.080
241.03,3.087
241.57,3.094
241.94,3.098
242.36,3.102
242.63,3.105
243.15,3.110
243.37,3.113
243.74,3.117
244.15,3.122
244.64,3.127
245.11,3.132
245.51,3.140
245.87,3.146
246.30,3.154
246.69,3.161
247.08,3.168
247.33,3.171
247.79,3.176
248.12,3.182
248.66,3.188
248.99,3.192
249.40,3.198
250.23,3.207
250.62,3.213
250.98,3.217
251.34,3.220
251.76,3.225
252.20,3.231
252.59,3.237
253.00,3.240
253.37,3.244
253.83,3.248
254.37,3.251
254.95,3.254
255.41,3.255
255.82,3.255
256.24,3.255
256.61,3.256
256.94,3.256
257.36,3.256
257.73,3.256
258.10,3.256
258.43,3.256
258.89,3.256
259.31,3.255
259.68,3.255
260.05,3.254
260.38,3.253
260.92,3.249
261.64,3.242
261.84,3.240
262.21,3.236
262.62,3.232
263.21,3.225
263.61,3.219
263.78,3.218
264.20,3.212
264.57,3.207
264.90,3.200
265.57,3.188
265.97,3.181
266.36,3.174
266.75,3.168
267.15,3.161
267.33,3.158
267.58,3.154
267.82,3.150
268.21,3.144
268.75,3.136
269.31,3.126
269.80,3.118
270.20,3.111
270.53,3.102
270.94,3.092
271.48,3.078
##END=
