##TITLE=Octafluoronaphthalene
##JCAMP-DX=4.24
##DATA TYPE=UV/VIS SPECTRUM
##ORIGIN=INSTITUTE OF ENERGY PROBLEMS OF CHEMICAL PHYSICS, RAS
##OWNER=INEP CP RAS, NIST OSRD
Collection (C) 2007 copyright by the U.S. Secretary of Commerce
on behalf of the United States of America. All rights reserved.
##CAS REGISTRY NO=313-72-4
##MOLFORM=C10F8
##MP=87-88
##SOURCE REFERENCE=RAS UV No. 287
##$NIST SQUIB=1964JAK/SHT1551-1552
##$NIST SOURCE=TSGMTE
##SPECTROMETER/DATA SYSTEM=Spectrophotometer SF-16
##XUNITS=Wavelength (nm)
##YUNITS=Logarithm epsilon
##XFACTOR=1.000000
##YFACTOR=1.000000
##FIRSTX=230.0000
##LASTX=329.0000
##FIRSTY=3.83
##MAXX=329
##MINX=230
##MAXY=3.83
##MINY=2.98
##NPOINTS=100
##$REF AUTHOR=Jakobson, G.G.; Shteingarts, V.D.; Vorozhtsov, N.N., Jr.
##$REF TITLE=Synthesis of octofluoronaphthalene and dekafluorodiphenyl
##$REF JOURNAL=Izv. Akad. Nauk SSSR, Ser. Khim.
##$REF PAGE=1551-1552
##$REF DATE=1964
##XYPOINTS=(XY..XY)
230.0000,3.829998
231.0000,3.760000
232.0000,3.670000
233.0000,3.600000
234.0000,3.560000
235.0000,3.500000
236.0000,3.450000
237.0000,3.420000
238.0000,3.390000
239.0000,3.350000
240.0000,3.330008
241.0000,3.300000
242.0000,3.270000
243.0000,3.230000
244.0000,3.210000
245.0000,3.190000
246.0000,3.180000
247.0000,3.180000
248.0000,3.190000
249.0000,3.200000
250.0000,3.209997
251.0000,3.230000
252.0000,3.250000
253.0000,3.270000
254.0000,3.300000
255.0000,3.320000
256.0000,3.340000
257.0000,3.370000
258.0000,3.390000
259.0000,3.410000
260.0000,3.439995
261.0000,3.460000
262.0000,3.490000
263.0000,3.510000
264.0000,3.530000
265.0000,3.540000
266.0000,3.560000
267.0000,3.570000
268.0000,3.580000
269.0000,3.600000
270.0000,3.600003
271.0000,3.610000
272.0000,3.620000
273.0000,3.630000
274.0000,3.640000
275.0000,3.640000
276.0000,3.640000
277.0000,3.650000
278.0000,3.650000
279.0000,3.650000
280.0000,3.649997
281.0000,3.640000
282.0000,3.630000
283.0000,3.620000
284.0000,3.610000
285.0000,3.600000
286.0000,3.590000
287.0000,3.570000
288.0000,3.560000
289.0000,3.550000
290.0000,3.540004
291.0000,3.530000
292.0000,3.520000
293.0000,3.500000
294.0000,3.480000
295.0000,3.450000
296.0000,3.390000
297.0000,3.310000
298.0000,3.240000
299.0000,3.180000
300.0000,3.140005
301.0000,3.140000
302.0000,3.140000
303.0000,3.150000
304.0000,3.150000
305.0000,3.160000
306.0000,3.170000
307.0000,3.190000
308.0000,3.210000
309.0000,3.220000
310.0000,3.220003
311.0000,3.210000
312.0000,3.190000
313.0000,3.160000
314.0000,3.160000
315.0000,3.160000
316.0000,3.160000
317.0000,3.180000
318.0000,3.200000
319.0000,3.240000
320.0000,3.250005
321.0000,3.260000
322.0000,3.280000
323.0000,3.280000
324.0000,3.280000
325.0000,3.280000
326.0000,3.260000
327.0000,3.190000
328.0000,3.100000
329.0000,2.980000
##END=
