##TITLE=(2,5-dioxo-4-imidazolidinylidene)methoxyacetic acid, ethyl ester
##JCAMP-DX=4.24
##DATA TYPE=UV/VIS SPECTRUM
##ORIGIN=INSTITUTE OF ENERGY PROBLEMS OF CHEMICAL PHYSICS, RAS
##OWNER=INEP CP RAS, NIST OSRD
Collection (C) 2007 copyright by the U.S. Secretary of Commerce
on behalf of the United States of America. All rights reserved.
##CAS REGISTRY NO=31599-86-7
##MOLFORM=C8H10N2O5
##MP=222
##SOURCE REFERENCE=RAS UV No. 23721
##$NIST SQUIB=1974IVI/1527
##$NIST SOURCE=TYUGLMTE
##SPECTROMETER/DATA SYSTEM=SF-4A
##XUNITS=Wavelength (nm)
##YUNITS=Logarithm epsilon
##XFACTOR=1.0
##YFACTOR=1.0
##FIRSTX=229.451
##LASTX=358.032
##FIRSTY=3.562
##MAXX=358.032
##MINX=229.451
##MAXY=4.045
##MINY=3.116
##NPOINTS=131
##$REF AUTHOR=Ivin, B.A.; et al.
##$REF JOURNAL=Khim. Geterosikl. Soedin.
##$REF PAGE=1527
##$REF DATE=1974
##XYPOINTS=(XY..XY)
229.451,3.562
230.451,3.568
231.451,3.576
232.451,3.586
233.451,3.597
234.451,3.608
235.451,3.618
236.451,3.628
237.451,3.636
238.451,3.643
239.451,3.650
240.451,3.656
241.451,3.661
242.451,3.665
243.451,3.669
244.451,3.672
245.451,3.676
246.451,3.678
247.451,3.681
248.451,3.683
249.451,3.685
250.451,3.685
251.451,3.685
252.451,3.683
253.451,3.679
254.451,3.674
255.451,3.667
256.451,3.657
257.451,3.646
258.451,3.632
259.451,3.617
260.163,3.604
261.163,3.592
262.163,3.576
263.163,3.557
264.163,3.538
265.163,3.520
266.163,3.504
267.163,3.492
268.163,3.483
269.163,3.478
270.163,3.476
271.163,3.478
272.163,3.483
273.163,3.490
274.163,3.499
275.163,3.509
276.163,3.520
277.163,3.532
278.163,3.545
279.000,3.559
280.000,3.570
281.000,3.585
282.000,3.604
283.000,3.625
284.000,3.649
285.000,3.673
286.000,3.698
287.000,3.723
288.000,3.747
289.000,3.771
290.000,3.794
291.000,3.815
292.000,3.835
293.000,3.853
294.000,3.870
295.000,3.886
296.000,3.900
297.000,3.915
298.000,3.929
299.000,3.945
300.000,3.962
301.113,3.972
302.113,3.985
303.113,3.998
304.113,4.009
305.113,4.019
306.113,4.027
307.113,4.033
308.113,4.038
309.113,4.042
310.113,4.044
311.113,4.045
312.113,4.044
313.113,4.043
314.113,4.041
315.113,4.038
316.113,4.035
317.113,4.032
318.113,4.027
319.113,4.023
320.113,4.018
321.113,4.013
322.113,4.007
323.113,4.000
324.113,3.993
325.068,3.986
326.068,3.972
327.068,3.961
328.068,3.950
329.068,3.939
330.068,3.928
331.068,3.917
332.068,3.905
333.068,3.891
334.068,3.877
335.068,3.862
336.068,3.845
337.068,3.828
338.068,3.810
339.068,3.792
340.068,3.772
341.068,3.752
342.068,3.730
343.068,3.708
343.086,3.708
344.086,3.685
345.086,3.654
346.086,3.618
347.086,3.578
348.086,3.536
349.086,3.493
350.086,3.449
351.086,3.406
352.086,3.363
353.086,3.320
354.086,3.279
355.086,3.237
356.086,3.196
357.086,3.155
358.032,3.116
##END=
