##TITLE=Benz[a]anthracene, 4-methyl-
##JCAMP-DX=4.24
##DATA TYPE=UV/VIS SPECTRUM
##ORIGIN=INSTITUTE OF ENERGY PROBLEMS OF CHEMICAL PHYSICS, RAS
##OWNER=INEP CP RAS, NIST OSRD
Collection (C) 2007 copyright by the U.S. Secretary of Commerce
on behalf of the United States of America. All rights reserved.
##CAS REGISTRY NO=316-49-4
##MOLFORM=C19H14
##MP=126.9-127.4
##SOURCE REFERENCE=RAS UV No. 12808
##$NIST SQUIB=1956SAN/JON888
##$NIST SOURCE=TYUGLMTE
##SPECTROMETER/DATA SYSTEM=Cary 11 M
##XUNITS=Wavelength (nm)
##YUNITS=Logarithm epsilon
##XFACTOR=1.0
##YFACTOR=1.0
##FIRSTX=301.8
##LASTX=393.92
##FIRSTY=4.054
##MAXX=393.92
##MINX=301.8
##MAXY=4.054
##MINY=2.867
##NPOINTS=418
##$REF AUTHOR=Sandorfy, C.; Jones, R.N.
##$REF JOURNAL=Can. J. Chem.
##$REF VOLUME=34
##$REF PAGE=888
##$REF DATE=1956
##XYPOINTS=(XY..XY)
301.80,4.054
302.13,4.043
302.45,4.023
302.78,3.996
303.11,3.971
303.44,3.956
303.77,3.926
304.10,3.894
304.44,3.874
304.71,3.839
305.10,3.785
305.49,3.760
305.77,3.752
306.11,3.749
306.44,3.751
306.61,3.751
306.78,3.749
306.95,3.749
307.12,3.748
307.29,3.747
307.46,3.747
307.63,3.745
307.80,3.745
307.97,3.744
308.14,3.744
308.31,3.742
308.48,3.742
308.65,3.741
308.87,3.714
309.43,3.609
309.52,3.599
309.68,3.590
309.85,3.586
310.02,3.582
310.20,3.578
310.37,3.574
310.54,3.572
310.71,3.570
310.89,3.568
311.06,3.566
311.23,3.564
311.41,3.563
311.58,3.563
311.76,3.563
311.93,3.563
312.11,3.563
312.31,3.564
312.46,3.566
312.63,3.568
312.82,3.570
312.98,3.572
313.16,3.574
313.33,3.576
313.51,3.578
313.68,3.580
313.86,3.582
314.04,3.584
314.22,3.586
314.39,3.588
314.62,3.592
314.80,3.594
314.93,3.596
315.11,3.600
315.28,3.604
315.46,3.606
315.64,3.608
315.82,3.612
316.00,3.614
316.18,3.617
316.36,3.621
316.54,3.623
316.72,3.625
316.94,3.629
317.08,3.632
317.25,3.636
317.44,3.639
317.62,3.642
317.78,3.645
317.98,3.648
318.16,3.651
318.35,3.654
318.53,3.657
318.71,3.659
318.88,3.662
319.07,3.664
319.25,3.666
319.44,3.669
319.62,3.672
319.80,3.674
319.99,3.675
320.17,3.679
320.36,3.680
320.54,3.684
320.72,3.685
320.91,3.687
321.09,3.685
321.28,3.685
321.46,3.685
321.65,3.687
321.84,3.688
322.02,3.688
322.21,3.690
322.39,3.690
322.58,3.690
322.77,3.688
322.95,3.688
323.14,3.687
323.33,3.685
323.52,3.685
323.70,3.684
323.89,3.684
324.08,3.684
324.27,3.684
324.46,3.684
324.65,3.684
324.84,3.685
325.03,3.685
325.22,3.687
325.40,3.688
325.59,3.690
325.79,3.692
325.98,3.695
326.17,3.698
326.36,3.699
326.55,3.701
326.74,3.704
326.93,3.707
327.12,3.710
327.32,3.713
327.51,3.716
327.70,3.719
327.89,3.724
328.09,3.727
328.28,3.731
328.47,3.734
328.67,3.738
328.86,3.741
329.05,3.747
329.25,3.749
329.44,3.763
329.64,3.766
329.83,3.768
330.03,3.771
330.22,3.775
330.42,3.780
330.62,3.784
330.81,3.788
331.01,3.792
331.22,3.795
331.40,3.799
331.60,3.802
331.80,3.805
331.99,3.806
332.19,3.806
332.39,3.806
332.59,3.806
332.79,3.807
333.00,3.807
333.19,3.807
333.38,3.808
333.58,3.808
333.78,3.808
333.98,3.808
334.18,3.808
334.38,3.808
334.58,3.808
334.78,3.808
334.99,3.809
335.19,3.809
335.39,3.808
335.59,3.806
335.79,3.805
336.00,3.804
336.20,3.802
336.40,3.799
336.60,3.797
336.81,3.794
337.01,3.792
337.21,3.788
337.42,3.785
337.62,3.783
337.83,3.780
338.03,3.778
338.24,3.775
338.44,3.772
338.65,3.770
338.85,3.767
339.06,3.764
339.27,3.762
339.47,3.760
339.68,3.760
339.89,3.760
340.09,3.760
340.30,3.760
340.51,3.760
340.71,3.761
340.94,3.761
341.14,3.762
341.34,3.763
341.55,3.764
341.76,3.767
341.97,3.770
342.19,3.772
342.39,3.775
342.59,3.777
342.81,3.780
343.02,3.783
343.24,3.787
343.42,3.790
343.66,3.794
343.87,3.798
344.08,3.802
344.30,3.806
344.51,3.812
344.72,3.820
344.96,3.827
345.15,3.834
345.36,3.841
345.58,3.850
345.76,3.856
346.00,3.863
346.22,3.868
346.43,3.871
346.66,3.870
346.87,3.865
347.08,3.858
347.30,3.851
347.51,3.845
347.73,3.837
347.95,3.830
348.17,3.825
348.38,3.822
348.60,3.818
348.81,3.816
349.04,3.814
349.26,3.812
349.48,3.811
349.69,3.810
349.91,3.808
350.13,3.806
350.35,3.805
350.57,3.804
350.79,3.802
351.02,3.800
351.24,3.799
351.44,3.798
351.68,3.797
351.90,3.795
352.12,3.794
352.35,3.793
352.57,3.790
352.79,3.788
353.02,3.785
353.24,3.783
353.46,3.780
353.70,3.776
353.99,3.770
354.20,3.765
354.41,3.760
354.59,3.756
354.81,3.749
355.04,3.741
355.27,3.729
355.49,3.718
355.78,3.702
355.95,3.692
356.17,3.677
356.38,3.672
356.60,3.666
356.86,3.662
357.09,3.660
357.31,3.659
357.55,3.657
357.77,3.657
358.00,3.657
358.23,3.657
358.47,3.657
358.69,3.659
358.92,3.660
359.16,3.662
359.37,3.665
359.62,3.670
359.85,3.675
360.08,3.680
360.32,3.687
360.55,3.692
360.78,3.698
361.08,3.704
361.25,3.710
361.48,3.718
361.72,3.724
361.95,3.727
362.19,3.731
362.42,3.732
362.66,3.737
362.90,3.738
363.13,3.737
363.37,3.728
363.61,3.713
363.84,3.699
364.08,3.684
364.32,3.665
364.56,3.648
364.80,3.632
365.06,3.614
365.32,3.600
365.51,3.592
365.75,3.582
365.99,3.576
366.23,3.574
366.44,3.573
366.72,3.572
366.96,3.572
367.20,3.572
367.44,3.574
367.68,3.576
367.93,3.578
368.17,3.582
368.41,3.584
368.66,3.584
368.88,3.576
369.14,3.555
369.39,3.530
369.63,3.499
369.88,3.466
370.17,3.428
370.37,3.403
370.62,3.378
370.88,3.358
371.12,3.340
371.37,3.325
371.60,3.311
371.85,3.295
372.10,3.279
372.45,3.260
372.60,3.254
372.85,3.241
373.10,3.227
373.35,3.213
373.60,3.203
373.85,3.193
374.10,3.183
374.35,3.173
374.57,3.165
374.85,3.157
375.11,3.151
375.36,3.146
375.61,3.140
375.86,3.135
376.12,3.129
376.37,3.123
376.63,3.117
376.88,3.112
377.12,3.108
377.39,3.105
377.65,3.105
377.90,3.105
378.15,3.103
378.42,3.099
378.67,3.093
378.93,3.086
379.15,3.077
379.45,3.060
379.70,3.039
379.96,3.017
380.18,3.006
380.48,2.994
380.74,2.986
381.00,2.978
381.24,2.973
381.51,2.968
381.77,2.965
382.03,2.963
382.31,2.961
382.57,2.961
382.83,2.961
383.10,2.961
383.37,2.964
383.62,2.970
383.89,2.978
384.15,2.986
384.42,2.994
384.74,3.008
385.12,3.029
385.39,3.048
385.61,3.065
385.75,3.086
386.01,3.154
386.32,3.190
386.55,3.208
386.82,3.227
387.09,3.245
387.36,3.265
387.49,3.268
387.62,3.264
387.89,3.239
388.16,3.208
388.43,3.178
388.70,3.146
388.98,3.117
389.25,3.093
389.52,3.073
389.79,3.053
390.03,3.037
390.31,3.015
390.61,2.999
390.84,2.985
391.07,2.970
391.39,2.957
391.71,2.944
391.98,2.935
392.26,2.926
392.54,2.917
392.81,2.907
393.09,2.897
393.37,2.887
393.65,2.877
393.92,2.867
##END=
