##TITLE=4-(p-Hydroxyphenyl)-3-buten-2-one
##JCAMP-DX=4.24
##DATA TYPE=UV/VIS SPECTRUM
##ORIGIN=INSTITUTE OF ENERGY PROBLEMS OF CHEMICAL PHYSICS, RAS
##OWNER=INEP CP RAS, NIST OSRD
Collection (C) 2007 copyright by the U.S. Secretary of Commerce
on behalf of the United States of America. All rights reserved.
##CAS REGISTRY NO=3160-35-8
##MOLFORM=C10H10O2
##SOURCE REFERENCE=RAS UV No. 20233
##$NIST SQUIB=1969BOL/336
##$NIST SOURCE=TYUGLMTE
##SPECTROMETER/DATA SYSTEM=unknown
##XUNITS=Wavelength (nm)
##YUNITS=Logarithm epsilon
##XFACTOR=1.0
##YFACTOR=1.0
##FIRSTX=217.24
##LASTX=378.34
##FIRSTY=3.828
##MAXX=378.34
##MINX=217.24
##MAXY=4.442
##MINY=2.945
##NPOINTS=162
##$REF AUTHOR=Bolshakov, G.F.; et al.
##$REF JOURNAL=Ultraviolet Spectra of Hetrroorganic Compounds
##$REF PAGE=336
##$REF DATE=1969
##XYPOINTS=(XY..XY)
217.24,3.828
218.56,3.845
219.89,3.861
221.05,3.882
222.34,3.899
223.54,3.915
224.86,3.932
226.19,3.944
227.51,3.957
228.84,3.973
230.16,3.986
231.49,4.002
232.98,4.011
234.47,4.015
235.97,4.006
237.13,3.982
238.29,3.957
239.24,3.929
239.94,3.899
240.77,3.870
241.60,3.836
242.26,3.803
242.93,3.770
243.59,3.737
244.09,3.704
244.75,3.670
245.25,3.637
245.74,3.604
246.24,3.571
246.74,3.538
247.07,3.500
247.73,3.467
248.23,3.434
248.73,3.401
249.23,3.368
249.56,3.330
250.05,3.293
250.55,3.260
251.05,3.227
251.55,3.189
252.04,3.152
252.37,3.115
253.04,3.081
254.03,3.052
255.52,3.048
256.85,3.069
258.01,3.094
259.03,3.124
259.83,3.152
260.66,3.185
261.66,3.214
262.48,3.247
263.48,3.276
264.47,3.305
265.30,3.334
266.30,3.363
267.29,3.393
268.29,3.417
269.11,3.446
270.11,3.475
271.07,3.501
272.20,3.532
273.09,3.558
274.09,3.587
274.92,3.617
275.91,3.641
276.90,3.670
277.90,3.695
278.89,3.724
280.05,3.749
281.05,3.774
282.04,3.803
283.04,3.832
284.03,3.857
285.19,3.882
286.19,3.907
287.18,3.932
288.17,3.957
289.33,3.982
290.33,4.011
291.32,4.035
292.48,4.056
293.64,4.081
294.80,4.106
295.96,4.131
297.12,4.152
298.28,4.172
299.45,4.193
300.44,4.218
301.59,4.237
302.87,4.261
304.09,4.280
305.41,4.301
306.74,4.317
307.90,4.338
309.22,4.351
310.55,4.363
311.88,4.380
313.20,4.392
314.62,4.403
316.02,4.417
317.40,4.427
318.84,4.434
320.33,4.442
321.82,4.442
323.31,4.442
324.80,4.434
326.30,4.421
327.62,4.405
328.95,4.384
330.27,4.363
331.60,4.342
332.92,4.322
334.09,4.301
335.25,4.280
336.41,4.255
337.57,4.235
338.56,4.210
339.55,4.181
340.71,4.156
341.87,4.135
342.87,4.110
343.86,4.081
344.71,4.061
345.85,4.031
346.85,4.006
347.70,3.986
348.84,3.957
349.83,3.928
350.82,3.903
351.65,3.874
352.65,3.845
353.64,3.820
354.47,3.791
355.47,3.762
356.29,3.733
357.29,3.704
358.12,3.675
359.11,3.646
359.93,3.622
360.94,3.587
361.75,3.562
362.59,3.529
363.42,3.500
364.25,3.471
365.24,3.442
366.07,3.409
367.07,3.380
367.73,3.347
368.73,3.318
369.39,3.285
370.22,3.256
371.05,3.227
371.87,3.198
372.70,3.164
373.53,3.135
374.36,3.102
375.19,3.069
376.02,3.036
376.68,3.003
377.51,2.974
378.34,2.945
##END=
