##TITLE=1-Fluoronaphthalene
##JCAMP-DX=4.24
##DATA TYPE=UV/VIS SPECTRUM
##ORIGIN=INSTITUTE OF ENERGY PROBLEMS OF CHEMICAL PHYSICS, RAS
##OWNER=INEP CP RAS, NIST OSRD
Collection (C) 2007 copyright by the U.S. Secretary of Commerce
on behalf of the United States of America. All rights reserved.
##CAS REGISTRY NO=321-38-0
##MOLFORM=C10H7F
##MP=-9
##BP=215; 80(11)
##SOURCE REFERENCE=RAS UV No. 6333
##$NIST SQUIB=1971ADC/MAT1829-1838
##$NIST SOURCE=TSGMTE
##SPECTROMETER/DATA SYSTEM=n.i.g.
##XUNITS=Wavelength (nm)
##YUNITS=Logarithm epsilon
##XFACTOR=1.000000
##YFACTOR=1.000000
##FIRSTX=204.2915
##LASTX=303.9481
##FIRSTY=3.96635
##MAXX=303.948
##MINX=204.292
##MAXY=4.79861
##MINY=2.88769
##NPOINTS=256
##$REF AUTHOR=Adcock, W.; Matthews, D.G.; Rizvi, S.Q.A.
##$REF TITLE=Long-range proton-fluorine spin-spin coupling and ^1^9F substituent chemical shifts (scs) in the naphthalene ring system
##$REF JOURNAL=Aust. J. Chem.
##$REF VOLUME=24
##$REF PAGE=1829-1838
##$REF DATE=1971
##XYPOINTS=(XY..XY)
204.2915,3.966351
204.5981,3.972218
204.9104,3.978084
205.2341,3.983951
206.6097,4.018314
206.7125,4.020829
206.8210,4.023343
206.9409,4.025857
208.4184,4.060220
208.5467,4.065218
208.6807,4.070030
208.8260,4.074468
212.8510,4.464195
212.8510,4.475897
212.8510,4.487414
212.8510,4.498558
213.2840,4.561417
213.4123,4.573151
213.5463,4.584884
213.6916,4.596618
214.3285,4.655286
214.4049,4.661153
214.4813,4.667020
214.5578,4.672887
217.6147,4.777652
217.7175,4.780136
217.8260,4.782433
217.9459,4.784357
219.1941,4.798605
219.8149,4.795967
220.1188,4.793142
220.3660,4.787710
221.1047,4.749156
221.1047,4.754154
221.1047,4.758965
221.1047,4.763404
222.8115,4.624276
222.8700,4.615057
222.9398,4.605837
223.0153,4.596618
224.4928,4.477605
224.5193,4.472328
224.5513,4.466678
224.5947,4.460842
225.3335,4.387088
225.3335,4.392085
225.3335,4.396897
225.3335,4.401336
226.1742,4.289866
226.1742,4.299085
226.1742,4.308304
226.1742,4.317524
226.8110,4.220301
226.8110,4.225299
226.8110,4.230111
226.8110,4.234550
227.4479,4.157442
227.4479,4.162440
227.4479,4.167252
227.4479,4.171690
228.3140,4.087878
228.3725,4.076735
228.4423,4.065218
228.5178,4.053515
229.1547,4.004904
229.1811,3.999037
229.2132,3.993171
229.2566,3.987304
229.9953,3.927797
230.0538,3.918578
230.1237,3.909358
230.1991,3.900139
230.8360,3.851528
230.9124,3.839794
230.9889,3.828061
231.0653,3.816327
231.6767,3.725810
231.6767,3.735619
231.6767,3.745056
231.6767,3.754306
232.1097,3.684742
232.1682,3.669656
232.2381,3.654570
232.3135,3.639483
232.5428,3.586682
232.5428,3.596491
232.5428,3.605928
232.5428,3.615178
232.7466,3.531366
232.7730,3.525499
232.8051,3.519632
232.8485,3.513765
233.2816,3.437496
233.3080,3.445846
233.3401,3.454011
233.3835,3.461802
233.5873,3.384695
233.6637,3.368739
233.7401,3.352598
233.8165,3.336083
234.0203,3.280767
234.0203,3.292470
234.0203,3.303987
234.0203,3.315130
234.4279,3.203660
234.4279,3.213470
234.4279,3.222906
234.4279,3.232156
234.6572,3.127391
234.6572,3.136611
234.6572,3.145830
234.6572,3.155049
234.8487,3.066425
234.8610,3.085485
234.9327,3.052581
235.2941,3.033522
235.9309,3.015921
236.2111,3.015921
236.4914,3.015921
236.7716,3.015921
238.6822,3.023464
238.8105,3.023464
238.9445,3.023464
239.0898,3.023464
240.3635,3.054475
240.4984,3.062825
240.6447,3.070989
240.7966,3.078780
242.1467,3.144992
242.1797,3.148344
242.2241,3.151697
242.2741,3.155049
243.2167,3.200308
243.2431,3.204250
243.2751,3.207820
243.3186,3.211203
244.3885,3.259814
244.5168,3.271517
244.6508,3.283034
244.7961,3.294177
245.6622,3.340274
245.7207,3.346110
245.7905,3.351760
245.8660,3.357037
246.9105,3.409838
247.0454,3.415674
247.1916,3.421324
247.3435,3.426601
248.4135,3.471859
248.5418,3.480209
248.6758,3.488373
248.8211,3.496165
249.8910,3.541423
250.0193,3.549773
250.1533,3.557938
250.2986,3.565729
254.9604,3.712400
255.0953,3.705664
255.2416,3.698742
255.3935,3.691447
259.6223,3.573272
259.9025,3.575755
260.1827,3.578052
260.4629,3.579977
260.7686,3.604282
260.9470,3.619368
261.1253,3.634455
261.3036,3.649541
261.7367,3.698152
262.0754,3.698152
262.4254,3.698152
262.7811,3.698152
265.5324,3.628588
265.6352,3.627719
265.7437,3.626664
265.8636,3.625235
267.2392,3.607635
267.6543,3.607635
268.0808,3.607635
268.5129,3.607635
269.3536,3.607635
269.6923,3.610149
270.0423,3.612664
270.3980,3.615178
272.1048,3.607635
272.5898,3.607635
273.0804,3.607635
273.5824,3.607635
275.1618,3.611825
275.3986,3.613254
275.6467,3.614309
275.9005,3.615178
277.6073,3.615178
278.2442,3.615178
278.8811,3.615178
279.5179,3.615178
280.1548,3.621883
280.4614,3.621014
280.7737,3.619959
281.0974,3.618530
282.4730,3.594225
282.6777,3.584975
282.8881,3.575538
283.1098,3.565729
284.1543,3.544776
284.8138,3.528230
285.4903,3.511313
286.3706,3.500355
286.7018,3.496165
286.8367,3.496165
286.9829,3.496165
287.1348,3.496165
288.1793,3.496165
288.2057,3.497810
288.2378,3.499269
288.2812,3.500355
288.2812,3.500355
289.4370,3.479278
290.0380,3.464719
290.5994,3.444201
291.5674,3.413191
291.6259,3.401457
291.6957,3.389723
291.7712,3.377990
292.2043,3.301721
292.2043,3.318235
292.2043,3.334376
292.2043,3.350332
292.4081,3.274063
292.7647,3.232156
293.1214,3.190250
293.4780,3.148344
294.1149,3.120686
294.2819,3.100447
294.4998,3.087845
294.9555,3.072075
295.5924,3.043579
295.6943,3.038302
295.7962,3.032653
295.8981,3.026817
297.0699,2.994968
297.1718,2.994099
297.2737,2.993044
297.3756,2.991616
299.1843,2.960605
299.3192,2.960605
299.4655,2.960605
299.6174,2.960605
301.0949,2.932947
301.2996,2.927080
301.5100,2.921213
301.7318,2.915347
303.2093,2.897746
303.4461,2.894394
303.6942,2.891041
303.9481,2.887689
##END=
