##TITLE=Naphthalene, 2-fluoro-
##JCAMP-DX=4.24
##DATA TYPE=UV/VIS SPECTRUM
##ORIGIN=INSTITUTE OF ENERGY PROBLEMS OF CHEMICAL PHYSICS, RAS
##OWNER=INEP CP RAS, NIST OSRD
Collection (C) 2007 copyright by the U.S. Secretary of Commerce
on behalf of the United States of America. All rights reserved.
##CAS REGISTRY NO=323-09-1
##MOLFORM=C10H7F
##MP=61
##BP=212; 90(16)
##SOURCE REFERENCE=RAS UV No. 6334
##$NIST SQUIB=1971ADC/MAT1829-1838
##$NIST SOURCE=TSGMTE
##SPECTROMETER/DATA SYSTEM=Unicam SP 800
##XUNITS=Wavelength (nm)
##YUNITS=Logarithm epsilon
##XFACTOR=1.000000
##YFACTOR=1.000000
##FIRSTX=211.2698
##LASTX=298.2486
##FIRSTY=3.59538
##MAXX=298.249
##MINX=211.27
##MAXY=3.67954
##MINY=3.44841
##NPOINTS=265
##$REF AUTHOR=Adcock, W.; Matthews, D.G.; Rizvi, S.Q.A.
##$REF TITLE=Long-range proton-fluorine spin-spin coupling and ^1^9F substituent chemical shifts (scs) in the naphthalene ring system
##$REF JOURNAL=Aust. J. Chem.
##$REF VOLUME=24
##$REF PAGE=1829-1838
##$REF DATE=1971
##XYPOINTS=(XY..XY)
211.2698,3.595384
211.4267,3.597337
211.8369,3.600554
212.4061,3.605772
212.4061,3.605772
212.9193,3.609219
213.1147,3.614634
213.5604,3.618913
213.5604,3.618913
213.6629,3.623739
213.8064,3.628568
213.9874,3.633378
214.2025,3.638149
214.4482,3.642862
214.7209,3.647498
215.0173,3.652041
215.3338,3.656473
215.6670,3.660779
216.0134,3.664942
216.6514,3.669904
216.9173,3.670913
217.1922,3.671907
217.4715,3.672870
218.3119,3.675442
218.4382,3.675443
218.5734,3.675444
218.7131,3.675445
219.7535,3.678685
220.3844,3.679373
220.8732,3.679537
221.6385,3.679319
222.6842,3.676162
222.7453,3.675848
222.8110,3.675521
222.8856,3.675166
223.9325,3.670277
223.9993,3.669437
224.0750,3.668568
224.1552,3.667682
224.7797,3.664372
224.8414,3.663281
224.9077,3.662173
224.9829,3.661033
225.6062,3.659034
225.6731,3.658059
225.7489,3.657068
225.8292,3.656045
226.2332,3.652314
226.2336,3.651853
226.2339,3.651392
226.2343,3.650930
226.8803,3.645421
226.8807,3.644953
226.8810,3.644484
226.8814,3.644015
227.5068,3.639164
227.5073,3.638483
227.5078,3.637786
227.5084,3.637057
227.9137,3.631366
227.9807,3.630189
228.0566,3.628993
228.1370,3.627762
228.3396,3.624900
228.3403,3.623918
228.3410,3.622933
228.3417,3.621946
228.7676,3.615337
228.8292,3.614334
228.8953,3.613328
228.9703,3.612319
229.3941,3.608628
229.3946,3.607878
229.3952,3.607094
229.3957,3.606293
229.8205,3.600998
229.8209,3.600479
229.8212,3.599960
229.8216,3.599440
230.0264,3.593229
230.0526,3.592852
230.0878,3.592475
230.1274,3.592097
230.4517,3.586930
230.5099,3.585517
230.6172,3.583895
230.6760,3.581389
230.8776,3.579761
230.8782,3.578980
230.8787,3.578180
230.8792,3.577344
231.3035,3.572472
231.3657,3.570568
231.4323,3.568637
231.5078,3.566663
231.7094,3.565059
231.7101,3.563931
231.7108,3.562801
231.7115,3.561667
231.9358,3.555792
231.9365,3.554640
231.9372,3.553485
231.9379,3.552327
232.1395,3.550669
232.1398,3.550087
232.1402,3.549504
232.1405,3.548920
232.3627,3.546326
232.3634,3.545149
232.3641,3.543968
232.3648,3.542784
232.5696,3.535701
232.5960,3.535009
232.6313,3.534296
232.6711,3.533545
232.9970,3.524899
233.0590,3.523106
233.1254,3.521265
233.2007,3.519396
233.4229,3.516620
233.4848,3.514908
233.5511,3.513190
233.6264,3.511465
233.8293,3.507169
233.8298,3.506245
233.8303,3.505299
233.8309,3.504310
234.0551,3.497600
234.1171,3.495689
234.1835,3.493728
234.2588,3.491737
234.4816,3.487721
234.5434,3.485892
234.6098,3.484055
234.6850,3.482210
235.3097,3.476633
235.4501,3.476634
235.5905,3.476636
235.7309,3.476638
237.1957,3.475669
238.7549,3.476090
239.5607,3.476612
240.3039,3.477679
241.7642,3.485302
241.9507,3.488117
242.3285,3.491593
243.2215,3.498645
243.7407,3.503035
244.1804,3.507376
244.6245,3.511654
245.0776,3.515850
245.6963,3.521407
245.8358,3.522981
245.9754,3.524509
246.1149,3.526013
246.7332,3.532310
246.8145,3.534267
246.9230,3.535431
247.1518,3.536802
247.3709,3.539458
247.4963,3.540967
247.6306,3.542434
247.7695,3.543877
248.4087,3.548253
248.5345,3.549149
248.6692,3.550006
248.8084,3.550842
249.6483,3.555069
249.9679,3.554704
250.2388,3.554044
250.6929,3.552521
252.0353,3.555094
252.1361,3.555421
252.2414,3.555729
252.3557,3.556001
253.4954,3.561887
254.3730,3.565191
255.1667,3.567101
256.3010,3.566109
257.3477,3.560302
257.4142,3.559628
257.4897,3.558916
257.5697,3.558185
258.3939,3.555159
258.5609,3.554172
258.7369,3.553183
258.9173,3.552191
260.4821,3.551793
260.7617,3.553840
261.0413,3.555841
261.3209,3.557814
261.3209,3.557814
262.5647,3.555973
263.5035,3.551762
264.4161,3.547228
265.5815,3.544486
265.9021,3.544911
266.2437,3.545227
266.5897,3.545505
266.9447,3.545764
267.3654,3.546692
268.9306,3.549321
270.2537,3.551106
271.6412,3.552201
273.3995,3.552755
274.4431,3.551937
275.1306,3.552525
275.8272,3.553111
276.5266,3.556249
276.5271,3.555424
276.5276,3.554580
276.5281,3.553697
276.5281,3.553697
276.8283,3.554936
277.1348,3.555409
277.4503,3.555845
277.7702,3.556262
281.1015,3.553744
281.3085,3.553060
281.5244,3.552339
281.7447,3.551598
282.7896,3.548612
282.8158,3.548191
282.8510,3.547751
282.8907,3.547274
284.0358,3.544258
284.1763,3.544260
284.3167,3.544261
284.4571,3.544263
285.9019,3.543349
286.0423,3.543350
286.1827,3.543352
286.3231,3.543353
288.4123,3.538100
288.5127,3.537991
288.6131,3.537843
288.7135,3.537675
290.0803,3.532779
290.0807,3.532172
290.0810,3.531564
290.0814,3.530955
290.9270,3.525536
290.9885,3.524364
291.0546,3.523149
291.1296,3.521911
291.7551,3.515383
291.7815,3.514634
291.8169,3.513844
291.8567,3.513033
292.3821,3.506000
292.4489,3.504708
292.5246,3.503413
292.6048,3.502114
293.2298,3.496318
293.3711,3.494525
293.5125,3.492725
293.6539,3.490917
294.0568,3.487474
294.4401,3.483319
294.8234,3.479103
295.2067,3.474801
295.7501,3.471228
296.4075,3.463939
297.3104,3.455954
298.2486,3.448405
##END=
