##TITLE=2,5-bis[4-(dimethylamino)phenyl]-1,3,4-oxadiozole
##JCAMP-DX=4.24
##DATA TYPE=UV/VIS SPECTRUM
##ORIGIN=INSTITUTE OF ENERGY PROBLEMS OF CHEMICAL PHYSICS, RAS
##OWNER=INEP CP RAS, NIST OSRD
Collection (C) 2007 copyright by the U.S. Secretary of Commerce
on behalf of the United States of America. All rights reserved.
##CAS REGISTRY NO=32444-53-4
##MOLFORM=C18H20N4O
##SOURCE REFERENCE=RAS UV No. 22776
##$NIST SQUIB=1983KRA/33
##$NIST SOURCE=TYUGLMTE
##SPECTROMETER/DATA SYSTEM=SF-4
##XUNITS=Wavelength (nm)
##YUNITS=Logarithm epsilon
##XFACTOR=1.0
##YFACTOR=1.0
##FIRSTX=235.108
##LASTX=388.079
##FIRSTY=4.017
##MAXX=388.079
##MINX=235.108
##MAXY=4.742
##MINY=3.616
##NPOINTS=107
##$REF AUTHOR=Krasovitskii, B.M.; et al.
##$REF JOURNAL=Khim. Geterosikl. Soedin.
##$REF PAGE=33
##$REF DATE=1983
##XYPOINTS=(XY..XY)
235.108,4.017
236.608,3.963
238.108,3.908
239.608,3.855
241.108,3.805
242.608,3.761
244.108,3.722
245.608,3.690
247.108,3.664
248.608,3.645
250.108,3.631
251.608,3.622
253.108,3.617
254.608,3.616
256.108,3.617
257.608,3.621
259.108,3.627
260.608,3.634
262.108,3.644
263.608,3.655
265.108,3.669
266.608,3.686
268.108,3.706
269.608,3.729
271.108,3.756
272.399,3.778
273.899,3.815
275.399,3.849
276.899,3.880
278.399,3.909
279.899,3.936
281.399,3.962
282.899,3.988
284.399,4.012
285.899,4.035
287.399,4.058
288.899,4.080
290.399,4.102
291.899,4.122
293.399,4.142
294.899,4.162
296.399,4.180
297.899,4.197
299.399,4.214
300.899,4.229
302.399,4.243
303.899,4.255
305.399,4.266
306.899,4.275
308.716,4.285
310.216,4.292
311.716,4.293
313.216,4.293
314.716,4.295
316.216,4.301
317.716,4.313
319.216,4.330
320.716,4.351
322.216,4.375
323.716,4.400
325.216,4.424
326.716,4.448
328.216,4.472
329.724,4.496
330.933,4.522
332.433,4.544
333.933,4.566
335.433,4.588
336.933,4.610
338.433,4.632
339.933,4.652
341.433,4.670
342.933,4.687
344.433,4.701
345.933,4.714
347.433,4.724
348.933,4.732
350.433,4.737
351.933,4.741
353.433,4.742
354.933,4.741
356.433,4.738
357.933,4.733
359.433,4.727
360.933,4.718
362.433,4.708
363.933,4.697
365.506,4.683
367.187,4.667
368.868,4.648
370.005,4.633
371.505,4.617
373.005,4.597
374.505,4.570
376.005,4.532
377.505,4.482
379.005,4.416
380.505,4.332
381.595,4.234
382.796,4.140
383.516,4.056
384.237,3.991
384.957,3.923
385.678,3.845
386.398,3.787
387.359,3.703
388.079,3.644
##END=
