##TITLE=1,3-Butanedione, 4,4,4-trifluoro-1-(2-thienyl)-
##JCAMP-DX=4.24
##DATA TYPE=UV/VIS SPECTRUM
##ORIGIN=INSTITUTE OF ENERGY PROBLEMS OF CHEMICAL PHYSICS, RAS
##OWNER=INEP CP RAS, NIST OSRD
Collection (C) 2007 copyright by the U.S. Secretary of Commerce
on behalf of the United States of America. All rights reserved.
##CAS REGISTRY NO=326-91-0
##MOLFORM=C8H5F3O2S
##MP=41-44
##BP=96-98/ 8 mm
##SOURCE REFERENCE=RAS UV No. 9750
##$NIST SQUIB=1951KIN/REA1806
##$NIST SOURCE=TYUGLMTE
##SPECTROMETER/DATA SYSTEM=n.i.g.
##XUNITS=Wavelength (nm)
##YUNITS=Logarithm epsilon
##XFACTOR=1.0
##YFACTOR=1.0
##FIRSTX=286.21
##LASTX=374.3
##FIRSTY=3.88
##MAXX=374.3
##MINX=286.21
##MAXY=4.102
##MINY=3.755
##NPOINTS=115
##$REF AUTHOR=King, E.L.; Reas, W.H.
##$REF JOURNAL=J. Am. Chem. Soc.
##$REF VOLUME=73
##$REF PAGE=1806
##$REF DATE=1951
##XYPOINTS=(XY..XY)
286.21,3.880
286.42,3.881
286.64,3.882
286.86,3.882
287.07,3.883
287.29,3.884
287.50,3.886
287.72,3.886
287.94,3.887
288.15,3.888
288.37,3.889
288.58,3.889
288.80,3.890
289.01,3.892
289.23,3.892
289.45,3.893
289.66,3.893
290.53,3.896
291.39,3.901
292.25,3.907
293.12,3.913
293.98,3.917
294.99,3.923
295.71,3.928
296.57,3.935
297.44,3.941
298.28,3.948
299.16,3.955
300.03,3.962
300.89,3.970
301.75,3.976
302.62,3.983
303.48,3.990
304.35,3.998
305.21,4.005
306.07,4.014
306.94,4.022
307.80,4.028
308.66,4.036
309.53,4.045
310.39,4.051
311.26,4.058
312.12,4.065
312.98,4.072
313.85,4.077
314.71,4.083
315.57,4.086
316.44,4.091
317.30,4.094
318.16,4.096
319.03,4.098
319.89,4.100
320.76,4.101
321.62,4.102
322.48,4.101
323.35,4.101
324.21,4.100
325.07,4.098
325.94,4.096
326.80,4.094
327.67,4.091
328.53,4.088
329.39,4.084
330.26,4.081
331.12,4.079
331.98,4.076
332.85,4.073
333.71,4.070
334.57,4.068
335.44,4.065
336.30,4.062
337.17,4.061
338.03,4.059
338.89,4.056
339.76,4.054
340.62,4.052
341.48,4.050
342.35,4.048
343.21,4.046
344.08,4.044
344.94,4.042
345.80,4.041
346.67,4.039
347.53,4.037
348.39,4.036
349.26,4.036
350.12,4.033
350.99,4.032
351.85,4.030
352.71,4.029
353.58,4.028
354.44,4.025
355.30,4.023
356.17,4.020
357.03,4.014
357.89,4.007
358.76,3.999
359.62,3.990
360.49,3.983
361.35,3.972
362.21,3.962
363.08,3.950
363.94,3.941
364.80,3.929
365.67,3.917
366.53,3.906
367.40,3.889
368.26,3.877
369.12,3.863
369.99,3.846
370.85,3.830
371.71,3.815
372.58,3.794
373.22,3.775
374.30,3.755
##END=
