##TITLE=2,5-Dinitrophenol
##JCAMP-DX=4.24
##DATA TYPE=UV/VIS SPECTRUM
##ORIGIN=INSTITUTE OF ENERGY PROBLEMS OF CHEMICAL PHYSICS, RAS
##OWNER=INEP CP RAS, NIST OSRD
Collection (C) 2007 copyright by the U.S. Secretary of Commerce
on behalf of the United States of America. All rights reserved.
##CAS REGISTRY NO=329-71-5
##MOLFORM=C6H4N2O5
##MP=106-107
##SOURCE REFERENCE=RAS UV No. 12180
##$NIST SQUIB=1953COR1172
##$NIST SOURCE=TYUGLMTE
##SPECTROMETER/DATA SYSTEM=Cary recording spectrophotometer
##XUNITS=Wavelength (nm)
##YUNITS=Logarithm epsilon
##XFACTOR=1.0
##YFACTOR=1.0
##FIRSTX=310.43
##LASTX=547.17
##FIRSTY=3.38
##MAXX=547.17
##MINX=310.43
##MAXY=3.492
##MINY=2.036
##NPOINTS=124
##$REF AUTHOR=Corey, E.J.
##$REF JOURNAL=J. Am. Chem. Soc.
##$REF VOLUME=75
##$REF PAGE=1172
##$REF DATE=1953
##XYPOINTS=(XY..XY)
310.43,3.380
311.09,3.379
311.74,3.379
312.39,3.364
314.35,3.356
316.30,3.347
318.26,3.343
320.22,3.341
322.17,3.340
324.13,3.341
326.09,3.342
328.04,3.346
330.00,3.353
331.96,3.364
333.91,3.374
335.87,3.385
337.83,3.400
339.78,3.411
341.74,3.425
343.70,3.435
345.65,3.450
347.61,3.457
349.57,3.471
351.52,3.478
353.48,3.485
355.43,3.490
357.39,3.492
359.35,3.492
361.30,3.492
363.26,3.491
365.22,3.487
367.17,3.478
369.13,3.469
371.09,3.458
373.04,3.444
375.00,3.428
376.96,3.404
378.91,3.380
380.87,3.358
382.83,3.330
384.78,3.304
386.74,3.278
388.70,3.252
390.65,3.217
392.61,3.178
394.57,3.138
396.36,3.099
398.48,3.062
400.49,3.019
402.82,2.972
404.35,2.948
406.30,2.920
408.26,2.889
410.22,2.847
412.17,2.808
414.13,2.761
416.09,2.731
418.04,2.695
420.00,2.670
421.96,2.652
423.91,2.629
425.87,2.614
427.83,2.609
429.78,2.599
431.74,2.593
433.70,2.588
435.65,2.588
437.61,2.588
439.57,2.588
441.52,2.593
443.48,2.601
445.52,2.607
447.39,2.609
449.35,2.609
451.30,2.609
453.26,2.609
455.22,2.609
457.17,2.609
459.13,2.609
461.29,2.607
462.99,2.607
464.86,2.605
466.89,2.603
468.93,2.602
470.87,2.599
472.83,2.593
474.78,2.588
476.73,2.580
478.70,2.572
480.65,2.566
482.61,2.555
484.57,2.549
486.57,2.536
488.48,2.526
490.43,2.513
492.16,2.506
494.35,2.494
496.30,2.487
498.26,2.474
500.22,2.460
502.00,2.443
504.13,2.422
506.09,2.407
508.04,2.390
510.00,2.373
511.67,2.360
513.37,2.345
515.06,2.326
517.10,2.306
519.64,2.279
521.17,2.263
523.37,2.242
525.65,2.218
527.45,2.201
529.57,2.179
530.16,2.173
532.02,2.154
534.74,2.134
536.94,2.118
539.32,2.102
541.35,2.088
543.22,2.073
545.22,2.054
547.17,2.036
##END=
