##TITLE=[16]Annulene
##JCAMP-DX=4.24
##DATA TYPE=UV/VIS SPECTRUM
##ORIGIN=INSTITUTE OF ENERGY PROBLEMS OF CHEMICAL PHYSICS, RAS
##OWNER=INEP CP RAS, NIST OSRD
Collection (C) 2007 copyright by the U.S. Secretary of Commerce
on behalf of the United States of America. All rights reserved.
##CAS REGISTRY NO=3332-38-5
##MOLFORM=C16H16
##MP=92-93 dec.
##SOURCE REFERENCE=RAS UV No. 20201
##$NIST SQUIB=1966SONa14/5
##$NIST SOURCE=TYUGLMTE
##SPECTROMETER/DATA SYSTEM=Cary 14
##XUNITS=Wavelength (nm)
##YUNITS=Logarithm epsilon
##XFACTOR=1.0
##YFACTOR=1.0
##FIRSTX=224.14
##LASTX=557.59
##FIRSTY=3.852
##MAXX=557.59
##MINX=224.14
##MAXY=4.876
##MINY=1.833
##NPOINTS=197
##$REF AUTHOR=Sondheimer, F.
##$REF JOURNAL=UV atlas of organic compounds
##$REF VOLUME=1
##$REF PAGE=A14/5
##$REF DATE=1966
##XYPOINTS=(XY..XY)
224.14,3.852
225.01,3.842
225.88,3.831
226.65,3.818
227.53,3.810
228.53,3.810
229.55,3.810
230.57,3.810
231.60,3.814
232.52,3.822
233.45,3.829
234.39,3.837
235.33,3.846
236.29,3.852
237.25,3.863
238.22,3.872
239.07,3.882
240.06,3.891
241.05,3.899
242.17,3.904
243.11,3.914
244.17,3.924
244.97,3.934
245.74,3.944
246.70,3.957
247.51,3.971
248.36,3.987
249.02,4.002
249.82,4.017
250.36,4.034
251.03,4.051
251.71,4.068
252.25,4.085
252.80,4.102
253.35,4.120
254.04,4.137
254.73,4.154
255.29,4.171
255.99,4.188
256.69,4.205
257.26,4.222
257.83,4.239
258.40,4.256
258.83,4.276
259.26,4.295
259.69,4.312
260.13,4.329
260.56,4.346
261.29,4.363
261.73,4.380
262.32,4.397
263.06,4.412
263.80,4.427
264.55,4.442
265.30,4.457
265.91,4.474
266.52,4.491
266.97,4.511
267.43,4.530
267.89,4.549
268.36,4.568
268.82,4.588
269.13,4.607
269.60,4.626
270.06,4.643
270.53,4.662
271.16,4.679
271.64,4.697
272.27,4.714
272.91,4.731
273.55,4.748
274.35,4.763
275.16,4.780
276.14,4.795
276.96,4.810
277.78,4.825
278.78,4.840
279.95,4.850
281.13,4.861
282.49,4.870
284.04,4.874
285.60,4.876
287.02,4.875
288.16,4.871
289.06,4.866
289.79,4.862
290.76,4.856
291.67,4.848
292.95,4.838
294.25,4.825
295.55,4.806
296.87,4.780
298.19,4.744
299.53,4.692
300.89,4.590
302.25,4.502
303.63,4.389
305.02,4.271
306.42,4.173
307.83,4.072
309.26,3.968
310.70,3.857
312.16,3.754
313.63,3.658
315.11,3.566
316.61,3.470
318.12,3.361
319.64,3.239
321.18,3.154
322.74,3.083
324.31,3.021
325.89,2.983
327.49,2.957
329.11,2.940
330.74,2.929
332.39,2.921
334.06,2.912
335.74,2.908
337.44,2.908
339.16,2.908
340.89,2.908
342.64,2.908
344.41,2.908
346.20,2.908
348.01,2.908
349.83,2.906
351.68,2.906
353.55,2.906
355.43,2.901
357.34,2.899
359.26,2.899
361.21,2.899
363.18,2.897
365.17,2.897
367.18,2.895
369.21,2.891
371.27,2.889
373.35,2.886
375.45,2.886
377.57,2.884
379.73,2.880
381.90,2.878
384.10,2.874
386.33,2.861
388.58,2.854
390.69,2.851
393.16,2.848
395.32,2.845
397.64,2.842
400.18,2.839
402.66,2.835
405.15,2.831
407.58,2.828
410.11,2.824
412.76,2.819
414.64,2.816
417.07,2.812
420.38,2.807
422.92,2.803
425.81,2.797
428.55,2.792
431.32,2.786
434.03,2.780
436.97,2.773
439.86,2.765
442.66,2.757
445.74,2.750
448.74,2.741
451.78,2.733
454.86,2.722
457.99,2.709
461.16,2.696
464.37,2.683
467.63,2.671
470.93,2.651
474.28,2.630
477.68,2.609
481.13,2.581
484.62,2.557
488.17,2.529
491.77,2.500
495.43,2.468
499.14,2.435
502.90,2.401
506.73,2.384
510.61,2.369
514.55,2.333
518.55,2.294
522.62,2.258
526.75,2.217
530.94,2.168
535.20,2.119
539.54,2.068
543.94,2.017
548.41,1.957
552.38,1.896
557.59,1.833
##END=
