##TITLE=Trifluoronitrosomethane
##JCAMP-DX=4.24
##DATA TYPE=UV/VIS SPECTRUM
##ORIGIN=INSTITUTE OF ENERGY PROBLEMS OF CHEMICAL PHYSICS, RAS
##OWNER=INEP CP RAS, NIST OSRD
Collection (C) 2007 copyright by the U.S. Secretary of Commerce
on behalf of the United States of America. All rights reserved.
##CAS REGISTRY NO=334-99-6
##MOLFORM=CF3NO
##MP=121.5
##BP=315
##SOURCE REFERENCE=RAS UV No. 12500
##$NIST SQUIB=1957MAS3904
##$NIST SOURCE=TYUGLMTE
##SPECTROMETER/DATA SYSTEM=Cary recording spectrophotometer
##XUNITS=Wavelength (nm)
##YUNITS=Logarithm epsilon
##XFACTOR=1.0
##YFACTOR=1.0
##FIRSTX=506.51
##LASTX=754.7
##FIRSTY=0.082
##MAXX=754.7
##MINX=506.51
##MAXY=1.344
##MINY=0.033
##NPOINTS=155
##$REF AUTHOR=Mason, J.
##$REF JOURNAL=J. Chem. Soc.
##$REF PAGE=3904
##$REF DATE=1957
##XYPOINTS=(XY..XY)
506.51,0.082
508.87,0.104
511.64,0.128
514.15,0.153
516.72,0.176
519.24,0.203
521.65,0.228
524.11,0.253
526.60,0.278
529.16,0.305
531.70,0.325
534.25,0.348
536.51,0.367
539.05,0.391
541.59,0.414
543.86,0.434
546.13,0.458
548.63,0.487
550.66,0.510
552.92,0.538
554.90,0.565
556.88,0.594
558.86,0.617
560.84,0.639
563.11,0.660
565.37,0.680
567.38,0.697
569.33,0.722
571.03,0.742
572.73,0.762
574.31,0.785
575.84,0.805
577.26,0.826
578.96,0.842
580.94,0.858
582.63,0.873
584.62,0.886
586.31,0.902
588.29,0.916
589.99,0.932
591.41,0.947
593.11,0.962
594.52,0.978
596.22,0.991
597.63,1.006
599.05,1.021
600.18,1.035
601.60,1.047
602.73,1.060
604.14,1.073
605.56,1.084
606.97,1.095
608.67,1.104
610.65,1.111
612.63,1.118
614.61,1.127
616.31,1.136
618.01,1.144
619.42,1.154
621.12,1.162
622.54,1.171
623.95,1.179
625.37,1.188
626.78,1.196
628.48,1.203
630.46,1.210
632.44,1.217
634.71,1.222
636.69,1.227
638.67,1.233
640.65,1.239
642.35,1.246
644.33,1.252
646.03,1.259
647.44,1.266
648.86,1.273
650.27,1.281
651.97,1.287
653.67,1.292
655.36,1.298
657.06,1.305
659.04,1.310
661.02,1.316
663.01,1.320
664.99,1.325
666.97,1.330
668.95,1.334
671.21,1.339
673.48,1.342
676.02,1.342
678.29,1.339
680.83,1.339
683.38,1.339
685.93,1.340
688.19,1.344
690.74,1.344
693.00,1.340
694.70,1.334
696.12,1.327
697.53,1.320
698.66,1.313
699.80,1.306
700.93,1.298
701.78,1.290
702.63,1.282
703.76,1.274
704.89,1.266
706.02,1.257
706.87,1.248
708.00,1.239
709.13,1.231
709.98,1.222
711.40,1.213
712.53,1.203
713.66,1.194
714.79,1.184
716.21,1.176
717.34,1.165
718.64,1.157
720.17,1.146
721.31,1.136
722.44,1.124
723.28,1.111
724.42,1.099
725.27,1.085
726.11,1.071
726.96,1.057
727.81,1.042
728.66,1.026
729.51,1.010
730.08,0.993
730.92,0.976
731.77,0.957
732.34,0.938
732.91,0.919
733.75,0.898
734.60,0.876
735.17,0.853
736.02,0.828
736.87,0.803
737.72,0.775
738.57,0.746
739.41,0.714
740.26,0.680
741.11,0.644
741.96,0.608
743.09,0.570
743.94,0.522
745.07,0.474
746.49,0.420
747.90,0.359
749.60,0.298
751.02,0.215
753.00,0.140
754.70,0.033
##END=
