##TITLE=1,2-dihydro-3-methyl benz[j]aceanthrylen-11-ol
##JCAMP-DX=4.24
##DATA TYPE=UV/VIS SPECTRUM
##ORIGIN=INSTITUTE OF ENERGY PROBLEMS OF CHEMICAL PHYSICS, RAS
##OWNER=INEP CP RAS, NIST OSRD
Collection (C) 2007 copyright by the U.S. Secretary of Commerce
on behalf of the United States of America. All rights reserved.
##CAS REGISTRY NO=3343-11-1
##MOLFORM=C21H16O
##SOURCE REFERENCE=RAS UV No. 22804
##$NIST SQUIB=1976KEL/HEI2328
##$NIST SOURCE=TYUGLMTE
##SPECTROMETER/DATA SYSTEM=Cary 15
##XUNITS=Wavelength (nm)
##YUNITS=Logarithm epsilon
##XFACTOR=1.0
##YFACTOR=1.0
##FIRSTX=249.931
##LASTX=308.602
##FIRSTY=4.441
##MAXX=308.602
##MINX=249.931
##MAXY=4.7
##MINY=4.311
##NPOINTS=122
##$REF AUTHOR=Keller, J.W.; Heidelberger, C.
##$REF JOURNAL=J. Am. Chem. Soc.
##$REF VOLUME=98
##$REF PAGE=2328
##$REF DATE=1976
##XYPOINTS=(XY..XY)
249.931,4.441
250.431,4.449
250.931,4.457
251.431,4.466
251.931,4.476
252.431,4.486
252.931,4.497
253.431,4.509
253.931,4.523
254.431,4.539
254.931,4.556
255.431,4.575
255.931,4.597
256.450,4.610
256.916,4.614
257.382,4.614
257.847,4.607
258.313,4.597
258.619,4.588
258.900,4.580
259.400,4.571
259.900,4.564
260.400,4.556
260.900,4.550
261.400,4.544
261.900,4.539
262.400,4.535
262.900,4.531
263.400,4.528
263.900,4.526
264.400,4.524
264.900,4.523
265.400,4.522
265.900,4.522
266.400,4.522
266.900,4.523
267.400,4.524
267.900,4.526
268.400,4.528
268.900,4.530
269.400,4.533
269.924,4.537
270.424,4.541
270.924,4.545
271.424,4.548
271.924,4.551
272.424,4.555
272.924,4.559
273.424,4.564
273.924,4.569
274.424,4.575
274.924,4.581
275.424,4.588
275.924,4.595
276.424,4.602
276.924,4.609
277.424,4.617
277.924,4.624
278.424,4.630
278.924,4.637
279.424,4.642
279.924,4.647
280.424,4.651
280.924,4.654
281.424,4.656
281.924,4.657
282.442,4.658
282.909,4.660
283.376,4.658
283.923,4.656
284.389,4.654
284.854,4.652
285.320,4.652
285.712,4.655
286.251,4.660
286.717,4.665
287.182,4.669
287.648,4.675
288.142,4.681
288.609,4.687
289.045,4.692
289.511,4.696
289.976,4.700
290.442,4.700
290.908,4.696
291.373,4.690
291.878,4.679
292.378,4.670
292.878,4.660
293.378,4.650
293.878,4.639
294.378,4.627
294.878,4.615
295.378,4.601
295.878,4.587
296.378,4.572
296.878,4.556
297.378,4.540
297.878,4.523
298.378,4.508
298.878,4.493
299.378,4.479
299.755,4.469
300.220,4.455
300.567,4.450
300.941,4.444
301.408,4.440
302.083,4.441
302.548,4.445
302.996,4.451
303.480,4.455
303.945,4.459
304.411,4.462
304.877,4.462
305.342,4.462
305.808,4.459
306.274,4.452
306.739,4.434
307.205,4.415
307.671,4.383
308.136,4.349
308.602,4.311
##END=
