##TITLE=N-[(2-methoxyphenyl)methylene]benzenamine
##JCAMP-DX=4.24
##DATA TYPE=UV/VIS SPECTRUM
##ORIGIN=INSTITUTE OF ENERGY PROBLEMS OF CHEMICAL PHYSICS, RAS
##OWNER=INEP CP RAS, NIST OSRD
Collection (C) 2007 copyright by the U.S. Secretary of Commerce
on behalf of the United States of America. All rights reserved.
##CAS REGISTRY NO=3369-37-7
##MOLFORM=C14H13NO
##SOURCE REFERENCE=RAS UV No. 23031
##$NIST SQUIB=1984KNI/554
##$NIST SOURCE=TYUGLMTE
##SPECTROMETER/DATA SYSTEM=unknown
##XUNITS=Wavelength (nm)
##YUNITS=Logarithm epsilon
##XFACTOR=1.0
##YFACTOR=1.0
##FIRSTX=226.336
##LASTX=381.026
##FIRSTY=4.181
##MAXX=381.026
##MINX=226.336
##MAXY=4.183
##MINY=3.048
##NPOINTS=92
##$REF AUTHOR=Kniazhansky, M.I.; et al.
##$REF JOURNAL=Khim. Geterosikl. Soedin.
##$REF PAGE=554
##$REF DATE=1984
##XYPOINTS=(XY..XY)
226.336,4.181
227.365,4.164
228.404,4.146
229.452,4.129
230.510,4.112
231.577,4.097
232.655,4.082
233.742,4.068
234.840,4.053
235.948,4.036
237.067,4.017
238.196,3.998
239.337,3.979
240.455,3.959
241.617,3.940
242.790,3.925
243.975,3.916
245.171,3.912
246.379,3.916
247.599,3.926
248.832,3.941
250.076,3.960
251.223,3.983
252.491,4.011
253.773,4.040
255.068,4.067
256.375,4.091
257.697,4.112
259.032,4.130
260.183,4.144
261.544,4.159
262.919,4.170
264.309,4.178
265.714,4.183
267.133,4.183
268.568,4.178
271.290,4.161
272.770,4.147
274.266,4.128
275.779,4.106
277.309,4.084
278.855,4.062
280.419,4.041
282.001,4.022
283.600,4.005
285.218,3.987
286.854,3.967
288.441,3.950
290.114,3.936
291.807,3.927
293.520,3.925
295.254,3.929
297.008,3.938
298.782,3.952
300.579,3.968
302.396,3.985
304.236,4.002
306.099,4.018
307.984,4.034
309.893,4.050
311.826,4.066
313.783,4.085
313.902,4.085
315.885,4.101
317.893,4.116
319.927,4.128
321.987,4.137
324.074,4.144
326.189,4.147
328.330,4.146
330.501,4.140
332.700,4.129
334.929,4.111
337.187,4.085
339.477,4.048
339.617,4.045
341.940,4.015
344.294,3.986
346.681,3.953
349.102,3.915
351.556,3.873
354.046,3.825
356.571,3.773
359.132,3.717
361.730,3.658
364.366,3.594
367.041,3.525
369.755,3.447
372.510,3.356
375.306,3.251
378.144,3.136
381.026,3.048
##END=
