##TITLE=1-(2,4-dimethylbenzoyl)-N-(1-methylethyl) benzamide
##JCAMP-DX=4.24
##DATA TYPE=UV/VIS SPECTRUM
##ORIGIN=INSTITUTE OF ENERGY PROBLEMS OF CHEMICAL PHYSICS, RAS
##OWNER=INEP CP RAS, NIST OSRD
Collection (C) 2007 copyright by the U.S. Secretary of Commerce
on behalf of the United States of America. All rights reserved.
##CAS REGISTRY NO=33885-57-3
##MOLFORM=C19H21NO2
##SOURCE REFERENCE=RAS UV No. 22614
##$NIST SQUIB=1977KAR/763
##$NIST SOURCE=TYUGLMTE
##SPECTROMETER/DATA SYSTEM=Specord UV-Vis
##XUNITS=Wavelength (nm)
##YUNITS=Logarithm epsilon
##XFACTOR=1.0
##YFACTOR=1.0
##FIRSTX=215.162
##LASTX=469.146
##FIRSTY=4.139
##MAXX=469.146
##MINX=215.162
##MAXY=4.15
##MINY=2.628
##NPOINTS=173
##$REF AUTHOR=Karlivan, G.A.; et al.
##$REF JOURNAL=Khim. Geterosikl. Soedin.
##$REF PAGE=763
##$REF DATE=1977
##XYPOINTS=(XY..XY)
215.162,4.139
216.662,4.146
218.162,4.143
219.662,4.133
221.162,4.119
222.662,4.103
224.162,4.086
225.662,4.068
227.162,4.050
228.662,4.032
230.162,4.012
231.662,3.992
233.162,3.969
234.662,3.944
236.162,3.916
237.662,3.886
239.162,3.853
240.662,3.818
242.162,3.781
243.662,3.743
245.162,3.704
246.662,3.666
248.162,3.629
249.662,3.594
251.162,3.563
252.662,3.535
254.162,3.513
255.662,3.497
257.162,3.486
258.662,3.482
260.162,3.485
261.662,3.494
263.162,3.508
264.662,3.526
266.162,3.549
267.662,3.574
269.162,3.601
270.662,3.628
272.162,3.655
273.662,3.682
275.162,3.709
276.554,3.739
278.054,3.763
279.554,3.787
281.054,3.806
282.554,3.818
284.054,3.824
285.554,3.824
287.054,3.820
288.554,3.814
290.054,3.807
291.554,3.801
293.054,3.798
294.554,3.799
296.054,3.804
297.554,3.815
299.054,3.829
300.554,3.848
302.054,3.868
303.554,3.890
305.054,3.910
306.554,3.929
308.054,3.946
309.554,3.961
311.054,3.977
311.061,3.978
312.561,3.997
314.061,4.017
315.561,4.036
317.061,4.055
318.561,4.073
320.061,4.089
321.561,4.105
323.061,4.118
324.561,4.129
326.061,4.138
327.561,4.145
329.061,4.149
330.561,4.150
332.061,4.149
333.561,4.145
335.061,4.138
336.561,4.130
338.061,4.119
339.561,4.107
341.061,4.093
342.561,4.078
344.061,4.062
345.561,4.045
347.061,4.028
348.561,4.012
350.061,3.995
351.561,3.979
353.061,3.964
354.561,3.949
356.061,3.934
357.561,3.920
359.061,3.905
360.561,3.890
362.061,3.874
362.421,3.869
363.921,3.850
365.421,3.833
366.921,3.817
368.421,3.802
369.921,3.788
371.421,3.775
372.921,3.762
374.421,3.751
375.921,3.740
377.421,3.729
378.921,3.720
380.421,3.710
381.921,3.702
383.421,3.694
384.921,3.687
386.421,3.680
387.921,3.674
389.421,3.669
390.921,3.664
392.421,3.660
393.921,3.656
395.421,3.653
396.921,3.651
398.421,3.650
399.921,3.649
401.421,3.648
402.921,3.648
404.421,3.648
405.921,3.649
407.421,3.650
408.921,3.651
410.421,3.652
411.921,3.653
413.421,3.654
414.921,3.654
416.421,3.654
417.921,3.653
419.421,3.651
420.921,3.647
422.421,3.643
423.921,3.636
425.421,3.628
426.921,3.617
428.421,3.604
429.921,3.588
431.421,3.569
432.921,3.547
434.421,3.521
434.646,3.517
436.146,3.491
437.646,3.457
439.146,3.417
440.646,3.373
442.146,3.327
443.646,3.280
445.146,3.233
446.646,3.187
448.146,3.142
449.646,3.099
451.146,3.058
452.646,3.018
454.146,2.981
455.646,2.945
457.146,2.911
458.646,2.877
460.146,2.844
461.646,2.810
463.146,2.777
464.646,2.742
466.146,2.706
467.646,2.668
469.146,2.628
##END=
