##TITLE=N-(4-Nitrophenyl)benzoic acid amide
##JCAMP-DX=4.24
##DATA TYPE=UV/VIS SPECTRUM
##ORIGIN=INSTITUTE OF ENERGY PROBLEMS OF CHEMICAL PHYSICS, RAS
##OWNER=INEP CP RAS, NIST OSRD
Collection (C) 2007 copyright by the U.S. Secretary of Commerce
on behalf of the United States of America. All rights reserved.
##CAS REGISTRY NO=3393-96-2
##MOLFORM=C13H10N2O3
##MP=201-201.5
##SOURCE REFERENCE=RAS UV No. 19081
##$NIST SQUIB=1969LAN159
##$NIST SOURCE=TYUGLMTE
##SPECTROMETER/DATA SYSTEM=Unicam SP 500
##XUNITS=Wavelength (nm)
##YUNITS=Logarithm epsilon
##XFACTOR=1.0
##YFACTOR=1.0
##FIRSTX=212.7
##LASTX=409.51
##FIRSTY=4.141
##MAXX=409.51
##MINX=212.7
##MAXY=4.283
##MINY=1.433
##NPOINTS=204
##$REF AUTHOR=Lang (editor), L.
##$REF JOURNAL=Absorption Spectra in the Ultraviolet and Visible Region
##$REF VOLUME=13
##$REF PAGE=159
##$REF DATE=1969
##XYPOINTS=(XY..XY)
212.70,4.141
214.06,4.124
215.41,4.107
216.77,4.093
218.29,4.086
219.82,4.090
221.34,4.096
222.70,4.110
224.05,4.127
225.24,4.144
226.59,4.154
227.95,4.168
229.47,4.168
230.99,4.168
232.52,4.164
234.04,4.154
235.57,4.147
236.92,4.134
238.28,4.120
239.46,4.100
240.65,4.083
241.66,4.059
242.68,4.039
243.70,4.018
244.54,3.991
245.39,3.967
246.24,3.940
247.08,3.916
247.93,3.893
248.78,3.869
249.62,3.845
250.64,3.821
251.49,3.798
252.50,3.774
253.52,3.753
254.54,3.730
255.72,3.709
256.91,3.689
258.09,3.668
259.45,3.655
260.80,3.641
262.16,3.628
263.68,3.624
265.21,3.624
266.73,3.634
268.09,3.648
269.27,3.665
270.46,3.685
271.47,3.706
272.66,3.726
273.84,3.747
275.03,3.767
276.05,3.791
277.23,3.811
278.42,3.828
279.60,3.848
280.62,3.872
281.80,3.889
282.99,3.906
284.18,3.923
285.36,3.940
286.55,3.957
287.73,3.978
288.92,3.998
290.10,4.015
291.29,4.032
292.47,4.049
293.66,4.066
294.85,4.083
296.03,4.100
297.39,4.113
298.57,4.130
299.76,4.147
301.11,4.161
302.47,4.178
303.82,4.192
305.18,4.202
306.53,4.215
307.89,4.229
309.24,4.242
310.77,4.249
312.12,4.259
313.65,4.266
315.00,4.276
316.53,4.280
318.05,4.280
319.57,4.283
321.10,4.283
322.62,4.283
324.15,4.280
325.67,4.276
327.20,4.266
328.72,4.259
330.07,4.246
331.43,4.232
332.78,4.219
334.14,4.205
335.49,4.192
336.68,4.175
338.03,4.161
339.05,4.141
340.24,4.124
341.25,4.103
342.44,4.083
343.62,4.062
344.64,4.042
345.66,4.022
346.67,4.001
347.69,3.981
348.70,3.961
349.72,3.937
350.74,3.916
351.58,3.893
352.60,3.869
353.62,3.845
354.46,3.821
355.48,3.798
356.33,3.770
357.34,3.750
358.19,3.723
359.21,3.699
360.05,3.672
360.90,3.648
361.75,3.621
362.76,3.597
363.61,3.570
364.29,3.543
365.13,3.519
365.81,3.492
366.66,3.468
367.34,3.441
368.35,3.417
368.86,3.390
369.71,3.366
370.38,3.339
371.23,3.315
371.74,3.288
372.59,3.261
373.43,3.234
373.94,3.206
374.79,3.183
375.47,3.156
376.14,3.128
376.82,3.101
377.50,3.074
378.17,3.047
378.85,3.020
379.36,2.992
380.21,2.965
380.72,2.938
381.39,2.911
381.90,2.884
382.58,2.857
383.09,2.829
383.59,2.802
384.27,2.775
384.78,2.748
385.29,2.721
385.97,2.694
386.47,2.666
387.15,2.639
387.66,2.612
388.34,2.585
388.85,2.558
389.35,2.530
390.03,2.503
390.54,2.476
391.22,2.449
391.72,2.422
392.40,2.395
392.91,2.364
393.42,2.337
394.10,2.310
394.60,2.283
395.28,2.255
395.79,2.228
396.47,2.201
396.97,2.170
397.14,2.140
397.82,2.113
398.33,2.085
398.84,2.058
399.35,2.031
399.85,2.004
400.36,1.977
400.87,1.950
401.38,1.922
401.89,1.892
402.39,1.865
402.90,1.838
403.41,1.807
403.92,1.780
404.43,1.749
404.94,1.719
405.27,1.688
405.78,1.661
406.29,1.634
406.80,1.607
407.14,1.576
407.64,1.549
408.15,1.518
408.66,1.491
409.00,1.460
409.51,1.433
##END=
