##TITLE=1,3-Diphenylpropene
##JCAMP-DX=4.24
##DATA TYPE=UV/VIS SPECTRUM
##ORIGIN=INSTITUTE OF ENERGY PROBLEMS OF CHEMICAL PHYSICS, RAS
##OWNER=INEP CP RAS, NIST OSRD
Collection (C) 2007 copyright by the U.S. Secretary of Commerce
on behalf of the United States of America. All rights reserved.
##CAS REGISTRY NO=3412-44-0
##MOLFORM=C15H14
##BP=100-120
##SOURCE REFERENCE=RAS UV No. 12789
##$NIST SQUIB=1957BEA/JOH651
##$NIST SOURCE=TYUGLMTE
##SPECTROMETER/DATA SYSTEM=Unicam SP 500
##XUNITS=Wavelength (nm)
##YUNITS=Logarithm epsilon
##XFACTOR=1.0
##YFACTOR=1.0
##FIRSTX=203.76
##LASTX=291.49
##FIRSTY=4.368
##MAXX=291.49
##MINX=203.76
##MAXY=4.368
##MINY=1.835
##NPOINTS=134
##$REF AUTHOR=Beaven, G.H.; Johnson, E.A.
##$REF JOURNAL=J. Chem. Soc.
##$REF PAGE=651
##$REF DATE=1957
##XYPOINTS=(XY..XY)
203.76,4.368
203.96,4.364
204.16,4.360
204.36,4.356
204.55,4.352
204.75,4.348
204.95,4.344
205.15,4.340
205.35,4.336
205.54,4.332
205.74,4.328
205.94,4.324
206.14,4.320
206.34,4.316
206.53,4.312
206.73,4.308
206.93,4.304
207.12,4.300
207.32,4.298
207.51,4.293
208.32,4.275
209.11,4.253
209.90,4.217
210.48,4.181
211.13,4.128
211.49,4.087
212.28,4.039
213.07,4.003
213.86,3.980
214.65,3.972
215.45,3.972
216.24,3.960
216.71,3.942
217.03,3.916
217.28,3.881
217.82,3.817
218.25,3.761
218.61,3.707
218.95,3.676
219.41,3.655
220.20,3.639
220.99,3.643
221.78,3.655
222.57,3.671
223.39,3.693
224.16,3.715
224.95,3.734
225.74,3.762
226.53,3.782
227.33,3.806
228.12,3.825
228.91,3.845
229.68,3.867
230.50,3.885
231.29,3.904
232.06,3.922
232.87,3.940
233.66,3.956
234.37,3.969
235.40,3.983
236.11,3.992
236.83,3.999
237.65,4.010
238.42,4.019
239.19,4.026
240.03,4.030
240.79,4.031
241.58,4.031
242.38,4.031
243.17,4.031
243.94,4.031
244.71,4.031
245.54,4.027
246.34,4.023
247.13,4.015
247.92,4.007
248.63,4.000
249.50,3.988
250.30,3.980
251.09,3.968
251.97,3.953
252.67,3.940
253.47,3.924
254.26,3.904
254.99,3.883
255.84,3.853
256.63,3.821
257.43,3.794
258.22,3.762
259.17,3.727
259.80,3.703
260.59,3.663
261.39,3.627
262.06,3.598
262.97,3.556
263.76,3.517
264.50,3.484
265.35,3.437
266.14,3.386
266.93,3.335
267.78,3.283
268.74,3.219
269.31,3.176
270.10,3.089
270.99,2.998
271.68,2.935
272.48,2.860
273.27,2.812
273.82,2.766
274.71,2.703
275.64,2.654
276.44,2.618
277.23,2.575
278.02,2.543
278.81,2.519
279.60,2.496
280.40,2.464
281.14,2.431
281.98,2.401
282.62,2.364
283.56,2.306
284.36,2.254
285.15,2.195
285.94,2.151
286.73,2.100
287.52,2.060
287.88,2.035
288.32,2.013
289.11,2.009
289.90,1.997
290.39,1.964
290.69,1.937
291.10,1.883
291.49,1.835
##END=
