##TITLE=2-amino-4-(dimethylamino)-8-beta-D-ribofuranosyl-7(8H)-pteridinone
##JCAMP-DX=4.24
##DATA TYPE=UV/VIS SPECTRUM
##ORIGIN=INSTITUTE OF ENERGY PROBLEMS OF CHEMICAL PHYSICS, RAS
##OWNER=INEP CP RAS, NIST OSRD
Collection (C) 2007 copyright by the U.S. Secretary of Commerce
on behalf of the United States of America. All rights reserved.
##CAS REGISTRY NO=34393-51-6
##MOLFORM=C13H18N6O5
##MP=233(dec)
##SOURCE REFERENCE=RAS UV No. 22673
##$NIST SQUIB=1977AUT/1194
##$NIST SOURCE=TYUGLMTE
##SPECTROMETER/DATA SYSTEM=Cary 15
##XUNITS=Wavelength (nm)
##YUNITS=Logarithm epsilon
##XFACTOR=1.0
##YFACTOR=1.0
##FIRSTX=204.445
##LASTX=392.065
##FIRSTY=4.485
##MAXX=392.065
##MINX=204.445
##MAXY=4.516
##MINY=3.656
##NPOINTS=191
##$REF AUTHOR=Autenreith, D.; et al.
##$REF JOURNAL=Liebigs Ann. Chem.
##$REF PAGE=1194
##$REF DATE=1977
##XYPOINTS=(XY..XY)
204.445,4.485
205.445,4.488
206.445,4.494
207.445,4.503
208.445,4.510
209.445,4.515
210.445,4.516
211.445,4.512
212.445,4.502
213.445,4.487
214.445,4.465
215.445,4.438
216.445,4.406
217.445,4.372
218.445,4.336
218.997,4.318
219.997,4.283
220.997,4.244
221.997,4.204
222.997,4.164
223.997,4.126
224.997,4.090
225.997,4.058
226.997,4.031
227.997,4.008
228.997,3.991
229.997,3.978
230.997,3.971
231.997,3.968
232.997,3.969
233.997,3.971
234.762,3.976
235.762,3.978
236.762,3.979
237.762,3.980
238.762,3.981
239.762,3.982
240.762,3.982
241.762,3.982
242.762,3.980
243.762,3.978
244.762,3.975
245.762,3.971
246.762,3.966
247.762,3.959
248.762,3.952
249.762,3.944
250.762,3.936
251.762,3.927
252.762,3.918
253.762,3.910
254.762,3.903
255.681,3.898
256.681,3.898
257.681,3.897
258.681,3.897
259.681,3.901
260.681,3.909
261.681,3.922
262.681,3.938
263.681,3.959
264.681,3.982
265.681,4.007
266.681,4.033
267.681,4.058
268.681,4.082
269.681,4.103
270.234,4.116
271.234,4.130
272.234,4.142
273.234,4.154
274.234,4.165
275.234,4.175
276.234,4.183
277.234,4.189
278.234,4.192
279.234,4.191
280.234,4.186
281.234,4.176
282.234,4.161
283.234,4.141
284.234,4.115
285.234,4.084
286.234,4.049
287.234,4.011
288.234,3.973
289.234,3.937
290.234,3.906
291.153,3.888
292.153,3.870
293.153,3.855
294.153,3.843
295.153,3.832
296.153,3.823
297.153,3.815
298.153,3.808
299.153,3.801
300.153,3.794
301.153,3.787
302.153,3.780
303.153,3.773
304.153,3.765
305.153,3.757
306.153,3.749
307.153,3.741
308.153,3.732
309.153,3.724
310.153,3.715
311.153,3.706
312.153,3.698
313.153,3.690
314.153,3.683
315.153,3.676
316.153,3.670
317.153,3.665
318.153,3.661
319.153,3.658
320.153,3.656
321.153,3.656
322.153,3.656
323.153,3.658
324.153,3.662
325.153,3.666
326.153,3.671
327.153,3.677
327.231,3.677
328.231,3.684
329.231,3.692
330.231,3.701
331.231,3.710
332.231,3.720
333.231,3.730
334.231,3.742
335.231,3.754
336.231,3.767
337.231,3.780
338.231,3.794
339.231,3.808
340.231,3.823
341.231,3.838
342.231,3.853
343.231,3.868
344.231,3.884
345.231,3.899
346.231,3.914
347.231,3.929
348.231,3.944
349.231,3.958
350.231,3.972
351.231,3.986
352.231,3.999
353.231,4.011
354.231,4.023
355.231,4.034
356.231,4.045
357.231,4.056
358.231,4.066
359.065,4.073
360.065,4.084
361.065,4.095
362.065,4.104
363.065,4.113
364.065,4.120
365.065,4.127
366.065,4.132
367.065,4.137
368.065,4.141
369.065,4.145
370.065,4.148
371.065,4.149
372.065,4.151
373.065,4.151
374.065,4.151
375.065,4.149
376.065,4.148
377.065,4.145
378.065,4.141
379.065,4.137
380.065,4.131
381.065,4.125
382.065,4.117
383.065,4.109
384.065,4.099
385.065,4.088
386.065,4.076
387.065,4.063
388.065,4.048
389.065,4.031
390.065,4.013
391.065,3.993
392.065,3.971
##END=
