##TITLE=Pyrimidine, 4-phenyl-
##JCAMP-DX=4.24
##DATA TYPE=UV/VIS SPECTRUM
##ORIGIN=INSTITUTE OF ENERGY PROBLEMS OF CHEMICAL PHYSICS, RAS
##OWNER=INEP CP RAS, NIST OSRD
Collection (C) 2007 copyright by the U.S. Secretary of Commerce
on behalf of the United States of America. All rights reserved.
##CAS REGISTRY NO=3438-48-0
##MOLFORM=C10H8N2
##SOURCE REFERENCE=RAS UV No. 12701
##$NIST SQUIB=1957VAN/CLA276
##$NIST SOURCE=TYUGLMTE
##SPECTROMETER/DATA SYSTEM=n.i.g.
##XUNITS=Wavelength (nm)
##YUNITS=Logarithm epsilon
##XFACTOR=1.0
##YFACTOR=1.0
##FIRSTX=211.79
##LASTX=302.07
##FIRSTY=4.094
##MAXX=302.07
##MINX=211.79
##MAXY=4.192
##MINY=2.913
##NPOINTS=221
##$REF AUTHOR=Vanderhaeghe, H.; Claesen, M.
##$REF JOURNAL=Bull. soc. chim. Belges
##$REF VOLUME=66
##$REF PAGE=276
##$REF DATE=1957
##XYPOINTS=(XY..XY)
211.79,4.094
212.19,4.078
212.59,4.062
213.09,4.048
213.39,4.032
213.99,4.018
214.28,4.000
214.58,3.982
215.18,3.969
215.48,3.953
215.78,3.937
216.28,3.923
216.58,3.907
217.07,3.893
217.47,3.877
218.07,3.863
218.37,3.847
218.67,3.831
219.07,3.815
219.57,3.799
219.96,3.783
220.46,3.767
220.96,3.751
221.46,3.735
221.96,3.718
222.55,3.704
223.05,3.690
223.75,3.678
224.45,3.668
225.14,3.658
225.94,3.648
226.74,3.640
227.64,3.638
228.43,3.646
229.33,3.650
230.03,3.660
230.72,3.670
231.32,3.682
232.02,3.692
232.72,3.704
233.22,3.720
233.81,3.733
234.31,3.749
234.91,3.763
235.41,3.779
235.91,3.793
236.40,3.807
237.00,3.819
237.60,3.833
238.20,3.845
238.80,3.857
239.49,3.869
240.09,3.883
240.79,3.893
241.49,3.903
242.28,3.913
243.08,3.923
243.88,3.933
244.67,3.941
245.47,3.949
246.17,3.959
246.97,3.965
247.86,3.969
248.66,3.976
249.46,3.984
250.35,3.988
251.15,3.996
251.95,4.002
252.84,4.006
253.64,4.012
254.54,4.016
255.34,4.022
256.03,4.032
256.83,4.040
257.63,4.048
258.42,4.058
259.12,4.068
259.82,4.078
260.52,4.088
261.21,4.098
261.91,4.108
262.61,4.118
263.31,4.130
264.10,4.140
264.90,4.148
265.70,4.156
266.49,4.164
267.29,4.170
268.09,4.178
268.99,4.182
269.88,4.188
270.78,4.190
271.68,4.192
272.57,4.192
273.47,4.188
274.27,4.180
275.06,4.170
275.76,4.160
276.46,4.150
277.16,4.138
277.75,4.126
278.35,4.112
279.05,4.100
279.75,4.090
280.24,4.076
280.84,4.062
281.44,4.050
281.94,4.036
282.44,4.020
283.03,4.006
283.53,3.992
284.03,3.978
284.53,3.961
285.03,3.945
285.53,3.931
285.92,3.915
286.32,3.899
286.82,3.885
287.22,3.869
287.72,3.853
288.12,3.837
288.41,3.821
288.91,3.805
289.21,3.787
289.61,3.771
290.11,3.757
290.41,3.739
290.71,3.722
291.11,3.706
291.40,3.690
291.70,3.674
292.10,3.658
292.40,3.640
292.60,3.622
293.00,3.606
293.30,3.590
293.60,3.574
293.89,3.558
294.19,3.542
294.39,3.524
294.69,3.508
294.89,3.490
295.19,3.473
295.49,3.457
295.79,3.441
295.89,3.423
296.39,3.407
296.49,3.389
296.78,3.373
297.08,3.357
297.28,3.339
297.48,3.321
297.68,3.303
297.88,3.285
298.18,3.269
298.38,3.251
298.68,3.233
298.78,3.214
298.98,3.196
299.18,3.178
299.38,3.160
299.67,3.144
299.77,3.126
299.97,3.108
300.17,3.090
300.47,3.072
300.57,3.054
300.87,3.038
300.97,3.020
301.17,3.002
301.37,2.984
301.57,2.965
301.77,2.947
302.07,2.931
302.07,2.913
302.07,2.931
302.07,2.913
302.07,2.931
302.07,2.913
302.07,2.931
302.07,2.913
302.07,2.931
302.07,2.913
302.07,2.931
302.07,2.913
302.07,2.931
302.07,2.913
302.07,2.931
302.07,2.913
302.07,2.931
302.07,2.913
302.07,2.931
302.07,2.913
302.07,2.931
302.07,2.913
302.07,2.931
302.07,2.913
302.07,2.931
302.07,2.913
302.07,2.931
302.07,2.913
302.07,2.931
302.07,2.913
302.07,2.931
302.07,2.913
302.07,2.931
302.07,2.913
302.07,2.931
302.07,2.913
302.07,2.931
302.07,2.913
302.07,2.931
302.07,2.913
302.07,2.931
302.07,2.913
302.07,2.931
302.07,2.913
302.07,2.931
302.07,2.913
302.07,2.931
302.07,2.913
##END=
