##TITLE=2-hydroxy-5-methoxy-3-nitrobenzaldehyde
##JCAMP-DX=4.24
##DATA TYPE=UV/VIS SPECTRUM
##ORIGIN=INSTITUTE OF ENERGY PROBLEMS OF CHEMICAL PHYSICS, RAS
##OWNER=INEP CP RAS, NIST OSRD
Collection (C) 2007 copyright by the U.S. Secretary of Commerce
on behalf of the United States of America. All rights reserved.
##CAS REGISTRY NO=34549-69-4
##MOLFORM=C8H7NO5
##MP=132
##SOURCE REFERENCE=RAS UV No. 23060
##$NIST SQUIB=1976BRA/GAL200
##$NIST SOURCE=TYUGLMTE
##SPECTROMETER/DATA SYSTEM=VSU-2
##XUNITS=Wavelength (nm)
##YUNITS=Logarithm epsilon
##XFACTOR=1.0
##YFACTOR=1.0
##FIRSTX=211.531
##LASTX=429.168
##FIRSTY=3.964
##MAXX=429.168
##MINX=211.531
##MAXY=4.185
##MINY=2.779
##NPOINTS=147
##$REF AUTHOR=Braude, Ye.V.; Gal'bershtam, M.A.
##$REF JOURNAL=Khim. Geterosikl. Soedin.
##$REF PAGE=200
##$REF DATE=1976
##XYPOINTS=(XY..XY)
211.531,3.964
213.031,3.890
214.531,3.838
216.031,3.806
217.531,3.789
219.031,3.786
220.531,3.792
222.031,3.806
223.531,3.827
225.031,3.851
226.531,3.878
228.031,3.906
229.531,3.935
231.031,3.964
232.531,3.993
233.738,4.012
235.106,4.046
236.606,4.080
238.106,4.109
239.606,4.133
241.106,4.153
242.606,4.168
244.106,4.179
245.606,4.185
247.106,4.185
248.606,4.180
250.106,4.169
251.606,4.152
253.106,4.129
254.606,4.100
256.106,4.065
257.606,4.025
259.106,3.982
260.606,3.937
261.889,3.897
263.389,3.859
264.889,3.821
266.389,3.782
267.889,3.744
269.389,3.706
270.889,3.670
272.389,3.633
273.889,3.597
275.389,3.562
276.889,3.525
278.389,3.488
279.889,3.450
281.389,3.410
282.889,3.368
284.389,3.325
285.889,3.281
287.389,3.235
288.889,3.188
290.389,3.141
291.889,3.096
293.277,3.054
294.777,3.014
296.277,2.981
297.777,2.954
299.277,2.932
300.777,2.914
302.277,2.900
303.777,2.889
305.277,2.879
306.777,2.872
308.277,2.866
309.777,2.862
311.277,2.859
312.777,2.858
314.277,2.858
315.777,2.859
317.277,2.862
318.777,2.867
320.277,2.874
321.777,2.883
323.277,2.895
324.777,2.909
326.277,2.925
327.777,2.944
329.277,2.965
330.777,2.988
332.277,3.013
333.288,3.026
334.788,3.058
336.288,3.095
337.788,3.136
339.288,3.179
340.788,3.223
342.288,3.265
342.728,3.279
344.228,3.320
345.728,3.357
347.228,3.391
348.728,3.421
350.228,3.448
351.728,3.472
353.228,3.494
354.728,3.513
356.228,3.530
357.728,3.545
359.228,3.559
360.728,3.570
362.228,3.581
363.728,3.590
365.228,3.598
366.728,3.605
368.228,3.612
369.728,3.617
371.228,3.622
372.728,3.626
374.228,3.630
375.728,3.633
377.228,3.636
378.728,3.639
380.228,3.641
381.728,3.642
383.228,3.643
384.728,3.644
386.228,3.644
387.728,3.643
389.228,3.642
390.728,3.640
392.228,3.637
393.728,3.633
395.228,3.628
396.728,3.622
398.228,3.614
399.728,3.605
401.228,3.594
402.728,3.581
404.228,3.566
405.728,3.548
407.228,3.528
408.728,3.505
410.228,3.478
411.728,3.448
413.228,3.415
414.728,3.377
416.228,3.335
418.668,3.232
420.168,3.167
421.668,3.101
423.168,3.033
424.668,2.967
426.168,2.903
427.668,2.841
429.168,2.779
##END=
