##TITLE=Naphthalene, 2,7-dimethoxy-
##JCAMP-DX=4.24
##DATA TYPE=UV/VIS SPECTRUM
##ORIGIN=INSTITUTE OF ENERGY PROBLEMS OF CHEMICAL PHYSICS, RAS
##OWNER=INEP CP RAS, NIST OSRD
Collection (C) 2007 copyright by the U.S. Secretary of Commerce
on behalf of the United States of America. All rights reserved.
##CAS REGISTRY NO=3469-26-9
##MOLFORM=C12H12O2
##MP=138
##SOURCE REFERENCE=RAS UV No. 1054
##$NIST SQUIB=1955BIR/HEX263-266
##$NIST SOURCE=TSGMTE
##SPECTROMETER/DATA SYSTEM=Beckman spectophotometer
##XUNITS=Wavelength (nm)
##YUNITS=Logarithm epsilon
##XFACTOR=1.000000
##YFACTOR=1.000000
##FIRSTX=222.5021
##LASTX=330.3949
##FIRSTY=4.50429
##MAXX=330.395
##MINX=222.502
##MAXY=4.79516
##MINY=2.52238
##NPOINTS=350
##$REF AUTHOR=Birch, A.J.; Hextall, P.
##$REF TITLE=Studies of xanthorrhoea resins. II. Xanthorrhoein and hydroxypaeonol
##$REF JOURNAL=Aust. J. Chem.
##$REF VOLUME=8
##$REF PAGE=263-266
##$REF DATE=1955
##XYPOINTS=(XY..XY)
222.5021,4.504288
223.3648,4.534278
224.2246,4.564517
225.0836,4.594721
225.9437,4.624602
226.1448,4.624988
226.4210,4.633531
226.7057,4.641910
226.8069,4.653877
226.9944,4.650208
227.9348,4.677691
228.5540,4.697239
229.1815,4.716706
229.8131,4.736009
230.4652,4.753718
231.0761,4.766832
231.7915,4.777577
232.6576,4.787168
233.1622,4.786838
233.2244,4.795163
233.4122,4.791122
233.5976,4.791178
233.6752,4.786344
233.7872,4.791235
233.9849,4.791295
234.1923,4.785769
235.9319,4.757234
236.0336,4.742058
236.1379,4.753570
236.2466,4.726088
236.3979,4.734275
236.6662,4.714982
236.7538,4.695634
236.9386,4.695690
237.5384,4.659359
237.6672,4.660129
237.7960,4.660817
237.9249,4.661338
238.0041,4.630438
238.4738,4.601519
238.7034,4.606611
238.9518,4.572602
238.9518,4.572602
238.9696,4.583606
239.6454,4.534436
239.6454,4.534436
240.0797,4.504375
240.4374,4.492781
240.5224,4.474233
240.7795,4.470861
240.9648,4.449887
240.9692,4.443927
241.7798,4.372637
241.9659,4.395793
241.9706,4.389461
241.9753,4.383128
241.9800,4.376796
241.9800,4.376796
242.1093,4.376835
242.1869,4.347052
242.2386,4.376874
242.3679,4.376913
242.3679,4.376913
242.5940,4.321467
242.6336,4.350057
242.9076,4.323038
243.0010,4.295882
243.1858,4.295938
243.6053,4.253591
243.6053,4.253591
243.6254,4.258799
243.6537,4.263927
243.6863,4.268891
243.6863,4.268891
243.7346,4.253630
243.7821,4.265180
243.8639,4.253669
243.8821,4.261388
243.9905,4.257433
243.9932,4.253708
243.9932,4.253708
244.3600,4.212421
244.5701,4.193938
244.5975,4.211416
244.7335,4.202502
244.8039,4.182418
244.8695,4.193505
245.0057,4.184342
245.4037,4.146086
245.4095,4.138264
245.5253,4.128846
245.7400,4.117127
245.9802,4.094237
246.0747,4.095991
246.4175,4.074857
246.6351,4.055549
247.2380,4.015120
247.2439,4.007298
247.3329,3.985135
247.4669,3.990861
247.7519,3.955497
247.8249,3.969580
248.2660,3.924894
248.4480,3.928675
248.6715,3.876581
248.8775,3.872918
248.9375,3.867720
249.0015,3.862523
249.0738,3.857329
249.0809,3.847906
249.4903,3.819065
249.8999,3.790141
250.4049,3.757134
250.4669,3.745534
250.8609,3.718220
251.5330,3.686740
251.9245,3.651781
251.9245,3.651781
251.9270,3.659427
252.1309,3.622782
252.3128,3.626563
252.5954,3.595338
252.7452,3.599109
253.0641,3.567812
253.1859,3.571575
253.5412,3.540123
253.6308,3.543876
254.3203,3.511298
254.9387,3.488647
255.3039,3.480671
255.7018,3.470097
255.8844,3.471160
256.4691,3.461649
256.8588,3.452080
257.0620,3.452142
257.2467,3.452197
257.3755,3.452968
257.5043,3.453655
257.6333,3.454177
257.6388,3.446727
258.3208,3.448107
258.6181,3.447714
258.7814,3.450799
258.7856,3.445211
258.8389,3.448953
258.9005,3.447109
258.9703,3.445267
259.1735,3.445329
259.3599,3.443150
259.5453,3.443206
259.7349,3.443263
259.9326,3.443323
260.0585,3.448839
260.9477,3.452185
261.8453,3.455451
263.4621,3.467863
264.5307,3.471912
264.6471,3.471947
264.7716,3.471985
264.8983,3.474631
264.9002,3.472024
265.2854,3.475866
265.4708,3.475922
265.6603,3.475980
265.8581,3.476039
266.3345,3.481400
266.4277,3.480310
266.5570,3.480349
266.6863,3.480388
266.8156,3.480427
267.7707,3.488168
269.2982,3.496454
270.4405,3.500898
270.8541,3.504238
272.0347,3.501380
272.3850,3.506965
273.6371,3.501865
274.0941,3.507592
274.0941,3.507592
275.2436,3.502351
275.3002,3.502630
275.6346,3.498371
275.6996,3.500240
277.7406,3.499008
278.9549,3.488556
280.1775,3.478025
281.4043,3.467329
283.1508,3.454444
284.0611,3.438630
285.0147,3.425395
286.8288,3.403395
288.1962,3.378474
289.4867,3.357627
290.7772,3.336780
292.0676,3.315933
293.8200,3.295226
295.1454,3.276998
296.4709,3.258770
297.7964,3.240542
300.0105,3.219975
300.0144,3.214760
300.0183,3.209545
300.0222,3.204330
300.0222,3.204330
301.2294,3.182188
302.4875,3.157909
303.7345,3.132054
305.0846,3.105637
305.2714,3.103830
305.4623,3.102025
305.6614,3.100223
305.8646,3.100284
306.2321,3.105763
306.6690,3.117390
307.5497,3.145131
307.9146,3.176165
308.0966,3.179946
308.1516,3.187773
308.2150,3.195520
308.2826,3.203103
308.3631,3.217230
308.4571,3.216941
308.5099,3.221428
308.5667,3.225916
308.5995,3.234302
308.6318,3.230407
308.8265,3.242015
309.3734,3.276831
310.4530,3.277213
310.9613,3.267320
311.5065,3.240963
312.3098,3.204321
312.8883,3.196672
313.6278,3.179619
314.2848,3.165811
314.4048,3.170125
314.8439,3.151063
315.0287,3.151119
315.0587,3.160374
315.1580,3.151158
315.2873,3.151197
315.4108,3.159059
315.4108,3.159059
315.4127,3.156451
315.4147,3.153844
315.4166,3.151236
315.4166,3.151236
317.1518,3.128661
317.9903,3.119228
318.8288,3.109794
319.6674,3.100361
319.8706,3.100422
320.1634,3.102401
320.4090,3.107015
320.8182,3.118220
321.1646,3.149249
321.3565,3.164583
321.3593,3.160844
321.3621,3.157023
321.3651,3.153036
321.4003,3.180231
321.6360,3.211130
321.8718,3.241863
321.8859,3.222866
321.8888,3.219030
321.8918,3.215029
321.8948,3.210946
322.2395,3.269173
322.4438,3.292597
322.6482,3.315855
322.7834,3.308086
322.7996,3.318509
322.8240,3.328852
322.8527,3.339031
322.8527,3.339031
323.4978,3.366052
323.6775,3.380264
323.8654,3.394479
324.0574,3.408695
324.0574,3.408695
324.2391,3.412848
324.3962,3.407666
324.4426,3.416098
324.5875,3.421068
324.7433,3.406557
324.7976,3.432019
324.7976,3.432019
324.9269,3.432058
325.0563,3.432097
325.0947,3.405283
325.0947,3.405283
325.1856,3.432136
325.1856,3.432136
325.2511,3.419475
325.3208,3.406731
325.3861,3.367863
325.3988,3.393825
325.6794,3.330338
325.8214,3.347380
325.9761,3.292745
326.0288,3.317995
326.2402,3.288529
326.2781,3.255118
326.4601,3.258899
326.6949,3.216496
326.7710,3.189583
326.8514,3.162505
326.8826,3.212455
326.9400,3.135348
326.9579,3.186769
327.0372,3.161085
327.1247,3.135404
327.3623,3.089275
327.4385,3.062362
327.5188,3.035285
327.5501,3.085234
327.6075,3.008127
327.6253,3.059548
327.7047,3.033864
327.7922,3.008183
328.1781,2.938337
328.2145,2.962111
328.2472,2.916334
328.4208,2.958075
328.4809,2.877243
328.4968,2.931258
328.5771,2.904360
328.6656,2.877299
328.8878,2.827067
329.0420,2.821236
329.1590,2.799247
329.3104,2.780623
329.3160,2.773063
329.3217,2.765337
329.3275,2.757528
329.3389,2.742256
329.5138,2.690230
329.5709,2.703577
329.5781,2.668226
329.7584,2.699908
329.8189,2.618704
329.8337,2.674209
329.9131,2.648429
330.0008,2.622485
330.0050,2.524856
330.0209,2.546747
330.0410,2.568473
330.2470,2.564809
330.3189,2.543594
330.3949,2.522380
##END=
