##TITLE=1,7-dihydro-1,4-diphenylpyrazolo[3,4-d]pyrimidin-6-one
##JCAMP-DX=4.24
##DATA TYPE=UV/VIS SPECTRUM
##ORIGIN=INSTITUTE OF ENERGY PROBLEMS OF CHEMICAL PHYSICS, RAS
##OWNER=INEP CP RAS, NIST OSRD
Collection (C) 2007 copyright by the U.S. Secretary of Commerce
on behalf of the United States of America. All rights reserved.
##CAS REGISTRY NO=35026-01-8
##MOLFORM=C17H12N4O
##MP=310-313 (sub.)
##SOURCE REFERENCE=RAS UV No. 23708
##$NIST SQUIB=1974MIK/1422
##$NIST SOURCE=TYUGLMTE
##SPECTROMETER/DATA SYSTEM=Specord
##XUNITS=Wavelength (nm)
##YUNITS=Logarithm epsilon
##XFACTOR=1.0
##YFACTOR=1.0
##FIRSTX=202.427
##LASTX=360.789
##FIRSTY=4.491
##MAXX=360.789
##MINX=202.427
##MAXY=4.513
##MINY=3.19
##NPOINTS=162
##$REF AUTHOR=Mikhaleva, M.A.; et al.
##$REF JOURNAL=Khim. Geterosikl. Soedin.
##$REF PAGE=1422
##$REF DATE=1974
##XYPOINTS=(XY..XY)
202.427,4.491
203.427,4.487
204.427,4.494
205.427,4.504
206.427,4.511
207.427,4.513
208.427,4.508
209.427,4.495
210.427,4.476
211.427,4.452
212.427,4.424
213.427,4.394
214.427,4.364
215.427,4.336
216.427,4.308
217.427,4.283
218.427,4.259
219.427,4.237
220.427,4.214
221.427,4.189
222.427,4.163
223.427,4.135
224.304,4.110
225.304,4.080
226.304,4.059
227.304,4.045
228.304,4.036
229.304,4.029
230.304,4.024
231.304,4.021
232.304,4.018
233.304,4.015
234.304,4.014
235.304,4.013
236.304,4.014
237.304,4.016
238.304,4.020
239.304,4.025
240.304,4.033
241.304,4.043
242.304,4.056
243.304,4.070
244.304,4.087
245.304,4.105
246.304,4.125
247.304,4.146
248.304,4.168
249.304,4.192
250.159,4.215
251.159,4.240
252.159,4.265
253.159,4.289
254.159,4.314
255.159,4.339
256.159,4.362
257.159,4.385
258.159,4.407
259.159,4.428
260.159,4.447
261.159,4.464
262.159,4.478
263.159,4.490
264.159,4.499
265.159,4.505
266.159,4.508
267.159,4.507
268.159,4.502
269.159,4.493
270.159,4.480
271.159,4.463
272.159,4.441
273.159,4.415
274.025,4.387
275.025,4.354
276.025,4.319
277.025,4.281
278.025,4.241
279.025,4.199
280.025,4.156
281.025,4.111
282.025,4.067
283.025,4.024
284.025,3.983
285.025,3.947
286.025,3.915
287.025,3.892
287.263,3.886
288.263,3.866
289.263,3.850
290.263,3.838
291.263,3.829
292.263,3.823
293.263,3.819
294.263,3.816
295.263,3.815
296.263,3.813
297.263,3.812
298.263,3.811
299.263,3.810
300.263,3.809
301.263,3.809
302.263,3.810
302.366,3.809
303.366,3.815
304.366,3.822
305.366,3.829
306.366,3.837
307.366,3.843
308.366,3.849
309.366,3.853
310.366,3.855
311.366,3.855
312.366,3.853
313.366,3.850
314.366,3.844
315.366,3.836
316.366,3.826
317.366,3.815
318.366,3.802
319.366,3.788
320.366,3.773
321.261,3.759
322.261,3.738
323.261,3.722
324.261,3.708
325.261,3.694
326.261,3.679
327.261,3.663
328.261,3.645
329.261,3.625
330.261,3.604
331.261,3.583
332.261,3.563
333.261,3.544
334.261,3.528
335.261,3.515
336.261,3.505
337.261,3.500
338.261,3.498
339.261,3.500
340.261,3.503
341.261,3.507
341.895,3.501
342.895,3.503
343.895,3.502
344.895,3.498
345.895,3.491
346.895,3.482
347.895,3.471
348.895,3.458
349.895,3.444
350.895,3.428
351.895,3.411
352.895,3.391
353.895,3.370
354.895,3.347
355.895,3.322
356.895,3.296
357.895,3.269
358.895,3.242
359.895,3.216
360.789,3.190
##END=
