##TITLE=Diethyl sulfide
##JCAMP-DX=4.24
##DATA TYPE=UV/VIS SPECTRUM
##ORIGIN=INSTITUTE OF ENERGY PROBLEMS OF CHEMICAL PHYSICS, RAS
##OWNER=INEP CP RAS, NIST OSRD
Collection (C) 2007 copyright by the U.S. Secretary of Commerce
on behalf of the United States of America. All rights reserved.
##CAS REGISTRY NO=352-93-2
##MOLFORM=C4H10S
##MP=-103.9
##BP=92.1
##SOURCE REFERENCE=RAS UV No. 3281
##$NIST SQUIB=1949FEH/CAR84-93
##$NIST SOURCE=TSGMTE
##SPECTROMETER/DATA SYSTEM=Beckman DU
##XUNITS=Wavelength (nm)
##YUNITS=Logarithm epsilon
##XFACTOR=1.000000
##YFACTOR=1.000000
##FIRSTX=207.5250
##LASTX=252.6772
##FIRSTY=3.2439
##MAXX=252.677
##MINX=207.525
##MAXY=3.42483
##MINY=0.138271
##NPOINTS=124
##$REF AUTHOR=Fehnel, E.A.; Carmack, M.
##$REF TITLE=The ultraviolet absorption spectra of organic sulfur compounds. I. Compounds containing the sulfide function
##$REF JOURNAL=J. Am. Chem. Soc.
##$REF VOLUME=71
##$REF PAGE=84-93
##$REF DATE=1949
##XYPOINTS=(XY..XY)
207.5250,3.243897
207.9453,3.267008
208.3710,3.290008
208.8074,3.312789
209.5675,3.335883
210.0658,3.353581
210.5749,3.371278
211.0894,3.388974
212.3637,3.424835
214.1764,3.417449
215.5729,3.387966
216.6840,3.348065
217.6403,3.309429
218.4095,3.270896
219.0635,3.229271
219.7282,3.187425
220.3983,3.145469
220.8769,3.112389
220.9838,3.096529
221.3949,3.064094
222.2343,2.991956
222.6155,2.958886
222.8650,2.921885
223.3677,2.880914
223.7296,2.838971
223.8418,2.800505
224.2063,2.765519
224.6349,2.727240
224.8298,2.662361
224.8361,2.687997
224.8607,2.659893
224.9025,2.657424
224.9496,2.654954
225.3089,2.631746
225.4579,2.589058
225.6411,2.553269
225.7897,2.508937
226.2919,2.473389
226.5075,2.426550
226.8039,2.378497
227.2787,2.330316
227.5132,2.294302
227.5437,2.290209
227.5850,2.285895
227.6317,2.281472
227.7502,2.268641
227.8574,2.221119
228.1935,2.180366
228.7369,2.125568
228.7369,2.125568
228.7382,2.130498
228.8092,2.119006
228.8869,2.112223
228.9387,2.124909
228.9753,2.105330
229.0875,2.066864
229.1368,2.069671
229.1512,2.124029
229.1861,2.072259
229.2354,2.074737
229.3690,2.123039
229.3690,2.123039
229.4586,1.992875
229.4888,2.115486
229.6086,2.107713
229.6256,1.979400
229.7283,2.099831
229.7926,1.965707
229.9595,1.951904
230.4592,1.906003
230.6057,1.878854
230.7630,1.851595
230.9257,1.824115
231.1896,1.808806
231.2606,1.796947
231.3370,1.784980
231.4241,1.772792
231.6854,1.747129
231.9994,1.708131
232.3241,1.669022
232.6542,1.629694
232.8912,1.604033
233.3126,1.554689
233.5982,1.525080
233.7646,1.494495
234.1201,1.456004
234.3337,1.445101
234.5918,1.417209
235.1156,1.348428
235.3528,1.323260
235.7164,1.288218
236.0908,1.253178
236.4706,1.218134
236.8518,1.185063
237.2596,1.132180
237.5706,1.103078
237.8230,1.077488
238.3265,1.046870
238.8105,1.006889
239.3054,0.966906
239.8056,0.926918
240.0664,0.898791
240.5502,0.857821
241.0448,0.816851
241.5448,0.775880
242.2891,0.734888
242.5955,0.698205
243.2678,0.653936
243.9143,0.614918
244.5387,0.581335
245.1444,0.541342
245.7610,0.501333
246.3829,0.461348
247.0317,0.427746
247.5602,0.396496
248.0941,0.365020
248.6388,0.333427
249.5054,0.294885
250.0410,0.266725
250.5875,0.238573
251.1393,0.210399
252.0072,0.177277
252.1597,0.163489
252.6772,0.138271
##END=
