##TITLE=1,4-dihydropyrido[3,4-b]pyrazine-2,3-dione
##JCAMP-DX=4.24
##DATA TYPE=UV/VIS SPECTRUM
##ORIGIN=INSTITUTE OF ENERGY PROBLEMS OF CHEMICAL PHYSICS, RAS
##OWNER=INEP CP RAS, NIST OSRD
Collection (C) 2007 copyright by the U.S. Secretary of Commerce
on behalf of the United States of America. All rights reserved.
##CAS REGISTRY NO=35251-84-4
##MOLFORM=C7H5N3O2
##MP=> 320
##SOURCE REFERENCE=RAS UV No. 22280
##$NIST SQUIB=1978GOT/PFL1763
##$NIST SOURCE=TYUGLMTE
##SPECTROMETER/DATA SYSTEM=Cary 15
##XUNITS=Wavelength (nm)
##YUNITS=Logarithm epsilon
##XFACTOR=1.0
##YFACTOR=1.0
##FIRSTX=231.262
##LASTX=342.457
##FIRSTY=4.037
##MAXX=342.457
##MINX=231.262
##MAXY=4.037
##MINY=3.14
##NPOINTS=115
##$REF AUTHOR=Gottlieb, R.; Pfleiderer, W.
##$REF JOURNAL=Chem. Ber.
##$REF VOLUME=111
##$REF PAGE=1763
##$REF DATE=1978
##XYPOINTS=(XY..XY)
231.262,4.037
231.441,4.037
232.441,4.032
233.441,4.030
234.441,4.029
235.441,4.027
236.441,4.023
237.441,4.018
238.441,4.010
239.441,4.001
240.441,3.992
241.441,3.984
242.441,3.979
243.306,3.978
244.333,3.983
245.333,3.987
246.333,3.993
247.333,4.001
248.333,4.010
249.333,4.018
250.333,4.025
251.333,4.031
252.333,4.034
253.333,4.034
254.333,4.031
255.333,4.025
256.333,4.015
257.333,4.001
258.333,3.984
259.291,3.965
260.291,3.940
261.291,3.916
262.291,3.894
263.291,3.872
264.291,3.852
265.291,3.833
266.291,3.815
267.291,3.798
268.291,3.781
269.291,3.765
270.291,3.749
271.291,3.734
271.334,3.735
272.334,3.717
273.334,3.704
274.334,3.695
275.334,3.691
276.334,3.693
277.334,3.699
278.334,3.710
279.334,3.725
280.334,3.742
281.269,3.758
282.269,3.777
283.269,3.796
284.269,3.816
285.269,3.836
286.269,3.856
287.269,3.874
288.269,3.892
289.269,3.909
290.269,3.925
291.269,3.940
292.269,3.954
293.269,3.967
294.269,3.980
295.357,3.988
296.357,3.999
297.357,4.010
298.357,4.020
299.357,4.027
300.357,4.029
301.357,4.028
302.357,4.022
303.357,4.013
304.357,4.002
304.412,4.002
305.412,3.990
306.412,3.982
307.412,3.976
308.412,3.971
309.412,3.967
310.412,3.964
311.412,3.961
312.412,3.956
313.360,3.950
314.457,3.945
315.457,3.930
316.457,3.911
317.457,3.889
318.457,3.863
319.457,3.836
320.457,3.807
321.457,3.777
322.457,3.747
323.457,3.716
324.457,3.685
325.457,3.654
326.457,3.623
327.457,3.593
328.457,3.563
329.457,3.534
330.457,3.504
331.457,3.475
332.457,3.445
333.457,3.416
334.457,3.386
335.457,3.356
336.457,3.326
337.457,3.295
338.457,3.264
339.457,3.233
340.457,3.201
341.457,3.170
342.457,3.140
##END=
