##TITLE=N-(diphenylmethylene)-4-nitrobenzenamine
##JCAMP-DX=4.24
##DATA TYPE=UV/VIS SPECTRUM
##ORIGIN=INSTITUTE OF ENERGY PROBLEMS OF CHEMICAL PHYSICS, RAS
##OWNER=INEP CP RAS, NIST OSRD
Collection (C) 2007 copyright by the U.S. Secretary of Commerce
on behalf of the United States of America. All rights reserved.
##CAS REGISTRY NO=35393-20-5
##MOLFORM=C19H14N2O2
##MP=156
##SOURCE REFERENCE=RAS UV No. 23900
##$NIST SQUIB=1974ABU/HAM2576
##$NIST SOURCE=TYUGLMTE
##SPECTROMETER/DATA SYSTEM=Beckman DK-1
##XUNITS=Wavelength (nm)
##YUNITS=Logarithm epsilon
##XFACTOR=1.0
##YFACTOR=1.0
##FIRSTX=217.273
##LASTX=384.149
##FIRSTY=4.339
##MAXX=384.149
##MINX=217.273
##MAXY=4.339
##MINY=3.224
##NPOINTS=170
##$REF AUTHOR=Abu-Eittah, R.; Hamed, M.M.
##$REF JOURNAL=Bull. Chem. Soc. Japan
##$REF VOLUME=47
##$REF PAGE=2576
##$REF DATE=1974
##XYPOINTS=(XY..XY)
217.273,4.339
218.273,4.320
219.273,4.304
220.273,4.290
221.273,4.278
222.273,4.268
223.273,4.260
224.273,4.254
225.273,4.249
226.273,4.245
227.273,4.242
228.273,4.239
229.273,4.237
230.273,4.236
231.273,4.234
232.273,4.232
233.273,4.231
234.273,4.229
235.273,4.227
236.273,4.224
237.273,4.221
238.273,4.218
239.273,4.214
240.273,4.209
241.273,4.204
242.273,4.199
243.273,4.193
244.273,4.186
245.273,4.180
246.273,4.172
247.273,4.165
248.273,4.157
249.273,4.149
250.273,4.141
251.273,4.132
252.273,4.123
253.273,4.115
254.273,4.106
255.273,4.097
256.273,4.088
257.273,4.079
258.273,4.070
258.403,4.067
259.403,4.058
260.403,4.050
261.403,4.042
262.403,4.036
263.403,4.031
264.403,4.027
265.403,4.024
266.403,4.023
267.403,4.023
268.403,4.024
269.403,4.026
270.403,4.029
271.403,4.034
272.403,4.039
273.403,4.046
274.403,4.053
275.403,4.061
276.403,4.069
277.403,4.079
278.403,4.088
279.403,4.098
280.403,4.108
281.403,4.119
282.403,4.129
283.403,4.139
284.403,4.149
285.403,4.158
286.403,4.167
287.403,4.176
288.403,4.184
289.403,4.191
290.403,4.197
291.403,4.203
292.403,4.207
293.245,4.210
294.245,4.214
295.245,4.218
296.245,4.221
297.245,4.223
298.245,4.224
299.245,4.225
300.245,4.225
301.245,4.225
302.245,4.224
303.245,4.222
304.245,4.219
305.245,4.216
306.245,4.213
307.245,4.209
308.245,4.204
309.245,4.199
310.245,4.194
311.245,4.188
312.245,4.182
313.245,4.176
314.245,4.169
315.245,4.163
316.245,4.156
317.245,4.149
318.245,4.142
319.245,4.135
320.245,4.128
321.245,4.120
322.245,4.113
323.245,4.106
324.245,4.099
325.245,4.091
326.245,4.084
327.245,4.077
328.245,4.069
329.245,4.062
330.245,4.055
331.245,4.047
332.245,4.040
333.245,4.033
334.245,4.025
335.245,4.018
336.245,4.011
337.245,4.004
338.042,3.997
339.042,3.993
340.042,3.988
341.042,3.983
342.042,3.977
343.042,3.970
344.042,3.962
345.042,3.953
346.042,3.944
347.042,3.933
348.042,3.922
349.042,3.910
350.042,3.897
351.042,3.883
352.042,3.869
353.042,3.854
354.042,3.838
355.042,3.822
356.042,3.806
357.042,3.789
358.042,3.773
359.042,3.756
360.042,3.739
361.042,3.722
362.042,3.705
363.042,3.688
364.042,3.671
365.042,3.654
366.042,3.637
367.042,3.619
368.042,3.602
369.042,3.584
370.042,3.566
371.042,3.546
371.836,3.532
372.836,3.507
373.836,3.481
374.836,3.456
375.836,3.430
376.836,3.405
377.836,3.380
378.836,3.354
379.836,3.329
380.836,3.303
381.836,3.278
382.836,3.252
383.836,3.227
384.149,3.224
##END=
