##TITLE=2-Phenylnaphthalene
##JCAMP-DX=4.24
##DATA TYPE=UV/VIS SPECTRUM
##ORIGIN=INSTITUTE OF ENERGY PROBLEMS OF CHEMICAL PHYSICS, RAS
##OWNER=INEP CP RAS, NIST OSRD
Collection (C) 2007 copyright by the U.S. Secretary of Commerce
on behalf of the United States of America. All rights reserved.
##CAS REGISTRY NO=35465-71-5
##MOLFORM=C16H12
##SOURCE REFERENCE=RAS UV No. 385
##$NIST SQUIB=1962LAG/LOL1610-1615
##$NIST SOURCE=TSGMTE
##SPECTROMETER/DATA SYSTEM=n.i.g.
##XUNITS=Wavelength (nm)
##YUNITS=Logarithm epsilon
##XFACTOR=1.000000
##YFACTOR=1.000000
##FIRSTX=223.0950
##LASTX=313.1918
##FIRSTY=4.56529
##MAXX=313.192
##MINX=223.095
##MAXY=4.60543
##MINY=3.05963
##NPOINTS=375
##$REF AUTHOR=Lagidze, B.M.; Loladze, N.R.
##$REF TITLE=A new method for the synthesis of alkyl derivatives of 2-phenylnaphthalene
##$REF JOURNAL=Zh. Obshch. Khim. (Engl. Transl.)^
##$REF VOLUME=32
##$REF NUMBER=5
##$REF PAGE=1610-1615
##$REF DATE=1962
##XYPOINTS=(XY..XY)
223.0950,4.565290
223.0993,4.560764
223.3160,4.560855
223.3204,4.556329
223.5371,4.556420
223.5420,4.551329
223.7587,4.551419
224.6978,4.533136
224.7021,4.528610
225.3794,4.528893
225.3886,4.519276
225.6097,4.514841
225.6146,4.509749
225.8356,4.505314
228.6034,4.445350
228.6126,4.435733
228.8564,4.435834
228.8613,4.430743
229.7733,4.412448
229.7776,4.407923
229.9943,4.408013
230.2430,4.403024
230.4598,4.403114
230.4641,4.398588
230.6809,4.398679
230.6852,4.394153
230.9339,4.389164
231.1506,4.389254
231.1550,4.384729
231.3717,4.384819
231.5928,4.380384
231.8366,4.380486
231.8415,4.375395
232.0582,4.375485
232.2793,4.371050
235.0064,4.353513
235.4670,4.353706
235.6886,4.348705
235.9324,4.348807
236.8265,4.349180
237.0383,4.354362
237.7157,4.354645
237.9551,4.359272
238.1719,4.359363
238.3843,4.363979
238.8400,4.369263
238.8449,4.364171
239.0567,4.369353
239.2691,4.373969
239.7297,4.374162
240.1767,4.388497
240.1811,4.383971
242.1637,4.436299
242.1680,4.431773
242.3712,4.446007
242.3755,4.441481
242.5831,4.451188
242.5879,4.446097
243.0301,4.465523
243.0350,4.460432
243.2425,4.470140
243.2468,4.465614
243.4771,4.479858
243.4820,4.474767
243.6938,4.479949
244.1409,4.494284
244.1457,4.489193
244.3533,4.498900
244.3576,4.494374
244.5657,4.503516
244.5700,4.498991
244.8046,4.508709
245.0214,4.508800
247.2207,4.561218
247.2250,4.556693
247.4326,4.566400
247.6721,4.571028
247.6764,4.566502
247.8888,4.571118
248.1012,4.575734
248.3450,4.575836
248.5569,4.581018
248.7693,4.585634
248.7736,4.581109
249.0131,4.585736
249.2255,4.590352
249.4374,4.595534
249.4423,4.590443
249.8936,4.600252
249.8980,4.595727
250.5709,4.600535
250.7833,4.605151
251.4607,4.605434
254.4181,4.573845
254.4224,4.569320
254.6711,4.564330
254.6754,4.559805
254.8965,4.555369
254.9014,4.550278
255.1225,4.545843
255.1268,4.541317
255.3755,4.536328
255.3798,4.531802
255.6009,4.527367
255.6058,4.522276
255.8269,4.517841
255.8312,4.513315
256.0799,4.508325
256.0886,4.499274
256.3102,4.494273
256.3145,4.489748
257.9536,4.419691
257.9628,4.410074
258.2110,4.405650
258.2202,4.396033
258.4370,4.396124
258.4462,4.386507
258.6672,4.382071
258.6765,4.372454
258.9246,4.368031
258.9338,4.358414
259.1549,4.353979
259.1641,4.344362
259.3852,4.339926
260.3605,4.283741
260.3697,4.274124
260.5865,4.274214
260.6000,4.260071
260.8211,4.255636
260.8260,4.250545
261.0698,4.250647
261.0834,4.236504
261.3001,4.236595
261.3088,4.227543
261.5304,4.222543
261.5391,4.213491
261.7878,4.208502
261.7921,4.203976
262.0088,4.204067
262.0224,4.189924
262.2391,4.190015
262.2483,4.180398
262.4694,4.175963
262.4786,4.166346
263.8874,4.110341
263.8918,4.105815
264.1399,4.101391
264.1448,4.096300
264.3659,4.091865
264.3702,4.087339
264.5918,4.082338
264.5962,4.077813
264.8443,4.073389
264.8492,4.068298
265.0703,4.063862
265.0746,4.059337
265.2962,4.054336
265.3006,4.049810
265.5444,4.049912
265.5536,4.040295
265.7747,4.035860
265.7796,4.030769
265.9963,4.030859
266.0050,4.021808
266.2537,4.016818
266.2624,4.007767
267.4273,3.951661
267.6760,3.946671
267.6804,3.942145
267.9015,3.937710
267.9107,3.928093
268.1317,3.923658
268.1366,3.918567
268.3848,3.914143
268.3940,3.904526
268.6151,3.900091
268.6243,3.890474
268.8454,3.886039
268.8546,3.876422
269.1027,3.871998
269.1119,3.862381
269.3287,3.862472
269.3330,3.857946
269.5541,3.853511
269.7979,3.853613
270.6920,3.853986
270.9044,3.858602
271.1211,3.858693
274.4578,3.912152
274.7016,3.912254
274.9140,3.916870
275.1308,3.916961
275.3703,3.921588
275.5821,3.926770
275.5870,3.921679
275.7989,3.926861
276.2508,3.936104
276.4675,3.936195
276.7065,3.941388
277.1356,3.946095
277.1399,3.941569
277.3751,3.950722
277.3794,3.946196
277.5918,3.950813
278.4675,3.970420
280.0117,3.999362
280.2556,3.999463
281.1317,4.018505
281.5923,4.018697
281.8047,4.023314
282.2653,4.023506
282.4863,4.019071
283.6242,4.019546
283.8453,4.015111
284.5226,4.015394
284.7442,4.010393
284.7485,4.005867
284.9924,4.005969
285.0016,3.996352
285.2183,3.996443
285.2227,3.991917
285.4437,3.987482
285.4486,3.982391
285.6654,3.982481
285.6697,3.977956
285.9179,3.973532
287.7558,3.922234
287.7601,3.917708
288.0089,3.912719
288.0132,3.908193
288.2299,3.908283
288.2343,3.903758
288.4559,3.898757
288.4602,3.894231
288.7084,3.889808
288.7133,3.884716
288.9300,3.884807
288.9343,3.880281
289.1511,3.880372
289.1554,3.875846
289.4041,3.870856
289.4084,3.866331
289.6252,3.866421
289.6344,3.856804
289.8511,3.856895
289.8555,3.852369
290.3253,3.842945
290.3296,3.838419
291.9508,3.787030
291.9600,3.777413
292.2038,3.777515
292.2082,3.772990
292.4249,3.773080
292.4341,3.763463
292.6552,3.759028
292.6595,3.754502
292.9034,3.754604
292.9126,3.744987
293.1293,3.745078
293.1337,3.740552
293.3553,3.735551
293.3596,3.731026
293.5764,3.731116
293.5807,3.726590
293.8294,3.721601
293.8337,3.717075
294.0548,3.712640
294.0597,3.707549
294.2764,3.707639
294.2808,3.703114
294.5289,3.698690
294.5381,3.689073
296.1593,3.637684
296.1686,3.628067
296.3853,3.628158
296.3896,3.623632
296.6378,3.619208
296.6427,3.614117
296.8594,3.614208
296.8681,3.605156
297.3379,3.595732
297.3422,3.591206
297.7849,3.581770
297.7892,3.577244
298.0379,3.572255
298.0423,3.567729
298.2633,3.563294
298.2682,3.558203
298.4893,3.553768
298.4936,3.549242
298.7423,3.544253
300.1512,3.488248
300.1598,3.479197
300.3766,3.479287
300.3858,3.469670
300.6025,3.469761
300.6117,3.460144
300.8285,3.460234
300.8377,3.450617
301.0815,3.450719
301.0902,3.441668
301.3069,3.441758
301.3118,3.436667
301.5329,3.432232
301.5372,3.427706
301.7859,3.422717
301.7946,3.413665
302.0113,3.413756
302.0162,3.408665
302.2373,3.404229
302.2416,3.399704
302.4854,3.399806
302.4947,3.390189
304.1110,3.343891
304.1159,3.338800
304.3369,3.334365
304.3413,3.329839
304.5851,3.329941
304.5943,3.320324
304.8111,3.320415
304.8203,3.310798
305.0370,3.310888
305.0413,3.306363
305.2852,3.306464
305.2944,3.296847
305.5111,3.296938
305.5155,3.292412
305.9852,3.282988
305.9939,3.273936
306.2107,3.274027
306.2199,3.264410
306.4366,3.264500
306.4415,3.259409
306.6896,3.254985
306.6940,3.250460
306.9107,3.250550
306.9199,3.240933
307.1367,3.241024
307.3848,3.236600
309.0104,3.180686
309.0196,3.171069
309.2363,3.171159
309.2456,3.161542
309.4623,3.161633
309.4666,3.157107
309.7105,3.157209
309.7197,3.147592
309.9364,3.147682
309.9407,3.143157
310.1618,3.138722
310.1667,3.133630
310.4149,3.129206
310.4192,3.124681
310.6359,3.124771
310.6408,3.119680
310.8576,3.119771
310.8619,3.115245
311.1057,3.115347
311.1149,3.105730
311.3317,3.105820
311.3360,3.101295
311.5571,3.096860
311.5620,3.091768
311.8058,3.091870
312.0269,3.087435
312.0312,3.082909
312.2479,3.083000
312.2528,3.077908
312.4966,3.078010
312.5010,3.073485
312.7177,3.073575
312.7221,3.069050
312.9388,3.069140
313.1875,3.064151
313.1918,3.059625
##END=
