##TITLE=m-Aminobenzamide
##JCAMP-DX=4.24
##DATA TYPE=UV/VIS SPECTRUM
##ORIGIN=INSTITUTE OF ENERGY PROBLEMS OF CHEMICAL PHYSICS, RAS
##OWNER=INEP CP RAS, NIST OSRD
Collection (C) 2007 copyright by the U.S. Secretary of Commerce
on behalf of the United States of America. All rights reserved.
##CAS REGISTRY NO=3544-24-9
##MOLFORM=C7H8N2O
##SOURCE REFERENCE=RAS UV No. 3345
##$NIST SQUIB=1953GRA207-212
##$NIST SOURCE=TSGMTE
##SPECTROMETER/DATA SYSTEM=n.i.g.
##XUNITS=Wavelength (nm)
##YUNITS=Logarithm epsilon
##XFACTOR=1.000000
##YFACTOR=1.000000
##FIRSTX=375.4579
##LASTX=229.9434
##FIRSTY=1.14078
##MAXX=375.458
##MINX=229.943
##MAXY=4.12308
##MINY=1.14078
##NPOINTS=156
##$REF AUTHOR=Grammaticakis, P.
##$REF TITLE=Contribution a l'etude de l'absorption dans l'ultraviolet moyen et le visible des arylamines isomeres et de leurs derives N-substitues (4^e memoire)
##$REF JOURNAL=Bull. Soc. Chim. Fr.
##$REF VOLUME=20
##$REF PAGE=207-212
##$REF DATE=1953
##XYPOINTS=(XY..XY)
375.4579,1.140775
374.7222,1.162827
374.0561,1.191359
374.0115,1.220712
374.0115,1.220712
373.8527,1.217136
373.6729,1.213563
373.4828,1.209989
373.4828,1.209989
373.1204,1.236610
372.6104,1.249646
372.0427,1.270986
364.1266,1.738298
364.1251,1.735074
364.1236,1.731623
364.1220,1.728059
356.0846,2.253755
356.0809,2.245034
356.0772,2.236199
356.0733,2.227136
352.8035,2.394730
352.4833,2.402522
352.2058,2.421120
351.7334,2.466463
350.4559,2.527460
350.3220,2.537194
350.1696,2.546930
350.0080,2.556667
345.8343,2.745312
345.5531,2.755056
345.2723,2.764801
344.9919,2.774545
335.6708,3.066944
335.6708,3.066944
335.6695,3.063361
335.6681,3.059777
335.6668,3.056194
335.2858,3.066970
334.8932,3.066996
334.4845,3.067023
333.3144,3.088603
333.0535,3.099352
332.7930,3.109987
332.5328,3.120395
321.9609,3.253724
321.6067,3.253750
321.2454,3.253776
320.8694,3.253803
316.5525,3.285861
315.9495,3.287367
315.4095,3.290119
314.7883,3.291626
303.2942,3.271029
302.9571,3.268763
302.7937,3.264661
302.6636,3.255211
302.6636,3.255211
302.3238,3.265989
302.1057,3.265344
301.8878,3.264470
301.8132,3.253726
301.6702,3.263483
300.9539,3.252129
300.0925,3.250304
300.0925,3.250304
299.4323,3.231324
298.8904,3.213812
297.8527,3.197253
292.4166,3.083563
292.2707,3.082912
292.1250,3.082034
291.9793,3.081042
289.8557,3.017752
289.7290,3.008360
289.4695,3.000230
289.2481,2.991187
281.9544,2.747672
281.9323,2.739711
281.7904,2.734150
281.4079,2.726223
278.3368,2.620550
278.2019,2.612866
278.0612,2.605068
277.9089,2.597043
276.1134,2.530669
275.7875,2.515382
275.3307,2.502383
275.0399,2.482655
272.4990,2.435301
272.2897,2.437218
272.0694,2.438909
271.8438,2.440487
267.6767,2.746533
267.5552,2.752689
267.4284,2.758845
267.2909,2.765003
266.9343,2.799339
266.9217,2.807000
266.8218,2.810462
266.5494,2.812690
266.0581,2.881851
265.9836,2.876721
265.9038,2.871477
265.8133,2.866007
264.8605,2.998697
264.8597,2.995113
264.8588,2.991530
264.8580,2.987946
263.2751,3.131455
263.1103,3.133501
262.9457,3.135434
262.7812,3.137139
262.7812,3.137139
262.3717,3.184603
261.8383,3.229919
261.4777,3.274989
260.5306,3.296594
260.3035,3.321911
259.9743,3.347127
259.8078,3.365271
252.6978,3.700881
252.3436,3.700657
252.2426,3.706053
252.0954,3.696780
252.0278,3.718725
251.9998,3.684581
251.8085,3.731170
251.5800,3.743502
251.5800,3.743502
251.3641,3.745424
251.1437,3.747118
250.9141,3.748700
249.3634,3.778066
249.2692,3.781774
249.0995,3.783786
248.7096,3.785824
246.7488,3.812684
246.2998,3.815621
245.7387,3.821530
244.9387,3.826219
244.9387,3.826219
244.9128,3.829142
244.8777,3.831838
244.8381,3.834422
239.0373,3.856155
238.9011,3.856173
238.7650,3.856191
238.6290,3.856209
233.3377,3.979271
233.3246,3.986876
233.2246,3.992331
232.9524,4.000313
230.1172,4.085689
230.0646,4.098343
230.0080,4.110770
229.9434,4.123084
##END=
