##TITLE=N-[(2-methoxyphenyl)methylene]-4H-1,2,4-triazol-4-amine
##JCAMP-DX=4.24
##DATA TYPE=UV/VIS SPECTRUM
##ORIGIN=INSTITUTE OF ENERGY PROBLEMS OF CHEMICAL PHYSICS, RAS
##OWNER=INEP CP RAS, NIST OSRD
Collection (C) 2007 copyright by the U.S. Secretary of Commerce
on behalf of the United States of America. All rights reserved.
##CAS REGISTRY NO=35546-29-3
##MOLFORM=C10H10N4O
##SOURCE REFERENCE=RAS UV No. 23036
##$NIST SQUIB=1984KNI/554
##$NIST SOURCE=TYUGLMTE
##SPECTROMETER/DATA SYSTEM=unknown
##XUNITS=Wavelength (nm)
##YUNITS=Logarithm epsilon
##XFACTOR=1.0
##YFACTOR=1.0
##FIRSTX=220.451
##LASTX=371.622
##FIRSTY=4.242
##MAXX=371.622
##MINX=220.451
##MAXY=4.257
##MINY=2.757
##NPOINTS=98
##$REF AUTHOR=Kniazhansky, M.I.; et al.
##$REF JOURNAL=Khim. Geterosikl. Soedin.
##$REF PAGE=554
##$REF DATE=1984
##XYPOINTS=(XY..XY)
220.451,4.242
221.427,4.238
222.412,4.234
223.406,4.228
224.409,4.221
225.420,4.211
226.441,4.198
227.472,4.183
228.511,4.164
229.560,4.142
230.619,4.117
231.688,4.088
232.766,4.056
233.855,4.021
234.954,3.984
236.063,3.947
237.183,3.912
238.313,3.880
238.541,3.873
239.684,3.843
240.839,3.819
242.004,3.803
243.181,3.798
244.370,3.802
245.570,3.811
246.782,3.825
248.006,3.841
249.242,3.860
250.491,3.883
251.752,3.913
251.931,3.917
253.207,3.944
254.496,3.971
255.798,3.998
257.113,4.025
258.442,4.053
259.785,4.080
261.142,4.106
262.513,4.132
263.898,4.156
265.299,4.178
266.714,4.198
268.144,4.215
269.590,4.229
270.992,4.239
272.469,4.247
273.962,4.253
275.471,4.256
276.997,4.257
278.540,4.253
280.101,4.246
281.679,4.235
283.275,4.219
283.283,4.217
284.897,4.196
286.530,4.174
288.181,4.150
289.852,4.126
291.542,4.100
293.252,4.070
294.982,4.035
296.732,3.995
298.504,3.950
300.306,3.908
302.120,3.884
303.957,3.873
305.816,3.874
307.698,3.883
309.603,3.899
311.532,3.920
313.486,3.944
315.464,3.970
317.466,3.999
319.495,4.030
319.505,4.031
321.560,4.056
323.642,4.075
325.750,4.087
327.886,4.095
330.051,4.097
332.244,4.094
334.466,4.086
336.719,4.071
339.002,4.048
341.316,4.016
343.183,3.988
345.555,3.944
347.960,3.887
350.398,3.815
352.871,3.728
355.379,3.624
357.923,3.505
360.504,3.374
363.122,3.239
365.778,3.110
368.474,2.984
371.210,2.801
371.622,2.757
##END=
