##TITLE=4-(dimethylamino)-2-(methylthio)-8-beta-D-ribofuranosyl-7(8H)-pteridinone
##JCAMP-DX=4.24
##DATA TYPE=UV/VIS SPECTRUM
##ORIGIN=INSTITUTE OF ENERGY PROBLEMS OF CHEMICAL PHYSICS, RAS
##OWNER=INEP CP RAS, NIST OSRD
Collection (C) 2007 copyright by the U.S. Secretary of Commerce
on behalf of the United States of America. All rights reserved.
##CAS REGISTRY NO=35898-39-6
##MOLFORM=C14H19N5O5S
##MP=182
##SOURCE REFERENCE=RAS UV No. 23522
##$NIST SQUIB=1974OTT/PFL339
##$NIST SOURCE=TYUGLMTE
##SPECTROMETER/DATA SYSTEM=Cary 1115/15
##XUNITS=Wavelength (nm)
##YUNITS=Logarithm epsilon
##XFACTOR=1.0
##YFACTOR=1.0
##FIRSTX=206.176
##LASTX=403.824
##FIRSTY=4.233
##MAXX=403.824
##MINX=206.176
##MAXY=4.477
##MINY=3.529
##NPOINTS=199
##$REF AUTHOR=Ott, M.; Pfleiderer, W.
##$REF JOURNAL=Chem. Ber.
##$REF VOLUME=107
##$REF PAGE=339
##$REF DATE=1974
##XYPOINTS=(XY..XY)
206.176,4.233
207.176,4.251
208.176,4.273
209.176,4.297
210.176,4.321
211.176,4.345
212.176,4.367
213.176,4.389
214.176,4.408
215.176,4.426
216.176,4.442
217.176,4.456
218.176,4.466
219.176,4.474
220.176,4.477
221.176,4.474
221.913,4.470
222.913,4.445
223.913,4.416
224.913,4.384
225.913,4.352
226.913,4.318
227.913,4.285
228.913,4.253
229.913,4.221
230.913,4.192
231.913,4.164
232.913,4.138
233.913,4.114
234.913,4.093
235.913,4.075
236.913,4.059
237.913,4.045
238.913,4.035
240.537,4.023
241.537,4.022
242.537,4.024
243.537,4.028
244.537,4.033
245.537,4.039
246.537,4.045
247.537,4.052
248.537,4.059
249.537,4.065
250.537,4.070
251.537,4.075
252.537,4.080
253.537,4.083
254.537,4.085
255.537,4.087
256.537,4.088
257.537,4.088
258.537,4.088
259.537,4.088
260.537,4.087
261.537,4.087
262.537,4.087
263.537,4.088
264.537,4.091
265.537,4.095
267.289,4.110
268.289,4.124
269.289,4.139
270.289,4.153
271.289,4.167
272.289,4.181
273.289,4.194
274.289,4.207
275.289,4.219
276.289,4.230
277.289,4.241
278.289,4.251
279.289,4.259
280.289,4.267
281.289,4.272
282.289,4.275
283.289,4.275
284.289,4.272
285.289,4.264
286.289,4.250
287.289,4.230
288.289,4.203
289.289,4.167
290.208,4.142
291.208,4.104
292.208,4.067
293.208,4.032
294.208,4.000
295.208,3.971
296.208,3.945
297.208,3.922
298.208,3.903
299.208,3.887
300.208,3.874
301.208,3.863
302.208,3.855
303.208,3.849
304.208,3.845
305.208,3.843
306.208,3.841
307.208,3.840
308.208,3.839
309.208,3.837
310.208,3.835
310.350,3.835
311.350,3.832
312.350,3.829
313.350,3.826
314.350,3.823
315.350,3.819
316.350,3.815
317.350,3.811
318.350,3.807
319.350,3.803
320.350,3.798
321.350,3.794
322.350,3.790
323.350,3.786
324.350,3.783
325.350,3.780
326.350,3.778
327.350,3.776
328.350,3.776
329.350,3.777
330.350,3.778
331.350,3.781
332.350,3.785
333.350,3.791
334.350,3.798
335.214,3.807
336.214,3.814
337.214,3.822
338.214,3.831
339.214,3.840
340.214,3.849
341.214,3.859
342.214,3.870
343.214,3.881
344.214,3.892
345.214,3.903
346.214,3.915
347.214,3.926
348.214,3.938
349.214,3.949
350.214,3.959
351.214,3.970
352.214,3.980
353.214,3.989
354.214,3.998
355.214,4.007
356.214,4.015
357.214,4.022
358.214,4.029
359.214,4.036
360.077,4.046
361.077,4.050
362.077,4.055
363.077,4.061
364.077,4.066
365.077,4.072
366.077,4.078
367.077,4.083
368.077,4.088
369.077,4.092
370.077,4.096
371.077,4.098
372.077,4.100
373.077,4.101
374.077,4.101
375.077,4.099
376.077,4.097
377.077,4.094
378.077,4.090
379.077,4.085
380.077,4.079
381.077,4.072
382.077,4.064
383.077,4.055
384.077,4.045
385.077,4.034
386.077,4.022
387.077,4.009
388.077,3.995
389.077,3.979
390.077,3.962
391.077,3.944
391.235,3.940
392.235,3.922
393.235,3.901
394.235,3.876
395.235,3.849
396.235,3.820
397.235,3.788
398.235,3.756
399.235,3.721
400.235,3.686
401.235,3.649
402.235,3.610
403.824,3.529
##END=
