##TITLE=1,5-bis(4-nitrophenyl)-2,4-pentadien-1-one
##JCAMP-DX=4.24
##DATA TYPE=UV/VIS SPECTRUM
##ORIGIN=INSTITUTE OF ENERGY PROBLEMS OF CHEMICAL PHYSICS, RAS
##OWNER=INEP CP RAS, NIST OSRD
Collection (C) 2007 copyright by the U.S. Secretary of Commerce
on behalf of the United States of America. All rights reserved.
##CAS REGISTRY NO=3588-00-9
##MOLFORM=C17H12N2O5
##MP=201-202
##SOURCE REFERENCE=RAS UV No. 23310
##$NIST SQUIB=1975LAV/2720
##$NIST SOURCE=TYUGLMTE
##SPECTROMETER/DATA SYSTEM=SF-4A
##XUNITS=Wavelength (nm)
##YUNITS=Logarithm epsilon
##XFACTOR=1.0
##YFACTOR=1.0
##FIRSTX=213.1
##LASTX=399.223
##FIRSTY=3.998
##MAXX=399.223
##MINX=213.1
##MAXY=4.515
##MINY=3.86
##NPOINTS=125
##$REF AUTHOR=Lavrushin, V.F.; et al.
##$REF JOURNAL=Zhur. Obshchei Khim.
##$REF VOLUME=45
##$REF PAGE=2720
##$REF DATE=1975
##XYPOINTS=(XY..XY)
213.100,3.998
214.600,4.006
216.100,4.014
217.600,4.020
219.100,4.026
220.600,4.031
222.100,4.035
223.600,4.038
225.100,4.041
226.600,4.043
228.100,4.045
229.600,4.047
231.100,4.049
232.600,4.051
234.100,4.053
235.600,4.055
237.100,4.058
238.600,4.062
240.100,4.066
241.600,4.071
243.100,4.077
244.600,4.084
246.100,4.092
247.600,4.101
249.100,4.110
250.600,4.120
252.100,4.130
253.600,4.141
255.100,4.151
256.600,4.161
258.100,4.171
259.600,4.180
261.100,4.187
262.600,4.192
264.100,4.196
265.600,4.197
267.100,4.196
268.600,4.192
270.100,4.185
271.600,4.176
273.100,4.164
274.600,4.150
275.884,4.135
277.384,4.125
278.884,4.111
280.384,4.095
281.884,4.080
283.384,4.065
284.884,4.053
286.384,4.043
287.884,4.037
289.384,4.033
290.884,4.033
292.384,4.036
293.884,4.040
295.384,4.047
296.884,4.055
298.384,4.064
299.884,4.074
301.384,4.084
302.884,4.094
304.384,4.105
305.884,4.116
307.723,4.131
309.223,4.144
310.723,4.157
312.223,4.171
313.723,4.185
315.223,4.199
316.723,4.214
318.223,4.228
319.723,4.243
321.223,4.258
322.723,4.272
324.223,4.286
325.723,4.301
327.223,4.315
328.723,4.329
330.223,4.342
331.723,4.356
333.223,4.369
334.723,4.382
336.223,4.395
337.723,4.408
339.223,4.420
340.723,4.432
342.223,4.443
343.723,4.454
345.223,4.465
346.723,4.475
348.223,4.484
349.723,4.492
351.223,4.499
352.723,4.505
354.223,4.510
355.723,4.513
357.223,4.515
358.723,4.515
360.223,4.514
361.723,4.510
363.223,4.506
364.723,4.499
366.223,4.491
367.723,4.481
369.223,4.470
370.723,4.457
372.223,4.443
373.723,4.428
375.223,4.412
376.723,4.394
378.223,4.376
379.723,4.356
381.223,4.335
382.723,4.312
384.223,4.288
385.723,4.261
387.223,4.232
388.723,4.199
390.223,4.163
391.723,4.123
393.223,4.078
394.723,4.029
396.223,3.975
397.723,3.918
399.223,3.860
##END=
