##TITLE=6,6-dimethyldibenzo[d,f]dithiepin
##JCAMP-DX=4.24
##DATA TYPE=UV/VIS SPECTRUM
##ORIGIN=INSTITUTE OF ENERGY PROBLEMS OF CHEMICAL PHYSICS, RAS
##OWNER=INEP CP RAS, NIST OSRD
Collection (C) 2007 copyright by the U.S. Secretary of Commerce
on behalf of the United States of America. All rights reserved.
##CAS REGISTRY NO=35864-06-3
##MOLFORM=C15H14S2
##MP=94.5-95.5
##SOURCE REFERENCE=RAS UV No. 23419
##$NIST SQUIB=1975ZHE/1304
##$NIST SOURCE=TYUGLMTE
##SPECTROMETER/DATA SYSTEM=SFD-2
##XUNITS=Wavelength (nm)
##YUNITS=Logarithm epsilon
##XFACTOR=1.0
##YFACTOR=1.0
##FIRSTX=206.812
##LASTX=309.788
##FIRSTY=4.57
##MAXX=309.788
##MINX=206.812
##MAXY=4.635
##MINY=2.364
##NPOINTS=106
##$REF AUTHOR=Zheltov, A.Ya.; et al.
##$REF JOURNAL=Zhur. Organ. Khim.
##$REF VOLUME=11
##$REF PAGE=1304
##$REF DATE=1975
##XYPOINTS=(XY..XY)
206.812,4.570
207.812,4.573
208.812,4.582
209.812,4.596
210.812,4.610
211.812,4.622
212.812,4.631
213.812,4.635
214.812,4.635
215.812,4.628
216.812,4.615
217.812,4.597
218.812,4.575
219.812,4.548
220.812,4.519
221.812,4.487
222.812,4.455
223.812,4.423
224.812,4.392
225.812,4.362
226.812,4.334
227.660,4.312
228.660,4.283
229.660,4.251
230.660,4.218
231.660,4.185
232.660,4.154
233.660,4.125
234.660,4.098
235.660,4.074
236.660,4.053
237.660,4.036
238.660,4.020
239.660,4.007
240.660,3.997
241.660,3.987
242.660,3.979
243.660,3.972
244.660,3.964
245.660,3.956
246.660,3.947
246.717,3.950
247.717,3.932
248.717,3.921
249.717,3.915
250.717,3.911
251.717,3.908
252.717,3.905
253.717,3.900
254.717,3.892
255.717,3.882
256.717,3.869
257.717,3.854
258.717,3.836
259.717,3.816
260.717,3.794
261.717,3.772
262.717,3.750
263.717,3.728
264.717,3.707
265.717,3.687
266.717,3.670
267.717,3.654
268.717,3.640
269.717,3.628
269.845,3.625
270.845,3.616
271.845,3.603
272.845,3.587
273.845,3.570
274.845,3.552
275.845,3.534
276.845,3.516
277.845,3.499
278.845,3.481
279.845,3.464
280.845,3.446
281.845,3.427
282.845,3.407
283.845,3.387
284.845,3.365
285.845,3.342
286.845,3.318
287.845,3.293
288.845,3.268
289.845,3.241
290.845,3.213
291.845,3.183
292.845,3.151
293.788,3.116
294.788,3.076
295.788,3.036
296.788,2.997
297.788,2.957
298.788,2.916
299.788,2.874
300.788,2.830
301.788,2.785
302.788,2.739
303.788,2.691
304.788,2.642
305.788,2.591
306.788,2.538
307.788,2.483
308.788,2.425
309.788,2.364
##END=
