##TITLE=4,5-dihydro-6-(2-phenylethenyl)-3(2H)-piridazinone
##JCAMP-DX=4.24
##DATA TYPE=UV/VIS SPECTRUM
##ORIGIN=INSTITUTE OF ENERGY PROBLEMS OF CHEMICAL PHYSICS, RAS
##OWNER=INEP CP RAS, NIST OSRD
Collection (C) 2007 copyright by the U.S. Secretary of Commerce
on behalf of the United States of America. All rights reserved.
##CAS REGISTRY NO=35990-92-2
##MOLFORM=C12H12N2O
##MP=168-169
##SOURCE REFERENCE=RAS UV No. 22981
##$NIST SQUIB=1976BAD/837
##$NIST SOURCE=TYUGLMTE
##SPECTROMETER/DATA SYSTEM=Pye -Unicam SP 8000
##XUNITS=Wavelength (nm)
##YUNITS=Logarithm epsilon
##XFACTOR=1.0
##YFACTOR=1.0
##FIRSTX=218.836
##LASTX=346.251
##FIRSTY=3.682
##MAXX=346.251
##MINX=218.836
##MAXY=4.691
##MINY=3.442
##NPOINTS=161
##$REF AUTHOR=Baddar, F.G.; et al.
##$REF JOURNAL=Spectrochim. Acta
##$REF VOLUME=109
##$REF PAGE=837
##$REF DATE=1976
##XYPOINTS=(XY..XY)
218.836,3.682
219.336,3.752
219.836,3.804
220.336,3.844
220.836,3.876
221.336,3.901
221.836,3.921
222.336,3.938
222.836,3.952
223.336,3.963
223.836,3.973
224.336,3.981
224.836,3.987
225.336,3.993
225.836,3.998
226.336,4.002
226.836,4.006
227.336,4.009
227.836,4.012
228.336,4.014
228.836,4.016
229.336,4.018
229.836,4.019
230.336,4.020
230.836,4.020
231.336,4.020
231.836,4.019
232.336,4.018
232.836,4.017
233.336,4.014
233.836,4.012
234.336,4.008
234.836,4.004
235.336,3.999
235.836,3.993
236.336,3.986
236.836,3.978
237.336,3.970
237.836,3.961
238.336,3.950
238.836,3.939
239.336,3.927
239.836,3.914
240.336,3.900
240.836,3.885
241.336,3.869
241.836,3.852
242.336,3.834
242.836,3.816
243.336,3.797
243.836,3.778
244.336,3.758
244.836,3.738
245.336,3.718
245.836,3.699
246.336,3.679
246.836,3.661
247.336,3.643
247.836,3.626
248.336,3.610
248.836,3.596
249.336,3.582
249.836,3.570
250.336,3.558
251.486,3.523
252.486,3.498
253.486,3.484
254.486,3.482
255.486,3.491
256.486,3.509
257.486,3.534
258.486,3.565
259.486,3.601
260.486,3.638
261.486,3.677
262.486,3.717
263.486,3.757
264.486,3.796
265.486,3.834
266.486,3.872
267.486,3.908
268.486,3.943
269.486,3.978
270.486,4.011
271.486,4.043
272.486,4.074
273.486,4.104
274.486,4.132
275.486,4.160
276.486,4.187
277.486,4.213
278.486,4.238
279.486,4.262
280.486,4.285
281.486,4.308
282.486,4.329
283.486,4.350
284.486,4.370
285.486,4.389
286.486,4.407
287.486,4.425
288.486,4.442
289.486,4.458
290.486,4.474
291.486,4.489
292.486,4.504
293.486,4.518
294.486,4.531
295.486,4.544
296.486,4.557
296.745,4.561
297.745,4.576
298.745,4.588
299.745,4.600
300.745,4.610
301.745,4.621
302.745,4.630
303.745,4.638
304.745,4.645
305.745,4.650
307.295,4.653
308.295,4.656
309.295,4.660
310.295,4.667
311.295,4.674
312.295,4.680
313.295,4.686
314.295,4.690
315.295,4.691
316.295,4.690
317.295,4.686
317.415,4.685
318.415,4.677
319.415,4.663
320.415,4.647
321.415,4.630
322.415,4.614
323.415,4.598
324.415,4.583
325.415,4.568
326.415,4.551
327.293,4.533
328.293,4.512
329.293,4.489
330.293,4.464
331.293,4.436
332.293,4.405
333.293,4.370
334.293,4.332
335.293,4.289
336.293,4.242
337.293,4.191
338.251,4.138
339.251,4.076
340.251,4.008
341.251,3.933
342.251,3.850
343.251,3.759
344.251,3.659
345.251,3.552
346.251,3.442
##END=
