##TITLE=4-phenylazo-1-naphthol
##JCAMP-DX=4.24
##DATA TYPE=UV/VIS SPECTRUM
##ORIGIN=INSTITUTE OF ENERGY PROBLEMS OF CHEMICAL PHYSICS, RAS
##OWNER=INEP CP RAS, NIST OSRD
Collection (C) 2007 copyright by the U.S. Secretary of Commerce
on behalf of the United States of America. All rights reserved.
##CAS REGISTRY NO=3651-02-3
##MOLFORM=C16H12N2O
##MP=206
##SOURCE REFERENCE=RAS UV No. 22167
##$NIST SQUIB=1978KIS/3882
##$NIST SOURCE=TYUGLMTE
##SPECTROMETER/DATA SYSTEM=Shimadzu MPS-50 L
##XUNITS=Wavelength (nm)
##YUNITS=Logarithm epsilon
##XFACTOR=1.0
##YFACTOR=1.0
##FIRSTX=301.648
##LASTX=560.169
##FIRSTY=3.919
##MAXX=560.169
##MINX=301.648
##MAXY=4.346
##MINY=2.537
##NPOINTS=130
##$REF AUTHOR=Kishimoto, S.; et al.
##$REF JOURNAL=J. Org. Chem.
##$REF VOLUME=43
##$REF PAGE=3882
##$REF DATE=1978
##XYPOINTS=(XY..XY)
301.648,3.919
303.648,3.840
305.648,3.803
307.648,3.784
309.648,3.770
311.648,3.756
313.648,3.744
315.648,3.736
317.648,3.736
319.648,3.745
321.648,3.759
323.648,3.765
325.900,3.771
328.651,3.764
330.651,3.758
332.651,3.754
334.651,3.749
336.651,3.743
338.651,3.734
340.651,3.723
342.651,3.709
344.651,3.694
346.651,3.678
348.651,3.662
350.651,3.647
352.651,3.634
354.651,3.625
356.651,3.619
358.651,3.618
360.651,3.623
362.651,3.632
363.807,3.640
365.807,3.653
367.807,3.669
369.807,3.688
371.807,3.708
373.807,3.729
375.807,3.750
377.807,3.770
379.807,3.790
381.807,3.808
383.807,3.826
385.807,3.842
387.807,3.857
389.807,3.870
391.807,3.883
393.807,3.894
395.807,3.905
397.807,3.915
399.807,3.924
401.807,3.933
403.807,3.942
405.807,3.950
407.807,3.959
409.807,3.967
411.807,3.976
413.807,3.984
415.807,3.991
417.979,3.998
419.979,4.001
421.979,4.004
423.979,4.009
425.979,4.016
427.979,4.024
429.979,4.033
431.979,4.045
433.979,4.059
435.979,4.074
437.979,4.092
439.979,4.110
441.979,4.129
443.979,4.148
445.979,4.166
447.979,4.181
449.927,4.194
451.927,4.212
453.927,4.228
455.927,4.243
457.927,4.257
459.927,4.271
461.927,4.284
463.927,4.296
465.927,4.308
467.927,4.318
469.927,4.327
471.927,4.335
473.927,4.341
475.927,4.344
477.927,4.346
479.927,4.345
481.927,4.342
483.927,4.336
485.927,4.329
487.927,4.319
489.927,4.308
491.927,4.295
493.927,4.281
495.927,4.266
497.927,4.250
499.927,4.233
501.927,4.217
503.927,4.200
505.927,4.182
507.927,4.163
509.927,4.142
511.927,4.118
514.008,4.079
516.169,4.043
518.169,3.998
520.169,3.955
522.169,3.914
524.169,3.875
526.169,3.834
528.169,3.793
530.169,3.749
532.169,3.701
534.169,3.649
536.169,3.591
538.169,3.527
540.169,3.455
542.169,3.377
544.169,3.293
546.169,3.201
548.169,3.105
550.169,3.004
552.169,2.902
554.169,2.800
556.169,2.703
558.169,2.613
560.169,2.537
##END=
