##TITLE=2,2'-Bipyridine
##JCAMP-DX=4.24
##DATA TYPE=UV/VIS SPECTRUM
##ORIGIN=INSTITUTE OF ENERGY PROBLEMS OF CHEMICAL PHYSICS, RAS
##OWNER=INEP CP RAS, NIST OSRD
Collection (C) 2007 copyright by the U.S. Secretary of Commerce
on behalf of the United States of America. All rights reserved.
##CAS REGISTRY NO=366-18-7
##MOLFORM=C10H8N2
##MP=72
##BP=273.5
##SOURCE REFERENCE=RAS UV No. 8940
##$NIST SQUIB=1961BAR/SZO370B
##$NIST SOURCE=TSGMTE
##SPECTROMETER/DATA SYSTEM=Beckman DU
##XUNITS=Wavelength (nm)
##YUNITS=Logarithm epsilon
##XFACTOR=1.000000
##YFACTOR=1.000000
##FIRSTX=211.5106
##LASTX=340.0988
##FIRSTY=3.80667
##MAXX=340.099
##MINX=211.511
##MAXY=4.13365
##MINY=1.51669
##NPOINTS=831
##$REF AUTHOR=Bartecki, a.; Szoke, J.; Varsanyi, G.; Vizesy, M.
##$REF TITLE=Absorption spectra in the ultraviolet and visible region. Volume 2
##$REF PAGE=370
##$REF DATE=1961
##$REF PUBLISHER=Academic Press Inc.
##$REF LOCATION=New York
##XYPOINTS=(XY..XY)
211.5106,3.806672
211.5111,3.810726
211.8646,3.800573
212.0158,3.793470
212.0166,3.800565
212.1674,3.790422
212.1678,3.793463
212.6724,3.776207
212.6729,3.780261
213.3799,3.759954
213.3803,3.762995
213.8849,3.745739
213.8854,3.749794
214.5417,3.729489
214.5420,3.732530
215.0467,3.715274
215.0472,3.719329
215.1979,3.709185
215.1983,3.712226
215.4001,3.705121
215.5518,3.702073
215.5522,3.705113
215.9053,3.691920
215.9057,3.694960
216.0569,3.688871
216.2085,3.684809
216.2090,3.688864
216.4104,3.678718
216.4108,3.681759
216.9154,3.664503
216.9159,3.668557
217.0671,3.661455
217.0674,3.664495
217.5722,3.648253
217.5726,3.651294
218.0768,3.630997
218.0777,3.638092
218.5819,3.617796
218.5823,3.620836
218.7335,3.613734
218.7340,3.617788
218.9358,3.610683
219.0875,3.607635
219.0878,3.610675
219.2386,3.600532
219.2390,3.603573
219.5925,3.593420
219.7441,3.590371
219.7445,3.593412
219.9459,3.583266
219.9464,3.587321
220.2492,3.577170
220.4515,3.573105
220.4520,3.577160
220.6031,3.570057
220.6035,3.573098
221.1086,3.559896
221.2607,3.559889
221.4630,3.556838
221.6150,3.556830
221.7665,3.552768
221.9693,3.552758
222.1209,3.549710
222.4757,3.549692
222.6273,3.546644
223.6409,3.546593
223.7924,3.542531
223.9951,3.542521
224.1476,3.546568
225.3132,3.546510
225.5163,3.549540
225.6684,3.549533
225.8208,3.552566
226.0235,3.552556
226.0240,3.556610
226.1760,3.556602
226.3284,3.559635
226.5311,3.559625
226.6836,3.562658
226.8356,3.562651
227.0388,3.566695
227.0392,3.569735
227.1916,3.572768
227.3436,3.572761
227.3441,3.576815
227.6989,3.576797
227.6993,3.579838
227.8513,3.579830
227.8517,3.582871
228.0549,3.586915
228.0553,3.589956
228.2073,3.589948
228.3597,3.592981
228.5624,3.592971
228.5629,3.597025
228.7150,3.597018
228.7154,3.600058
229.3758,3.613202
229.5785,3.613192
229.5790,3.617246
229.8839,3.623312
230.0866,3.623302
230.0871,3.627356
230.2391,3.627348
230.2395,3.630389
230.3919,3.633422
230.3924,3.637476
230.5951,3.637466
230.5955,3.640507
230.7475,3.640499
230.7479,3.643540
230.8999,3.643532
230.9005,3.647587
231.1035,3.650617
231.1039,3.653658
231.2560,3.653650
231.4085,3.657697
231.6112,3.657687
231.6120,3.663768
231.9169,3.670848
232.1196,3.670838
232.1200,3.673878
232.2721,3.673871
232.2726,3.677925
232.6281,3.683988
232.6286,3.688043
232.7806,3.688035
232.9330,3.691068
232.9334,3.694109
233.4414,3.704219
233.6442,3.704209
233.6447,3.708263
233.7967,3.708255
233.7971,3.711296
233.9495,3.714329
233.9500,3.718383
234.1527,3.718373
234.1531,3.721414
234.3051,3.721406
234.3055,3.724447
234.4575,3.724439
234.4580,3.728494
235.3216,3.744667
235.3221,3.748722
235.4741,3.748714
235.4745,3.751755
235.6772,3.751745
235.6776,3.754785
235.8296,3.754778
236.1853,3.761855
236.1856,3.764896
236.3377,3.764888
236.3382,3.768942
236.4902,3.768935
237.2014,3.782075
237.3534,3.782068
237.5058,3.785101
237.7085,3.785091
237.8611,3.789137
238.0131,3.789130
238.0135,3.792170
238.3682,3.792153
238.3686,3.795193
238.7233,3.795176
238.8759,3.799222
239.5347,3.799189
239.7378,3.802220
240.2446,3.802194
240.3970,3.805227
241.5626,3.805169
241.7658,3.809213
242.2726,3.809188
242.4241,3.805126
243.7924,3.805058
244.0957,3.798961
244.4499,3.794889
244.4504,3.798943
245.4615,3.778622
245.4618,3.781662
245.6130,3.774560
245.6135,3.778614
245.8153,3.771509
245.8157,3.774550
246.1185,3.764399
246.3208,3.761348
246.3212,3.764389
246.4725,3.758300
246.4729,3.761340
246.8263,3.751187
246.9780,3.748139
246.9784,3.751180
247.1291,3.741036
247.1295,3.744077
247.3318,3.741026
247.6350,3.733916
247.8374,3.730865
247.8377,3.733906
248.1402,3.720715
248.1405,3.723755
248.3425,3.717664
248.3429,3.720704
248.4936,3.710561
248.4945,3.717656
248.6453,3.707513
248.8475,3.703449
248.8480,3.707503
249.1512,3.700393
249.1516,3.703434
250.0102,3.680079
250.0105,3.683119
250.1618,3.677030
250.1622,3.680071
250.3640,3.672966
250.3645,3.677020
250.5161,3.672958
250.8695,3.662805
250.8700,3.666859
251.1728,3.656709
251.3756,3.656698
251.5267,3.649596
251.5271,3.652637
252.0322,3.639435
252.1839,3.636387
252.1842,3.639427
252.3861,3.632322
252.3866,3.636377
255.0649,3.575429
255.2160,3.568326
255.2164,3.571367
255.4184,3.565276
255.4188,3.568316
255.7216,3.558166
255.9239,3.555115
255.9243,3.558155
256.7322,3.534803
256.7326,3.537844
256.9344,3.530739
256.9349,3.534793
257.0861,3.527690
257.0864,3.530731
257.2377,3.524642
257.2381,3.527683
257.4399,3.520578
257.4404,3.524632
257.5912,3.514489
257.5916,3.517530
257.7427,3.510427
257.9450,3.507376
257.9454,3.510417
258.0962,3.500274
258.0971,3.507369
258.6009,3.484032
258.6017,3.490113
258.7525,3.479970
258.7530,3.484024
258.9544,3.473878
258.9548,3.476919
259.1052,3.463735
259.1059,3.469816
259.2563,3.456633
259.2572,3.463728
259.4582,3.449528
259.4587,3.453582
259.7606,3.436336
259.7615,3.443431
259.9629,3.433285
259.9633,3.436326
260.1141,3.426183
260.1144,3.429224
260.2652,3.419080
260.2661,3.426175
260.4675,3.416030
260.4679,3.419070
260.6192,3.412981
260.6196,3.416022
260.7703,3.405879
260.7712,3.412974
260.9727,3.402828
260.9730,3.405869
261.1242,3.398766
261.1247,3.402820
261.2758,3.395718
261.2762,3.398759
261.4786,3.395708
261.7817,3.388598
261.9844,3.388588
262.1361,3.385539
263.6564,3.385463
263.6568,3.388504
263.8088,3.388496
264.0121,3.392540
264.1641,3.392533
264.1645,3.395573
264.6713,3.395548
264.6716,3.398589
265.0264,3.398571
265.1789,3.402618
265.3310,3.402610
265.3313,3.405651
265.5340,3.405641
265.5344,3.408681
265.6870,3.412728
265.8390,3.412720
266.0421,3.415751
266.1941,3.415743
266.8546,3.428887
267.0573,3.428876
267.2098,3.432923
267.3619,3.432915
267.7174,3.438979
267.7179,3.443033
267.8699,3.443026
268.0730,3.446056
268.2250,3.446049
268.3774,3.449082
268.5802,3.449071
268.5807,3.453126
268.7327,3.453118
268.7331,3.456159
268.8851,3.456151
268.8855,3.459192
269.0882,3.459182
269.0887,3.463236
269.2407,3.463228
269.9012,3.476372
270.1039,3.476361
270.1043,3.479402
270.4084,3.479387
270.4089,3.483441
270.6116,3.483431
270.6120,3.486472
270.7640,3.486464
270.7644,3.489505
270.9169,3.493551
271.1196,3.493541
271.1200,3.496582
271.2720,3.496574
271.2724,3.499615
271.4245,3.499607
271.4250,3.503662
271.6280,3.506692
271.6284,3.509733
271.9325,3.509718
271.9330,3.513772
272.1357,3.513762
272.1361,3.516802
272.2881,3.516795
272.2890,3.523890
272.4410,3.523882
272.4414,3.526923
272.6441,3.526913
272.9491,3.533992
272.9495,3.537033
273.4575,3.547143
273.4579,3.550184
273.9659,3.560294
273.9665,3.564348
274.1692,3.564338
274.1699,3.570419
274.3220,3.570412
274.3225,3.574466
274.4745,3.574458
274.4749,3.577499
274.6776,3.577489
274.6780,3.580530
274.8305,3.584576
274.8309,3.587617
275.3389,3.597727
275.3393,3.600768
275.8474,3.610878
275.8479,3.614932
276.0003,3.617965
276.0007,3.621006
276.2034,3.620996
276.2039,3.625050
276.3559,3.625043
276.3567,3.631124
276.5092,3.635170
276.5096,3.638211
276.7123,3.638201
276.7127,3.641242
276.8647,3.641234
276.8656,3.648329
277.3736,3.658439
277.3745,3.665534
277.5266,3.665526
277.5269,3.668567
277.7297,3.668557
277.7300,3.671598
277.8821,3.671590
277.8830,3.678685
278.3910,3.688795
278.3914,3.691836
278.5434,3.691828
278.5443,3.698923
278.7470,3.698913
278.7474,3.701954
278.8994,3.701946
278.8999,3.706000
279.0520,3.705993
279.0532,3.716128
279.2559,3.716118
279.2563,3.719159
279.4084,3.719151
279.4087,3.722192
279.5608,3.722184
279.5617,3.729279
279.9173,3.736356
279.9177,3.739397
280.0697,3.739389
280.0706,3.746484
280.2733,3.746474
280.2737,3.749515
280.4257,3.749507
280.4261,3.752548
280.5781,3.752540
280.5794,3.762676
280.7821,3.762666
280.7826,3.766720
280.9346,3.766712
280.9354,3.772794
281.0879,3.776840
281.0883,3.779881
281.2910,3.779871
281.2914,3.782911
281.4435,3.782904
281.4443,3.789999
281.5964,3.789991
281.5968,3.793032
281.9524,3.800109
281.9528,3.803150
282.1048,3.803142
282.1057,3.810237
282.3084,3.810227
282.3088,3.813267
282.4608,3.813260
282.4613,3.817314
282.6137,3.820347
282.6146,3.827442
282.8173,3.827432
282.8177,3.830473
282.9697,3.830465
282.9701,3.833506
283.1227,3.837552
283.1230,3.840593
283.3258,3.840583
283.3261,3.843623
283.4782,3.843616
283.4787,3.847670
283.6307,3.847663
283.8347,3.857788
283.8351,3.860829
283.9871,3.860821
283.9875,3.863862
284.1395,3.863854
284.1400,3.867908
284.3431,3.870939
284.3435,3.873979
284.4955,3.873972
284.4960,3.878026
284.6481,3.878019
284.6484,3.881059
284.8515,3.884090
284.8520,3.888144
285.0041,3.888136
285.0045,3.891177
285.1565,3.891169
285.1569,3.894210
285.3596,3.894200
285.3605,3.901295
285.5125,3.901287
285.5129,3.904328
285.6649,3.904320
285.6654,3.908375
285.8681,3.908364
285.8685,3.911405
286.0205,3.911397
286.0214,3.918492
291.7627,4.035779
291.9654,4.035768
291.9659,4.039823
292.1180,4.039815
292.1184,4.042856
292.2704,4.042848
292.2708,4.045889
292.4735,4.045879
292.4740,4.049933
292.7780,4.049918
292.7784,4.052958
292.9811,4.052948
292.9815,4.055989
293.1336,4.055981
293.1341,4.060035
293.2861,4.060028
293.2865,4.063069
293.4892,4.063058
293.6416,4.066091
293.7936,4.066084
294.1493,4.073161
294.1496,4.076202
294.5044,4.076184
294.6569,4.080231
295.0117,4.080213
295.0121,4.083253
295.1641,4.083246
295.6721,4.093356
296.0269,4.093338
296.0273,4.096379
296.3313,4.096364
296.5345,4.100408
296.6866,4.100400
297.0421,4.106464
297.1941,4.106456
297.3467,4.110503
297.7014,4.110485
297.7018,4.113526
298.0565,4.113508
298.3615,4.120588
298.7162,4.120570
298.7166,4.123611
299.0713,4.123593
299.2238,4.126626
299.7305,4.126601
299.8831,4.130647
300.3899,4.130622
300.5929,4.133653
302.7721,4.133544
302.9237,4.130495
304.2920,4.130427
304.4436,4.126365
305.1531,4.126330
305.3047,4.123281
305.6595,4.123264
305.8111,4.120215
306.1659,4.120198
306.4690,4.113087
306.8238,4.113070
306.9754,4.110021
307.3297,4.105950
307.3302,4.110004
307.4817,4.105942
307.6840,4.102891
307.8357,4.099843
307.8361,4.102884
307.9872,4.095781
307.9877,4.099835
308.3416,4.092723
308.3420,4.095763
308.6963,4.092705
308.9995,4.085595
309.2018,4.082544
309.2022,4.085585
309.3539,4.082536
309.5055,4.079488
309.8598,4.075416
309.8603,4.079470
310.2141,4.072358
310.2145,4.075398
310.3662,4.072350
310.5178,4.069302
310.7200,4.065238
310.7205,4.069292
311.0237,4.062182
311.0241,4.065222
311.3784,4.062164
311.8843,4.055044
312.2383,4.048945
312.5424,4.048929
312.8962,4.041817
313.0479,4.038768
313.0483,4.041809
313.2501,4.034704
313.4021,4.034697
313.5538,4.031648
313.7565,4.031638
314.4137,4.018429
314.5657,4.018421
317.4433,3.930098
317.5945,3.922995
317.5950,3.927049
317.7968,3.919944
317.7972,3.922985
317.9479,3.912842
317.9484,3.916896
318.0987,3.902699
318.0996,3.909793
318.3010,3.899648
318.3014,3.902688
318.4522,3.892545
318.4527,3.896600
318.6026,3.879361
318.6038,3.889497
318.8049,3.876311
318.8053,3.879351
318.9557,3.866168
318.9564,3.872249
319.1064,3.856024
319.1072,3.862106
319.3083,3.848919
319.3091,3.856014
319.4590,3.838776
319.4599,3.845871
319.6098,3.828633
319.6107,3.835728
319.8109,3.815447
319.8121,3.825582
319.9620,3.808344
319.9629,3.815439
320.1119,3.791106
320.1137,3.805296
320.3133,3.780960
320.3146,3.791096
320.4641,3.770817
320.4654,3.780953
320.6145,3.757633
320.6157,3.767769
320.8159,3.747488
320.8168,3.754583
320.9658,3.730250
320.9676,3.744439
321.1162,3.717066
321.1175,3.727201
321.3173,3.703879
321.3185,3.714015
321.4671,3.686641
321.4688,3.699818
321.6175,3.673458
321.6192,3.686634
321.8185,3.659258
321.8197,3.669393
321.9688,3.646074
321.9701,3.656209
322.1192,3.632890
322.1205,3.643026
322.3202,3.618690
322.3214,3.628826
322.4706,3.605506
322.4718,3.615642
322.6204,3.588268
322.6222,3.602458
322.8215,3.575082
322.8228,3.585217
322.9710,3.554803
322.9732,3.572034
323.1214,3.541619
323.1226,3.551755
323.3219,3.524379
323.3236,3.537555
323.4718,3.507141
323.4736,3.521330
323.6213,3.486862
323.6235,3.504092
323.8220,3.470635
323.8237,3.483811
323.9728,3.460492
323.9740,3.470627
324.1230,3.446294
324.1243,3.456430
324.3237,3.430067
324.3254,3.443244
324.4740,3.415870
324.4752,3.426005
324.6240,3.399645
324.6256,3.412822
324.8245,3.382405
324.8262,3.395581
324.9744,3.365167
324.9762,3.379357
325.1248,3.351983
325.1261,3.362119
325.3254,3.334742
325.3271,3.348932
325.4754,3.318518
325.4770,3.331694
325.6249,3.298239
325.6269,3.314456
325.8258,3.284039
325.8276,3.298229
325.9758,3.267815
325.9775,3.280991
326.1253,3.247536
326.1273,3.263753
326.3255,3.227255
326.3275,3.243472
326.4757,3.213057
326.4775,3.227247
326.6252,3.192779
326.6274,3.210009
326.8263,3.179592
326.8276,3.189728
326.9762,3.162354
326.9780,3.176544
327.1262,3.146130
327.1278,3.159306
327.3271,3.131930
327.3284,3.142065
327.4766,3.111651
327.4788,3.128882
327.6283,3.108603
328.9767,2.949406
329.1271,2.936222
329.1283,2.946358
329.3273,2.915941
329.3294,2.933171
329.4768,2.895662
329.4789,2.912893
329.6271,2.882478
329.6288,2.895655
329.8281,2.868279
329.8293,2.878414
329.9772,2.844959
329.9797,2.865230
330.1276,2.831775
330.1292,2.844952
330.3278,2.811494
330.3303,2.831765
330.4780,2.797297
330.4798,2.811486
330.6275,2.777018
330.6297,2.794248
330.8282,2.760791
330.8299,2.773967
330.9781,2.743553
330.9797,2.756729
331.1276,2.723274
331.1297,2.740505
331.3281,2.706034
331.3299,2.720223
331.4785,2.692850
331.4798,2.702985
331.6277,2.669530
331.6302,2.689801
331.8278,2.649249
331.8299,2.665466
331.9773,2.628970
331.9794,2.645187
332.1272,2.611732
332.1289,2.624909
332.3265,2.584356
332.3295,2.608682
332.4756,2.561037
332.4782,2.581308
332.6251,2.540758
332.6277,2.561029
332.8257,2.523517
332.8274,2.537707
332.9752,2.503239
332.9773,2.520469
333.1247,2.482960
333.1268,2.500190
333.3249,2.462679
333.3270,2.479909
333.4740,2.439359
333.4765,2.459631
333.6231,2.416040
333.6256,2.436311
333.8245,2.405894
333.8258,2.416030
333.9735,2.381561
333.9761,2.401833
334.1226,2.358242
334.1252,2.378513
334.3228,2.337961
334.3250,2.355191
334.4723,2.317682
334.4749,2.337953
334.6218,2.297403
334.6240,2.314634
334.8229,2.284217
334.8242,2.294352
334.9719,2.259884
334.9744,2.280155
335.1219,2.243660
335.1235,2.256836
335.3212,2.216283
335.3241,2.239595
335.4711,2.199045
335.4728,2.213235
335.6206,2.178767
335.6227,2.195997
335.8204,2.155445
335.8229,2.175716
335.9695,2.132125
335.9720,2.152396
336.1190,2.111846
336.1215,2.132117
336.3199,2.097647
336.3212,2.107782
336.4694,2.077368
336.4716,2.094598
336.6147,2.023642
336.6156,2.030737
336.6169,2.040872
336.6211,2.074320
336.8174,2.023632
336.8183,2.030726
336.8196,2.040862
336.9695,2.023624
336.9704,2.030719
337.4645,1.929338
337.6135,1.905005
337.6165,1.929331
337.8136,1.884724
337.8158,1.901954
337.9615,1.851269
337.9653,1.881676
338.1097,1.820855
338.1131,1.848221
338.3086,1.790438
338.3121,1.817804
338.4581,1.770159
338.4603,1.787390
338.6073,1.746840
338.6098,1.767111
338.8069,1.722504
338.8095,1.742775
338.9560,1.699184
338.9586,1.719456
339.1039,1.665730
339.1077,1.696136
339.3036,1.641395
339.3066,1.665720
339.4531,1.621116
339.4556,1.641387
339.5996,1.577525
339.6047,1.618067
339.7998,1.557244
339.8020,1.574475
339.9472,1.519735
339.9515,1.554196
340.0988,1.516686
##END=
