##TITLE=6-hydroxy-2-phenyl-5,8-quinazolinedione
##JCAMP-DX=4.24
##DATA TYPE=UV/VIS SPECTRUM
##ORIGIN=INSTITUTE OF ENERGY PROBLEMS OF CHEMICAL PHYSICS, RAS
##OWNER=INEP CP RAS, NIST OSRD
Collection (C) 2007 copyright by the U.S. Secretary of Commerce
on behalf of the United States of America. All rights reserved.
##CAS REGISTRY NO=36797-84-9
##MOLFORM=C14H8N2O3
##MP=227-229
##SOURCE REFERENCE=RAS UV No. 23733
##$NIST SQUIB=1974KOS/1559
##$NIST SOURCE=TYUGLMTE
##SPECTROMETER/DATA SYSTEM=Specord UV-Vis
##XUNITS=Wavelength (nm)
##YUNITS=Logarithm epsilon
##XFACTOR=1.0
##YFACTOR=1.0
##FIRSTX=201.175
##LASTX=360.992
##FIRSTY=4.52
##MAXX=360.992
##MINX=201.175
##MAXY=4.543
##MINY=3.216
##NPOINTS=162
##$REF AUTHOR=Kosheleva, L.I.; et al.
##$REF JOURNAL=Khim. Geterosikl. Soedin.
##$REF PAGE=1559
##$REF DATE=1974
##XYPOINTS=(XY..XY)
201.175,4.520
202.175,4.530
203.175,4.537
204.175,4.542
205.175,4.543
206.175,4.541
207.175,4.535
208.175,4.525
209.175,4.512
210.175,4.495
211.175,4.475
212.175,4.451
213.175,4.426
214.175,4.398
215.175,4.369
216.175,4.340
217.175,4.312
218.175,4.286
218.183,4.286
219.183,4.266
220.183,4.246
221.183,4.224
222.183,4.203
223.183,4.182
224.183,4.161
225.183,4.140
226.183,4.121
227.183,4.103
228.183,4.086
229.183,4.071
230.183,4.057
231.183,4.045
232.183,4.036
233.183,4.028
234.183,4.023
235.183,4.020
236.183,4.020
237.183,4.021
238.183,4.025
239.183,4.032
240.183,4.041
241.183,4.052
242.183,4.065
243.183,4.080
244.183,4.097
245.183,4.116
246.183,4.136
247.183,4.158
248.183,4.181
249.183,4.205
250.313,4.232
251.313,4.260
252.313,4.288
253.313,4.317
254.313,4.344
255.313,4.371
256.313,4.397
257.313,4.421
258.313,4.443
259.313,4.463
260.313,4.481
261.313,4.496
262.313,4.508
263.313,4.517
264.313,4.524
265.313,4.527
266.313,4.527
267.313,4.524
268.313,4.517
269.313,4.508
270.313,4.495
271.313,4.479
272.313,4.459
273.313,4.437
274.313,4.413
275.313,4.385
276.313,4.355
277.313,4.323
278.197,4.297
279.197,4.259
280.197,4.216
281.197,4.170
282.197,4.124
283.197,4.080
284.197,4.039
285.197,4.001
286.197,3.967
287.197,3.938
288.197,3.914
289.197,3.894
290.197,3.879
291.197,3.867
292.197,3.858
293.197,3.852
294.197,3.848
295.197,3.845
296.197,3.843
297.197,3.842
298.197,3.842
299.197,3.842
300.197,3.843
301.357,3.850
302.357,3.855
303.357,3.861
304.357,3.865
305.357,3.869
306.357,3.872
307.357,3.875
308.357,3.877
309.357,3.878
310.357,3.878
311.357,3.878
312.357,3.876
313.357,3.873
314.357,3.869
315.357,3.864
316.357,3.857
317.357,3.849
318.357,3.840
319.357,3.829
320.357,3.817
321.357,3.802
322.357,3.787
323.357,3.769
324.357,3.750
325.516,3.725
326.516,3.702
327.516,3.680
328.516,3.657
329.516,3.635
330.516,3.615
331.516,3.596
332.516,3.579
333.516,3.565
334.516,3.553
335.516,3.543
336.516,3.535
337.516,3.530
338.516,3.526
339.516,3.524
340.516,3.523
341.516,3.523
342.516,3.523
343.309,3.522
343.992,3.523
344.992,3.519
345.992,3.513
346.992,3.505
347.992,3.494
348.992,3.481
349.992,3.466
350.992,3.450
351.992,3.432
352.992,3.413
353.992,3.393
354.992,3.372
355.992,3.349
356.992,3.325
357.992,3.300
358.992,3.273
359.992,3.245
360.992,3.216
##END=
