##TITLE=1,2,4-Trifluorobenzene
##JCAMP-DX=4.24
##DATA TYPE=UV/VIS SPECTRUM
##ORIGIN=INSTITUTE OF ENERGY PROBLEMS OF CHEMICAL PHYSICS, RAS
##OWNER=INEP CP RAS, NIST OSRD
Collection (C) 2007 copyright by the U.S. Secretary of Commerce
on behalf of the United States of America. All rights reserved.
##CAS REGISTRY NO=367-23-7
##MOLFORM=C6H3F3
##BP=90
##SOURCE REFERENCE=RAS UV No. 5081
##$NIST SQUIB=1972GIL/SAU543-547
##$NIST SOURCE=TSGMTE
##SPECTROMETER/DATA SYSTEM=McPherson model 225 monochromator
##XUNITS=Wavelength (nm)
##YUNITS=Logarithm epsilon
##XFACTOR=1.000000
##YFACTOR=1.000000
##FIRSTX=205.2488
##LASTX=119.7138
##FIRSTY=3.44702
##MAXX=205.249
##MINX=119.714
##MAXY=4.59843
##MINY=3.37181
##NPOINTS=595
##$REF AUTHOR=Gilbert, R.; Sauvageau, P.; Sandorfy, C.
##$REF TITLE=Valence-shell transitions in the vacuum-ultraviolet spectra of fluorobenzenes
##$REF JOURNAL=Can. J. Chem.
##$REF VOLUME=50
##$REF PAGE=543-547
##$REF DATE=1972
##XYPOINTS=(XY..XY)
205.2488,3.447019
205.0008,3.460973
204.9981,3.476303
204.7201,3.489344
204.7124,3.528160
204.4657,3.539767
204.4581,3.574493
203.6911,3.606337
203.6886,3.616150
203.4441,3.626837
203.4417,3.636202
203.2005,3.636109
203.1980,3.645279
202.9273,3.645177
202.9222,3.664047
202.6822,3.663960
202.6798,3.672566
202.4380,3.680921
202.1693,3.680827
201.9284,3.690050
201.4240,3.689876
201.4217,3.697988
201.1852,3.697907
200.9469,3.705793
200.7116,3.705714
200.7089,3.714506
200.4425,3.722089
199.7101,3.729392
198.7547,3.729084
198.2683,3.721376
197.3265,3.721061
197.1018,3.713296
196.8754,3.713218
196.4007,3.696236
196.1781,3.688009
196.1759,3.696155
195.7020,3.687834
195.4813,3.678395
195.0086,3.678216
194.7891,3.669637
194.5680,3.669552
193.8801,3.669283
193.6314,3.677690
192.9501,3.677427
192.9476,3.686805
192.2981,3.686557
192.2959,3.694731
192.0513,3.702664
191.8363,3.702584
191.8339,3.711439
191.3744,3.726589
191.1609,3.726514
191.1585,3.734899
190.7022,3.749265
190.6998,3.757226
190.4878,3.757156
190.4857,3.764113
190.2742,3.764044
190.2700,3.777634
190.0302,3.785022
189.8197,3.784956
189.8176,3.791485
189.6076,3.791420
189.6031,3.804978
189.3936,3.804915
189.3915,3.811153
189.1542,3.817233
189.1519,3.824050
188.9433,3.823990
188.9412,3.829961
188.7331,3.829902
188.7287,3.842327
188.4931,3.847989
188.4910,3.853641
188.2839,3.853585
188.2819,3.859166
188.0752,3.859110
188.0688,3.876103
187.8369,3.876043
187.8304,3.892399
187.6248,3.892347
187.6225,3.898088
187.1829,3.908006
186.9786,3.907956
186.9743,3.918361
186.7685,3.923125
186.7664,3.927884
186.3349,3.927784
186.3306,3.937730
186.1262,3.942287
186.1239,3.947408
185.9220,3.947363
185.9199,3.951865
185.6933,3.951814
185.6870,3.965592
185.4840,3.969868
185.4797,3.978905
185.2772,3.983051
185.2729,3.991821
185.0459,3.995842
184.8463,3.995801
184.8420,4.004319
184.4441,4.004240
184.4215,4.047204
184.1966,4.050746
184.1780,4.082962
183.9783,4.086229
183.9617,4.112922
183.7625,4.115971
183.7482,4.137675
183.5246,4.140915
183.5126,4.158313
183.3141,4.161407
183.2959,4.186256
183.0979,4.189157
183.0837,4.207565
182.8619,4.210016
182.8497,4.225198
182.6529,4.227554
182.6266,4.258477
182.4300,4.260936
182.4159,4.276589
182.1958,4.278681
182.1856,4.289622
181.9902,4.291654
181.9562,4.326334
181.7612,4.328202
181.7210,4.365832
181.5266,4.367538
181.5028,4.388317
181.2846,4.390140
181.2568,4.413192
181.0634,4.414722
181.0196,4.448655
180.8267,4.450065
180.8088,4.463198
180.5925,4.464561
180.5825,4.471723
180.3905,4.473061
180.3727,4.485527
180.1812,4.486822
180.1713,4.493630
179.9565,4.494900
179.9310,4.511881
179.7404,4.513101
179.7265,4.522080
179.5363,4.523271
179.5208,4.533073
179.3073,4.534380
179.2977,4.540342
179.1082,4.541628
179.1026,4.545070
178.9135,4.546343
178.8941,4.558007
178.7057,4.559104
178.6980,4.563644
178.4865,4.564862
178.4789,4.569343
178.2913,4.570412
178.2855,4.573768
178.0984,4.574825
178.0926,4.578148
177.8825,4.579325
177.8807,4.580380
177.6944,4.581422
177.6923,4.582603
177.5083,4.582593
177.5064,4.583640
177.2998,4.583628
177.1147,4.584662
176.9319,4.584651
176.7475,4.585683
176.3610,4.585661
176.3590,4.586830
176.1758,4.587857
176.1740,4.588891
175.9685,4.590040
175.9667,4.591070
175.7843,4.592086
175.7787,4.595279
175.5966,4.596413
175.5948,4.597427
175.3926,4.597416
175.3908,4.598428
175.2132,4.597406
175.0417,4.593196
175.0361,4.596381
174.8463,4.589976
174.8427,4.592032
174.6737,4.586733
174.6701,4.588805
174.5031,4.582418
174.4978,4.585553
174.3331,4.577928
174.3276,4.581226
174.1429,4.572451
174.1356,4.576855
173.9699,4.570154
173.9681,4.571232
173.7990,4.566759
173.7952,4.569063
173.4287,4.564556
173.2553,4.563314
173.2534,4.564545
173.0620,4.561105
173.0585,4.563302
172.8911,4.558747
172.8894,4.559853
172.7223,4.555261
172.7168,4.558736
172.5356,4.549489
172.5284,4.554131
172.3783,4.538740
172.3640,4.548203
172.2141,4.532597
172.2068,4.537567
172.0572,4.521567
172.0430,4.531408
171.8758,4.512564
171.8650,4.520194
171.7124,4.506193
171.7053,4.511318
171.5459,4.502257
171.5422,4.504929
171.3546,4.500979
171.3529,4.502242
171.1854,4.499541
171.0216,4.494261
171.0145,4.499529
170.8545,4.475207
170.8315,4.492960
170.6966,4.465351
170.6860,4.473849
170.5374,4.456669
170.5287,4.463790
170.3555,4.449236
170.3483,4.455250
170.1914,4.444925
170.1880,4.447794
170.0367,4.432686
170.0245,4.443288
169.8768,4.425017
169.8698,4.431188
169.6947,4.418549
169.6894,4.423302
169.5373,4.408868
169.5285,4.417001
169.3852,4.394140
169.3714,4.407285
169.2092,4.382231
169.1989,4.392298
169.0562,4.368060
169.0441,4.380340
168.9000,4.357171
168.8913,4.366322
168.7266,4.342369
168.7146,4.355386
168.5762,4.324918
168.5623,4.340524
168.4226,4.310920
168.4122,4.322998
168.2692,4.296457
168.2588,4.308937
168.0973,4.279126
168.0851,4.294403
167.9410,4.268163
167.9342,4.276992
167.7903,4.249644
167.7766,4.268141
167.6125,4.240209
167.6073,4.247356
167.4538,4.232919
167.4503,4.237874
167.2971,4.223113
167.2920,4.230544
167.1202,4.213077
167.1152,4.220680
166.9641,4.202807
166.9593,4.210282
166.8085,4.191966
166.8034,4.199945
166.6327,4.181174
166.6277,4.189352
166.4791,4.167393
166.4725,4.178498
166.3210,4.161531
166.3194,4.164287
166.1664,4.149949
166.1613,4.158731
165.9919,4.138047
165.8363,4.128803
165.8331,4.134723
165.6844,4.112836
165.6778,4.125407
165.5126,4.096658
165.5060,4.109699
165.3612,4.079441
165.3547,4.093000
165.2068,4.068845
165.2018,4.079408
165.0328,4.057980
165.0294,4.065371
164.8790,4.046840
164.8756,4.054422
164.7254,4.035407
164.7205,4.046804
164.5506,4.027911
164.5491,4.031654
164.3961,4.019809
164.3928,4.027873
164.2417,4.012040
164.2401,4.015923
164.0894,3.999640
164.0862,4.007592
163.9161,3.990982
163.9146,3.995057
163.7644,3.977956
163.7595,3.990941
163.6113,3.968856
163.6096,3.973675
163.4405,3.955689
163.4374,3.964479
163.2880,3.946105
163.2865,3.950620
163.1359,3.936304
163.1326,3.946059
162.9645,3.926865
162.9629,3.931584
162.8114,3.921446
162.8096,3.926818
162.6599,3.911681
162.6584,3.916567
162.4897,3.901056
162.4882,3.906062
162.1869,3.884925
162.1852,3.890765
162.0366,3.874293
162.0351,3.879615
161.8662,3.868165
161.8644,3.874233
161.7165,3.857109
161.7134,3.868111
161.5640,3.857053
161.3960,3.844984
161.3945,3.850676
161.2489,3.826642
161.2457,3.839159
161.1004,3.814461
161.0989,3.820564
160.9334,3.801129
160.9302,3.814392
160.7839,3.794680
160.7824,3.801066
160.6364,3.780725
160.6349,3.787317
160.4891,3.766307
160.4859,3.780659
160.3217,3.759307
160.3202,3.766229
160.1734,3.752201
160.0253,3.744977
160.0238,3.752130
159.8573,3.744895
159.3990,3.712858
159.3973,3.721508
159.1045,3.704864
159.1030,3.712703
158.9416,3.687628
158.9385,3.704775
158.7958,3.679235
158.6502,3.670676
158.6488,3.679151
158.3404,3.660753
158.3387,3.670494
158.1957,3.651819
158.1942,3.660666
158.0498,3.651729
157.8874,3.642593
157.7421,3.642502
157.5984,3.633180
157.4356,3.633075
157.2927,3.622351
156.3955,3.621753
156.3939,3.632398
156.1089,3.632211
156.1075,3.641462
155.9477,3.641359
155.6615,3.659119
155.5026,3.659021
155.5010,3.668799
154.9211,3.668445
154.9197,3.676963
154.6401,3.676794
154.4847,3.668176
153.7742,3.667734
153.6207,3.657832
151.6508,3.647620
151.6495,3.656552
151.5181,3.638408
151.5167,3.647529
151.3855,3.628996
151.2352,3.628890
151.1034,3.618062
150.6895,3.607983
150.6882,3.617760
150.2765,3.607674
150.1462,3.597564
149.9998,3.585902
149.9983,3.597450
149.8699,3.575266
149.7390,3.575159
149.6095,3.564253
149.3340,3.551535
149.3325,3.564021
149.2039,3.551422
149.0592,3.539881
148.9310,3.528040
148.9297,3.539765
148.8031,3.514336
148.2733,3.501372
146.8137,3.487046
146.8125,3.499916
146.5626,3.486785
146.4230,3.473363
146.1746,3.457647
146.1732,3.473093
146.0357,3.443278
145.5253,3.427968
143.1262,3.407711
143.1248,3.425002
143.0067,3.407554
142.8887,3.391416
141.4147,3.389376
141.2993,3.372534
141.1684,3.372342
140.8059,3.371810
140.8047,3.388516
140.4585,3.388024
140.3279,3.403951
140.2131,3.403793
140.0972,3.421086
139.8555,3.403298
139.8542,3.420762
139.7415,3.403140
139.6145,3.386812
139.5009,3.386648
139.3863,3.402644
139.2588,3.402466
139.1445,3.419810
138.6800,3.419181
138.5667,3.434042
138.2175,3.433581
138.0911,3.447948
137.6336,3.447358
137.5219,3.463029
137.2877,3.462736
137.1767,3.476201
137.0670,3.476067
136.9427,3.489115
136.4928,3.488578
136.4917,3.501403
136.2746,3.501150
136.2734,3.515147
136.1516,3.515009
136.1505,3.527087
136.0413,3.538723
135.9334,3.538607
135.9322,3.551464
135.7034,3.551225
135.5950,3.562239
135.3674,3.562005
135.3663,3.572860
134.9267,3.572417
134.8216,3.561442
134.2670,3.560863
134.2659,3.571746
134.1596,3.583567
134.1586,3.593902
134.0405,3.593788
133.9347,3.603785
133.8301,3.603685
133.7245,3.614679
133.6072,3.614569
133.6041,3.642844
133.5000,3.642753
133.4988,3.652900
133.3949,3.652811
133.1725,3.670108
133.1703,3.687946
133.0669,3.687864
132.8455,3.704834
132.8435,3.720374
132.7394,3.728802
132.7384,3.736224
132.6228,3.736142
132.6208,3.750619
132.1987,3.750325
132.0989,3.735764
132.0979,3.743070
131.9971,3.735691
131.8838,3.728175
131.7846,3.711866
131.7824,3.728100
131.6833,3.711789
131.5717,3.694831
131.5706,3.703844
131.4708,3.694750
131.3710,3.686494
131.2578,3.686401
131.1583,3.677984
131.0580,3.677900
130.9590,3.668240
130.7467,3.668057
130.5329,3.685802
130.4336,3.685720
130.4326,3.693909
130.3334,3.693828
130.3323,3.702861
130.2208,3.702772
130.2189,3.718385
130.1189,3.726851
129.6156,3.717915
129.6145,3.726466
129.5064,3.710082
129.5054,3.717829
129.4095,3.702116
129.3130,3.692985
129.3119,3.702036
128.4046,3.692222
128.2014,3.683825
128.0099,3.683659
127.9033,3.675177
127.8080,3.675092
127.7138,3.665369
127.6068,3.665271
127.5128,3.656430
127.0284,3.655976
126.9235,3.646930
126.8295,3.646840
126.7357,3.646750
126.6294,3.655600
126.3377,3.655323
126.2437,3.664013
125.1032,3.662936
124.9995,3.672532
124.9084,3.672447
124.6227,3.688911
124.5321,3.688829
124.4294,3.697876
124.3391,3.697795
124.3382,3.705762
124.2480,3.705683
124.1459,3.713420
123.9662,3.713265
123.9652,3.721907
123.7750,3.721745
123.6847,3.729214
123.5955,3.729139
123.5946,3.736555
123.4944,3.736473
123.4935,3.743766
123.4046,3.743694
123.4036,3.751756
123.3148,3.751685
123.2142,3.758651
123.1256,3.758581
123.0364,3.765447
122.9371,3.765369
122.9361,3.773043
122.7582,3.786228
122.6703,3.786162
122.6693,3.793480
122.4830,3.793343
122.3946,3.799684
122.2964,3.799612
122.1202,3.812798
122.1193,3.818924
121.9347,3.818795
121.9338,3.824837
121.7497,3.824710
121.6624,3.830612
121.5761,3.830553
121.5751,3.837165
121.4890,3.837107
121.3913,3.842837
121.3053,3.842779
121.3045,3.848500
121.1223,3.848379
121.0358,3.854671
120.7692,3.854496
120.6833,3.860010
120.3337,3.859781
120.2396,3.854146
119.8088,3.853858
119.7138,3.859373
##END=
