##TITLE=8-hydroxy-7-mrthylbenzo[g]pteridine-2,4(1H,3H)-dione
##JCAMP-DX=4.24
##DATA TYPE=UV/VIS SPECTRUM
##ORIGIN=INSTITUTE OF ENERGY PROBLEMS OF CHEMICAL PHYSICS, RAS
##OWNER=INEP CP RAS, NIST OSRD
Collection (C) 2007 copyright by the U.S. Secretary of Commerce
on behalf of the United States of America. All rights reserved.
##CAS REGISTRY NO=37163-34-1
##MOLFORM=C11H8N4O3
##MP=not melt below 330
##SOURCE REFERENCE=RAS UV No. 23341
##$NIST SQUIB=1975GLE/BER1140
##$NIST SOURCE=TYUGLMTE
##SPECTROMETER/DATA SYSTEM=Hitachi EPS-3T
##XUNITS=Wavelength (nm)
##YUNITS=Logarithm epsilon
##XFACTOR=1.0
##YFACTOR=1.0
##FIRSTX=245.133
##LASTX=434.299
##FIRSTY=4.375
##MAXX=434.299
##MINX=245.133
##MAXY=4.388
##MINY=2.587
##NPOINTS=101
##$REF AUTHOR=Glebova, G.D.; Berezovskii, B.M.
##$REF JOURNAL=Zhur. Obshchei Khim.
##$REF VOLUME=45
##$REF PAGE=1140
##$REF DATE=1975
##XYPOINTS=(XY..XY)
245.133,4.375
247.133,4.378
249.133,4.383
251.133,4.387
253.133,4.388
255.133,4.386
257.133,4.377
259.133,4.362
261.133,4.338
263.133,4.305
265.133,4.261
267.133,4.206
269.133,4.140
271.133,4.060
273.133,3.968
274.235,3.913
275.720,3.846
277.126,3.778
279.126,3.704
281.126,3.629
283.126,3.555
285.126,3.481
287.126,3.407
289.126,3.332
291.126,3.258
293.126,3.184
295.126,3.109
297.398,3.028
299.398,2.950
301.398,2.863
303.398,2.783
305.398,2.721
307.398,2.683
309.398,2.675
311.398,2.695
313.398,2.742
315.398,2.807
317.295,2.876
319.295,2.950
321.295,3.028
323.295,3.098
325.295,3.162
327.295,3.221
329.295,3.276
331.295,3.329
333.295,3.379
335.295,3.427
337.295,3.474
339.295,3.521
341.295,3.566
343.295,3.610
345.295,3.654
347.295,3.697
349.295,3.740
351.295,3.781
353.295,3.822
355.295,3.861
357.295,3.899
359.295,3.936
361.295,3.972
363.295,4.006
365.295,4.038
367.295,4.068
369.295,4.097
371.295,4.123
373.295,4.147
375.295,4.169
377.295,4.188
379.295,4.205
381.295,4.217
383.295,4.226
385.295,4.230
387.295,4.228
389.295,4.220
391.295,4.204
393.295,4.179
395.295,4.142
397.295,4.093
399.295,4.027
401.295,3.943
402.070,3.915
404.070,3.840
406.070,3.766
408.070,3.691
410.070,3.617
412.070,3.543
414.070,3.468
416.070,3.394
418.070,3.319
420.070,3.245
422.070,3.171
424.070,3.096
426.070,3.022
427.299,2.967
428.299,2.920
429.299,2.869
430.299,2.815
431.299,2.759
432.299,2.701
433.299,2.643
434.299,2.587
##END=
