##TITLE=Phenol, 4-fluoro-
##JCAMP-DX=4.24
##DATA TYPE=UV/VIS SPECTRUM
##ORIGIN=INSTITUTE OF ENERGY PROBLEMS OF CHEMICAL PHYSICS, RAS
##OWNER=INEP CP RAS, NIST OSRD
Collection (C) 2007 copyright by the U.S. Secretary of Commerce
on behalf of the United States of America. All rights reserved.
##CAS REGISTRY NO=371-41-5
##MOLFORM=C6H5FO
##MP=48
##BP=185.5
##SOURCE REFERENCE=RAS UV No. 5905
##$NIST SQUIB=1959FOR1977-1985
##$NIST SOURCE=TSGMTE
##SPECTROMETER/DATA SYSTEM=Unicam SP 500 or Beckman DU
##XUNITS=Wavelength (nm)
##YUNITS=Logarithm epsilon
##XFACTOR=1.000000
##YFACTOR=1.000000
##FIRSTX=200.3113
##LASTX=290.0597
##FIRSTY=3.13069
##MAXX=290.06
##MINX=200.311
##MAXY=3.62722
##MINY=1.93224
##NPOINTS=596
##$REF AUTHOR=Forbes, W.F.
##$REF TITLE=Light absorption studies. Part XVI. The ultraviolet absorption spectra of fluorobenzenes
##$REF JOURNAL=Can. J. Chem.
##$REF VOLUME=37
##$REF PAGE=1977-1985
##$REF DATE=1959
##XYPOINTS=(XY..XY)
200.3113,3.130685
200.3220,3.132023
200.3351,3.133431
200.3528,3.134980
200.5291,3.152383
200.5529,3.153644
200.5814,3.154902
200.6121,3.156157
200.8715,3.180217
200.9264,3.184650
200.9860,3.189102
201.0478,3.193637
201.2553,3.211092
201.2972,3.215222
201.3414,3.219373
201.3902,3.223604
201.6496,3.238882
201.6496,3.240184
201.6496,3.241539
201.6496,3.243004
202.3343,3.291476
202.3654,3.295197
202.3965,3.298987
202.4276,3.302793
202.7285,3.316429
202.7700,3.320309
202.8115,3.324155
202.8530,3.327967
203.3717,3.360064
203.4266,3.363243
203.4862,3.366485
203.5481,3.369746
203.8074,3.382205
203.8074,3.383189
203.8074,3.384254
203.8074,3.385357
204.1083,3.402562
204.1190,3.403803
204.1321,3.405041
204.1498,3.406275
204.4091,3.419282
204.4614,3.422523
204.5159,3.425777
204.5751,3.429081
204.8345,3.439968
204.8656,3.442615
204.8967,3.445318
204.9278,3.448039
205.1768,3.455962
205.1768,3.456792
205.1768,3.457691
205.1768,3.458623
205.8304,3.488036
205.8719,3.489788
205.9134,3.491565
205.9549,3.493399
206.1313,3.500543
206.1835,3.503232
206.2381,3.505936
206.2973,3.508685
206.4736,3.514487
206.4974,3.516308
206.5259,3.518181
206.5566,3.520077
206.8160,3.527864
206.8471,3.530027
206.8782,3.532238
206.9093,3.534467
207.1687,3.542002
207.1687,3.542684
207.1687,3.543422
207.1687,3.544186
207.4177,3.552563
207.4488,3.554320
207.4799,3.556069
207.5111,3.557811
207.6770,3.565444
207.7320,3.566942
207.7916,3.568489
207.8534,3.570057
208.1128,3.577004
208.1366,3.578581
208.1650,3.580205
208.1958,3.581849
208.4551,3.588611
208.5101,3.590228
208.5696,3.591839
208.6315,3.593444
208.7975,3.598109
208.8524,3.599950
208.9120,3.601833
208.9738,3.603732
209.1917,3.609725
209.2570,3.611078
209.3270,3.612475
209.3992,3.613892
209.8349,3.620177
209.8414,3.621455
209.8872,3.622371
210.0113,3.623713
210.4781,3.626797
210.5746,3.626907
210.6756,3.627040
210.7790,3.627220
211.3911,3.626373
211.5052,3.625449
211.6193,3.624570
211.7334,3.623713
212.2521,3.618345
212.2829,3.617155
212.3113,3.615961
212.3351,3.614765
212.5945,3.609284
212.6537,3.607408
212.7082,3.605549
212.7605,3.603732
212.9368,3.599127
212.9987,3.597207
213.0583,3.595304
213.1132,3.593444
213.2792,3.588611
213.3280,3.587457
213.3722,3.586326
213.4141,3.585243
213.7149,3.577954
213.7457,3.575938
213.7741,3.573939
213.7979,3.571984
213.9743,3.567027
214.0050,3.564960
214.0334,3.562910
214.0573,3.560905
214.3166,3.554695
214.3474,3.552568
214.3758,3.550458
214.3996,3.548395
214.6590,3.540971
214.7005,3.538640
214.7420,3.536298
214.7835,3.533942
215.0013,3.524525
215.0501,3.522509
215.0943,3.520483
215.1362,3.518448
215.4371,3.508685
215.4678,3.507152
215.4962,3.505614
215.5201,3.504071
215.7794,3.494550
215.8413,3.492144
215.9008,3.489788
215.9558,3.487452
216.2151,3.477556
216.2566,3.475309
216.2981,3.473050
216.3396,3.470780
216.6405,3.457216
216.6712,3.455851
216.6997,3.454552
216.7235,3.453284
216.9828,3.442729
217.0140,3.440945
217.0451,3.439153
217.0762,3.437354
217.3356,3.426232
217.3356,3.427121
217.3356,3.428084
217.3356,3.429081
217.6779,3.409258
217.7087,3.407206
217.7371,3.405224
217.7609,3.403272
218.9643,3.324367
218.9643,3.326073
218.9643,3.327818
218.9643,3.329650
219.6594,3.279856
219.6594,3.281101
219.6594,3.282448
219.6594,3.283842
220.2611,3.225743
220.2611,3.227154
220.2611,3.228678
220.2611,3.230255
220.4375,3.212194
220.4682,3.209443
220.4967,3.206737
220.5205,3.204138
220.6035,3.193637
220.6035,3.195082
220.6035,3.196585
220.6035,3.198209
220.8628,3.176647
220.8936,3.171550
220.9220,3.166461
220.9458,3.161448
221.4645,3.112372
221.5264,3.105493
221.5860,3.098662
221.6409,3.091802
221.9003,3.067146
221.9310,3.063299
221.9594,3.059505
221.9833,3.055853
222.8443,2.954562
222.8443,2.957193
222.8443,2.960026
222.8443,2.962949
223.1037,2.928912
223.1344,2.926793
223.1629,2.924664
223.1867,2.922524
223.5394,2.877945
223.5702,2.875562
223.5986,2.873165
223.6224,2.870755
226.2056,2.577399
226.2233,2.571778
226.2364,2.566626
226.2471,2.561684
227.2431,2.464101
227.3334,2.455221
227.4190,2.446869
227.5024,2.438716
230.6043,2.137382
230.6766,2.131774
230.7465,2.127584
230.8118,2.124101
231.3720,2.077900
231.4447,2.071462
231.5173,2.066644
231.5899,2.062635
233.7893,1.972291
233.9345,1.972291
234.0797,1.972291
234.2250,1.972291
234.9097,1.932242
235.0238,1.932242
235.1379,1.932242
235.2520,1.932242
236.2065,1.972291
236.2587,1.972291
236.3133,1.972291
236.3725,1.972291
237.1505,1.932242
237.2958,1.932242
237.4410,1.932242
237.5863,1.932242
243.0950,2.077900
243.1500,2.077900
243.2095,2.077900
243.2714,2.077900
243.9561,2.137382
244.0395,2.137382
244.1252,2.137382
244.2155,2.137382
246.1970,2.212284
246.3422,2.218557
246.4875,2.225929
246.6327,2.233760
247.4004,2.276148
247.5456,2.276148
247.6909,2.276148
247.8361,2.276148
248.8736,2.348218
248.9569,2.348218
249.0426,2.348218
249.1329,2.348218
249.8176,2.395820
249.8726,2.395820
249.9321,2.395820
249.9940,2.395820
251.0210,2.438716
251.0760,2.438716
251.1355,2.438716
251.1974,2.438716
254.2163,2.595990
254.3305,2.598594
254.4446,2.601682
254.5587,2.604996
258.3868,2.817469
258.4003,2.820192
258.4183,2.822899
258.4387,2.825589
259.9845,2.892554
260.0187,2.899541
260.0644,2.903191
260.1608,2.906686
260.7625,2.933642
260.7625,2.936267
260.7625,2.938991
260.7625,2.941927
261.4888,2.976893
261.5306,2.980193
261.5748,2.983468
261.6236,2.986718
262.2253,3.014492
262.3087,3.018507
262.3944,3.022675
262.4847,3.026897
262.8270,3.047488
262.9404,3.055224
263.0284,3.060662
263.0864,3.067146
263.6881,3.090347
263.7192,3.092890
263.7504,3.095419
263.7815,3.097933
264.8085,3.143124
264.9326,3.146943
264.9784,3.149671
264.9849,3.153644
265.5866,3.175451
265.6104,3.176647
265.6389,3.177841
265.6696,3.179031
266.2298,3.194785
266.2406,3.196785
266.2536,3.198777
266.2713,3.200760
266.5722,3.211092
266.5856,3.212205
266.6037,3.213375
266.6241,3.214665
268.6055,3.259852
268.6578,3.263119
268.7124,3.266470
268.7715,3.269849
268.9479,3.279856
268.9717,3.282439
269.0002,3.285007
269.0309,3.287560
269.2903,3.302793
269.3141,3.305754
269.3425,3.308792
269.3733,3.311858
269.7260,3.323516
269.7498,3.325005
269.7782,3.326488
269.8090,3.327967
271.2718,3.320953
271.4608,3.321080
271.5738,3.321967
271.7075,3.324367
271.8735,3.340026
271.9046,3.343355
271.9357,3.346749
271.9668,3.350161
272.0498,3.358298
272.0736,3.362075
272.1021,3.365906
272.1328,3.369746
272.3092,3.380714
272.3092,3.382763
272.3092,3.384802
272.3092,3.386832
272.6100,3.398100
272.7065,3.399765
272.8075,3.401502
272.9109,3.403272
273.4296,3.401851
273.4711,3.400076
273.5126,3.398333
273.5541,3.396662
273.8550,3.386832
273.8876,3.383499
273.9226,3.381715
273.9898,3.379966
274.5915,3.379030
274.6330,3.380021
274.6745,3.381094
274.7160,3.382205
274.9754,3.391411
274.9754,3.392328
274.9754,3.393283
274.9754,3.394316
275.0688,3.397382
275.0688,3.398333
275.0688,3.399361
275.0688,3.400426
275.2348,3.409957
275.2586,3.412053
275.2870,3.414177
275.3177,3.416368
275.4941,3.423533
275.4941,3.425390
275.4941,3.427239
275.4941,3.429081
275.7535,3.437354
275.7773,3.438669
275.8057,3.440017
275.8365,3.441432
276.2307,3.450113
276.2960,3.450278
276.3659,3.450478
276.4382,3.450749
276.7909,3.441432
276.8086,3.440668
276.8216,3.439975
276.8324,3.439316
277.0503,3.429081
277.0825,3.426107
277.1148,3.424841
277.1748,3.424209
277.8180,3.431745
277.8491,3.433574
277.8802,3.435432
277.9113,3.437354
278.0773,3.448039
278.0773,3.448885
278.0773,3.449800
278.0773,3.450749
278.3367,3.463743
278.3367,3.464980
278.3367,3.466249
278.3367,3.467581
278.5130,3.478153
278.5653,3.480830
278.6199,3.483491
278.6790,3.486136
278.9384,3.493399
279.1013,3.492972
279.2596,3.492577
279.4156,3.492245
279.4156,3.492245
279.4333,3.490653
279.4464,3.489056
279.4571,3.487452
279.5401,3.481275
279.5712,3.479202
279.6023,3.477152
279.6335,3.475159
279.7165,3.466203
279.7472,3.463634
279.7756,3.461118
279.7995,3.458623
279.8928,3.444022
279.8928,3.447084
279.8928,3.450160
279.8928,3.453284
279.9758,3.433237
279.9758,3.434565
279.9758,3.435925
279.9758,3.437354
280.1522,3.414990
280.1522,3.417278
280.1522,3.419630
280.1522,3.422008
280.2352,3.406275
280.2659,3.404334
280.2944,3.402384
280.3182,3.400426
280.4115,3.382205
280.4115,3.385733
280.4115,3.389273
280.4115,3.392866
280.4945,3.372799
280.5122,3.370377
280.5253,3.368026
280.5360,3.365706
280.6605,3.355140
280.6917,3.351220
280.7228,3.347354
280.7539,3.343499
280.8369,3.334869
280.8784,3.332225
280.9199,3.329658
280.9614,3.327122
281.3556,3.311858
281.3913,3.309942
281.4478,3.308801
281.5735,3.307460
282.2167,3.304577
282.2716,3.304577
282.3312,3.304577
282.3930,3.304577
282.7354,3.295130
282.7661,3.291314
282.7946,3.287568
282.8184,3.283842
283.3786,3.277967
283.4750,3.281101
283.5761,3.284317
283.6795,3.287560
284.0633,3.301899
284.0768,3.303975
284.0948,3.306140
284.1152,3.308343
284.2812,3.319020
284.3123,3.323153
284.3434,3.327341
284.3745,3.331536
284.4575,3.341664
284.4814,3.346143
284.5098,3.350620
284.5405,3.355140
284.7169,3.364932
284.7407,3.368076
284.7692,3.371282
284.7999,3.374507
284.9244,3.386095
284.9378,3.387384
284.9559,3.388670
284.9763,3.389951
285.2356,3.403272
285.3282,3.407024
285.3955,3.408571
285.4950,3.409258
286.0033,3.407681
286.0344,3.404210
286.0656,3.400789
286.0967,3.397382
286.2627,3.386832
286.2938,3.384247
286.3249,3.381646
286.3560,3.379030
286.4390,3.369746
286.4698,3.365906
286.4982,3.362075
286.5220,3.346741
286.5220,3.358298
286.5532,3.343913
286.5843,3.341111
286.6154,3.338383
286.6984,3.315562
286.6984,3.319673
286.6984,3.323792
286.6984,3.327967
286.7814,3.291476
286.7814,3.295820
286.7814,3.300170
286.7814,3.304577
286.8644,3.277967
286.8955,3.273936
286.9266,3.269920
286.9578,3.265975
287.0408,3.251636
287.0584,3.247670
287.0715,3.243782
287.0822,3.239917
287.1237,3.223604
287.1549,3.219032
287.1860,3.214472
287.2171,3.200760
287.2171,3.209987
287.2479,3.195156
287.2763,3.189607
287.3001,3.161448
287.3001,3.163004
287.3001,3.164622
287.3001,3.166370
287.3001,3.184052
287.4765,3.132011
287.4765,3.135650
287.4765,3.139330
287.4765,3.143124
287.5595,3.115478
287.5902,3.108558
287.6186,3.101604
287.6425,3.067146
287.6425,3.071353
287.6425,3.075521
287.6425,3.079649
287.6425,3.094698
287.8188,3.037315
287.8365,3.033193
287.8496,3.029125
287.8603,3.025207
287.9848,2.994057
288.0159,2.986272
288.0471,2.978450
288.0782,2.970698
288.1612,2.941927
288.1919,2.934706
288.2204,2.927481
288.2442,2.920373
288.3375,2.892554
288.3790,2.885192
288.4205,2.877967
288.4620,2.870755
288.6799,2.830919
288.7106,2.821573
288.7391,2.812174
288.7629,2.802882
288.9393,2.759849
288.9984,2.748790
289.0530,2.737442
289.1052,2.725789
289.3646,2.673878
289.4265,2.661629
289.4860,2.649473
289.5410,2.637196
289.8003,2.566580
289.8906,2.549244
289.9763,2.531480
290.0597,2.513570
##END=
