##TITLE=3-Fluoropyridine
##JCAMP-DX=4.24
##DATA TYPE=UV/VIS SPECTRUM
##ORIGIN=INSTITUTE OF ENERGY PROBLEMS OF CHEMICAL PHYSICS, RAS
##OWNER=INEP CP RAS, NIST OSRD
Collection (C) 2007 copyright by the U.S. Secretary of Commerce
on behalf of the United States of America. All rights reserved.
##CAS REGISTRY NO=372-47-4
##MOLFORM=C5H4FN
##SOURCE REFERENCE=RAS UV No. 2499
##$NIST SQUIB=1954STE1077-1082
##$NIST SOURCE=TSGMTE
##SPECTROMETER/DATA SYSTEM=Beckman spectrophotometer
##XUNITS=Wavelength (nm)
##YUNITS=Logarithm epsilon
##XFACTOR=1.000000
##YFACTOR=1.000000
##FIRSTX=280.4440
##LASTX=210.5437
##FIRSTY=1.85391
##MAXX=280.444
##MINX=210.544
##MAXY=3.40879
##MINY=1.85391
##NPOINTS=203
##$REF AUTHOR=Stephenson, H.P.
##$REF TITLE=Solution spectra and oscillator strengths of electronic transitions of pyridine and some monosubstituted derivatives
##$REF JOURNAL=J. Chem. Phys.
##$REF VOLUME=22
##$REF NUMBER=6
##$REF PAGE=1077-1082
##$REF DATE=1954
##XYPOINTS=(XY..XY)
280.4440,1.853906
279.7029,1.946226
278.9869,2.035838
278.2946,2.122154
277.6252,2.204916
276.9775,2.284073
276.9775,2.284073
276.3453,2.393940
275.9160,2.456864
275.5825,2.502836
275.2391,2.548656
274.7812,2.604958
274.7812,2.604958
274.5843,2.645770
274.3946,2.683046
274.2117,2.717353
274.0355,2.749133
273.8656,2.778736
273.7018,2.806446
273.5438,2.832494
273.3915,2.857072
273.2444,2.880342
273.1025,2.902440
272.9655,2.923481
272.8330,2.943567
272.7049,2.962785
272.5809,2.981209
272.4608,2.998907
272.3443,3.015937
272.2313,3.032351
272.1213,3.048196
272.0143,3.063514
271.9100,3.078341
271.9100,3.078341
271.7670,3.087282
271.6653,3.095176
271.5570,3.099929
271.5570,3.099929
271.4867,3.114325
271.4009,3.128044
271.3000,3.141173
271.1847,3.153787
271.0554,3.165958
270.9126,3.177746
270.7569,3.189208
270.5888,3.200395
270.4088,3.211353
270.2174,3.222123
270.2174,3.222123
269.6943,3.234093
269.2435,3.244444
268.5711,3.257010
268.5711,3.257010
268.0127,3.263173
267.6644,3.267775
267.2268,3.274743
267.2268,3.274743
266.8779,3.286402
266.5787,3.296203
266.3198,3.304565
266.0921,3.311865
265.8866,3.318446
265.6942,3.324629
265.5060,3.330715
265.3131,3.336988
265.1067,3.343716
264.8780,3.351150
264.6183,3.359518
264.3189,3.369028
263.9714,3.379858
263.9714,3.379858
263.4624,3.386324
263.0574,3.389975
262.7149,3.391465
262.3942,3.391403
262.0547,3.390376
261.6565,3.388966
261.1602,3.387759
260.5270,3.387349
260.5270,3.387349
259.8013,3.392823
259.1733,3.397559
258.6291,3.401520
258.1550,3.404667
257.7379,3.406958
257.3646,3.408348
257.0225,3.408786
256.6989,3.408217
256.3812,3.406576
256.0572,3.403794
255.7144,3.399787
255.3409,3.394460
254.9247,3.387703
254.4540,3.379386
254.4540,3.379386
253.8019,3.370069
253.2706,3.362266
252.8335,3.355657
252.4643,3.349887
252.1372,3.344573
251.8269,3.339312
251.5081,3.333678
251.1560,3.327222
250.7461,3.319468
250.2539,3.309893
250.2539,3.309893
249.9383,3.299931
249.4436,3.287817
248.9496,3.277199
248.9496,3.277199
248.6934,3.268885
248.4261,3.260478
248.1496,3.251961
247.8657,3.243317
247.5761,3.234528
247.2828,3.225572
246.9876,3.216427
246.6921,3.207071
246.3981,3.197477
246.1075,3.187617
245.8219,3.177462
245.5430,3.166979
245.2725,3.156131
245.0121,3.144880
244.7635,3.133182
244.7635,3.133182
243.8607,3.102926
243.3991,3.086041
243.2282,3.078396
243.2012,3.074651
242.7960,3.060051
242.3999,3.046524
242.0051,3.032544
241.6114,3.018085
241.2187,3.003113
240.8270,2.987596
240.4361,2.971494
240.0461,2.954764
239.6567,2.937360
239.2681,2.919226
239.2681,2.919226
238.8482,2.902670
238.4310,2.886206
238.0152,2.869838
237.5997,2.853571
237.1834,2.837406
236.7652,2.821344
236.3440,2.805384
235.9187,2.789522
235.4882,2.773755
235.0516,2.758073
234.6077,2.742465
234.1556,2.726919
233.6943,2.711416
233.2228,2.695936
232.7401,2.680454
232.2454,2.664939
231.7377,2.649356
231.2161,2.633666
230.6798,2.617821
230.1279,2.601768
230.1279,2.601768
229.5985,2.583580
228.9451,2.573034
228.2703,2.565034
227.6746,2.553905
227.2564,2.533301
227.2564,2.533301
226.7570,2.526564
226.2591,2.519629
225.7626,2.512506
225.2676,2.505203
224.7741,2.497728
224.2821,2.490091
223.7917,2.482302
223.3028,2.474371
222.8155,2.466311
222.3298,2.458135
221.8457,2.449856
221.3633,2.441489
220.8826,2.433053
220.4036,2.424563
219.9262,2.416040
219.4506,2.407505
218.9768,2.398980
218.5047,2.390488
218.0344,2.382059
217.5658,2.373718
217.0991,2.365495
216.6343,2.357424
216.1713,2.349537
215.7101,2.341871
215.2509,2.334464
214.7935,2.327354
214.3380,2.320582
213.8845,2.314192
213.4329,2.308226
212.9833,2.302727
212.8654,2.296272
212.2819,2.310299
211.7010,2.323517
211.1218,2.336108
210.5437,2.348237
##END=
