##TITLE=2-Fluoropyridine
##JCAMP-DX=4.24
##DATA TYPE=UV/VIS SPECTRUM
##ORIGIN=INSTITUTE OF ENERGY PROBLEMS OF CHEMICAL PHYSICS, RAS
##OWNER=INEP CP RAS, NIST OSRD
Collection (C) 2007 copyright by the U.S. Secretary of Commerce
on behalf of the United States of America. All rights reserved.
##CAS REGISTRY NO=372-48-5
##MOLFORM=C5H4FN
##BP=125
##SOURCE REFERENCE=RAS UV No. 2498
##$NIST SQUIB=1954STE1077-1082
##$NIST SOURCE=TSGMTE
##SPECTROMETER/DATA SYSTEM=Beckman spectrophotometer
##XUNITS=Wavelength (nm)
##YUNITS=Logarithm epsilon
##XFACTOR=1.000000
##YFACTOR=1.000000
##FIRSTX=271.0424
##LASTX=211.2090
##FIRSTY=2.15635
##MAXX=271.042
##MINX=211.209
##MAXY=3.47783
##MINY=2.15635
##NPOINTS=237
##$REF AUTHOR=Stephenson, H.P.
##$REF TITLE=Solution spectra and oscillator strengths of electronic transitions of pyridine and some monosubstituted derivatives
##$REF JOURNAL=J. Chem. Phys.
##$REF VOLUME=22
##$REF NUMBER=6
##$REF PAGE=1077-1082
##$REF DATE=1954
##XYPOINTS=(XY..XY)
271.0424,2.156353
270.4532,2.271617
269.8202,2.384000
269.8202,2.384000
269.5682,2.454316
269.3293,2.514932
269.1030,2.568211
268.8888,2.615748
268.6861,2.658665
268.4946,2.697785
268.3136,2.733730
268.1428,2.766977
267.9815,2.797907
267.8294,2.826821
267.6860,2.853968
267.5507,2.879551
267.4232,2.903743
267.3028,2.926686
267.1893,2.948502
267.0821,2.969299
266.9807,2.989166
266.8848,3.008182
266.7938,3.026418
266.7073,3.043935
266.6248,3.060786
266.5459,3.077020
266.5344,3.078857
266.5338,3.076513
266.5333,3.074105
266.5326,3.071578
266.4702,3.092681
266.3971,3.107806
266.3263,3.122431
266.2574,3.136587
266.1897,3.150303
266.1230,3.163604
266.0932,3.177803
266.0928,3.176634
266.0924,3.175379
266.0920,3.174079
266.0568,3.176515
265.9906,3.189057
265.9868,3.202149
265.9862,3.200385
265.9857,3.198576
265.9850,3.196680
265.9240,3.201250
265.8656,3.214771
265.8652,3.213577
265.8648,3.212380
265.8644,3.211180
265.8565,3.213113
265.7877,3.224661
265.7588,3.235398
265.7579,3.232622
265.7569,3.229792
265.7559,3.226870
265.7173,3.235912
265.6446,3.246878
265.5694,3.257574
265.4911,3.268012
265.4094,3.278204
265.3238,3.288160
265.2338,3.297890
265.1391,3.307403
265.1391,3.307403
265.0828,3.309329
265.0241,3.311246
264.9603,3.313155
264.9603,3.313155
264.8665,3.313160
264.7678,3.313166
264.6666,3.313172
264.6666,3.313172
264.5388,3.304696
264.3486,3.292993
264.1069,3.279594
263.8247,3.266200
263.5129,3.254726
263.1822,3.247274
263.1822,3.247274
262.8895,3.248528
262.7111,3.249805
262.4938,3.252194
262.4938,3.252194
262.3024,3.262796
262.1199,3.273205
261.9459,3.283423
261.7799,3.293453
261.6215,3.303299
261.4703,3.312963
261.3258,3.322449
261.1877,3.331758
261.0554,3.340895
260.9285,3.349860
260.8067,3.358659
260.6895,3.367291
260.5765,3.375762
260.4673,3.384072
260.3614,3.392224
260.2585,3.400221
260.1581,3.408064
260.0599,3.415757
259.9634,3.423300
259.8682,3.430697
259.7739,3.437949
259.6802,3.445058
259.5865,3.452026
259.4926,3.458855
259.3979,3.465546
259.3979,3.465546
259.1357,3.469315
258.8341,3.474451
258.5728,3.477834
258.5728,3.477834
258.2090,3.475053
258.0327,3.473312
257.8920,3.471121
257.8920,3.471121
257.6934,3.462786
257.4725,3.454261
257.2376,3.445484
256.9970,3.436390
256.7587,3.426904
256.7587,3.426904
256.5413,3.422926
256.3195,3.418912
256.0958,3.414860
256.0958,3.414860
255.8212,3.414659
255.5472,3.414458
255.2738,3.414257
255.2738,3.414257
255.2009,3.415410
255.1280,3.416514
255.0552,3.417590
254.6278,3.420908
254.1462,3.427197
253.4708,3.433405
252.6953,3.433535
252.6953,3.433535
252.3858,3.427023
252.1065,3.420264
251.8523,3.413266
251.6180,3.406042
251.3987,3.398601
251.1895,3.390956
250.9853,3.383121
250.7813,3.375109
250.5726,3.366935
250.3545,3.358616
250.1220,3.350170
249.8705,3.341616
249.5952,3.332975
249.2915,3.324271
248.9547,3.315528
248.9547,3.315528
248.4844,3.307200
248.0372,3.298911
247.6111,3.290549
247.2046,3.281988
246.8157,3.273096
246.4427,3.263727
246.0840,3.253725
245.7378,3.242915
245.4026,3.231103
244.9421,3.212889
244.6005,3.202245
244.2528,3.191362
243.8990,3.180236
243.5389,3.168865
243.1726,3.157245
242.7998,3.145372
242.4207,3.133244
242.0351,3.120857
241.6430,3.108210
241.2444,3.095298
240.8391,3.082120
240.4272,3.068674
240.0086,3.054959
239.5832,3.040972
239.1511,3.026714
238.7121,3.012185
238.2663,2.997387
237.8136,2.982319
237.3540,2.966987
236.8875,2.951396
236.4140,2.935549
236.4140,2.935549
235.4154,2.906167
234.5478,2.879955
233.8300,2.857597
233.2808,2.839746
232.9192,2.826970
232.7648,2.819695
232.7648,2.819695
232.3906,2.813253
231.9615,2.803521
231.6756,2.788408
231.3204,2.776522
231.2100,2.775217
231.0023,2.770708
230.6505,2.762089
230.1086,2.748279
229.3323,2.727898
228.2799,2.699063
226.9131,2.659010
226.9131,2.659010
226.2997,2.646635
225.6878,2.633610
225.0755,2.620034
225.0755,2.620034
224.1082,2.609307
223.1905,2.600330
222.3575,2.592917
221.6431,2.586843
221.0808,2.581858
220.7039,2.577684
220.5459,2.574032
220.4675,2.574069
219.0921,2.588530
218.0586,2.599317
217.2993,2.607386
216.7507,2.613569
216.3517,2.618626
216.0431,2.623265
215.7668,2.628165
215.4651,2.633973
215.4651,2.633973
214.8795,2.654761
214.3221,2.675025
213.7863,2.695105
213.2656,2.715284
212.7537,2.735793
212.2443,2.756817
211.7314,2.778499
211.2090,2.800943
##END=
