##TITLE=1,4-naphthalenedisulfonyl dichloride
##JCAMP-DX=4.24
##DATA TYPE=UV/VIS SPECTRUM
##ORIGIN=INSTITUTE OF ENERGY PROBLEMS OF CHEMICAL PHYSICS, RAS
##OWNER=INEP CP RAS, NIST OSRD
Collection (C) 2007 copyright by the U.S. Secretary of Commerce
on behalf of the United States of America. All rights reserved.
##CAS REGISTRY NO=37634-58-5
##MOLFORM=C10H6Cl2O4S2
##MP=161-161.5
##SOURCE REFERENCE=RAS UV No. 23861
##$NIST SQUIB=1974STE1242
##$NIST SOURCE=TYUGLMTE
##SPECTROMETER/DATA SYSTEM=SF-4
##XUNITS=Wavelength (nm)
##YUNITS=Logarithm epsilon
##XFACTOR=1.0
##YFACTOR=1.0
##FIRSTX=220.745
##LASTX=371.711
##FIRSTY=4.185
##MAXX=371.711
##MINX=220.745
##MAXY=4.5
##MINY=2.113
##NPOINTS=153
##$REF AUTHOR=Stepanov et. al., B.I.
##$REF JOURNAL=Zhur. Organ. Khim.
##$REF VOLUME=10
##$REF PAGE=1242
##$REF DATE=1974
##XYPOINTS=(XY..XY)
220.745,4.185
221.745,4.151
222.745,4.118
223.745,4.090
224.745,4.066
225.745,4.049
226.745,4.040
227.745,4.037
228.745,4.040
229.745,4.050
230.745,4.065
231.745,4.084
232.745,4.106
233.745,4.130
234.745,4.156
235.745,4.182
236.745,4.210
237.745,4.238
237.832,4.239
238.832,4.275
239.832,4.314
240.832,4.354
241.832,4.393
242.832,4.427
243.832,4.456
244.832,4.478
245.832,4.493
246.832,4.500
247.832,4.499
248.832,4.489
249.832,4.468
250.832,4.436
251.832,4.390
252.832,4.329
253.732,4.241
254.732,4.132
255.732,3.990
256.732,3.847
257.732,3.707
258.732,3.571
259.732,3.439
260.732,3.316
261.732,3.201
262.732,3.097
263.699,3.017
264.699,2.922
265.699,2.837
266.699,2.764
267.699,2.707
268.699,2.665
269.699,2.640
270.699,2.631
271.699,2.634
272.699,2.650
273.699,2.675
274.699,2.707
275.699,2.742
276.699,2.779
277.699,2.814
278.650,2.841
279.650,2.872
280.650,2.901
281.650,2.929
282.650,2.955
283.650,2.981
284.650,3.007
285.650,3.033
286.650,3.058
287.650,3.084
288.650,3.111
289.650,3.137
290.650,3.165
291.650,3.192
292.650,3.220
293.650,3.248
294.650,3.275
295.650,3.303
296.650,3.331
297.650,3.359
298.650,3.386
299.650,3.412
300.650,3.439
301.650,3.464
302.650,3.489
303.650,3.512
304.650,3.535
305.650,3.557
306.650,3.579
307.650,3.599
308.650,3.618
309.650,3.636
310.650,3.653
311.650,3.670
312.650,3.685
313.650,3.700
314.650,3.713
315.650,3.726
316.650,3.739
317.650,3.750
318.650,3.761
319.650,3.771
320.650,3.780
321.650,3.788
322.650,3.795
323.503,3.801
324.503,3.805
325.503,3.809
326.503,3.811
327.503,3.811
328.503,3.809
329.503,3.806
330.503,3.807
331.572,3.816
332.572,3.821
333.572,3.827
334.572,3.831
335.572,3.831
336.572,3.825
337.572,3.812
338.572,3.793
339.572,3.768
340.711,3.732
341.711,3.698
342.711,3.668
343.711,3.640
344.711,3.612
345.711,3.584
346.711,3.554
347.711,3.523
348.711,3.490
349.711,3.454
350.711,3.417
351.711,3.376
352.711,3.334
353.711,3.290
354.711,3.244
355.711,3.196
356.711,3.148
357.711,3.098
358.711,3.048
359.711,2.996
360.711,2.944
361.711,2.891
362.711,2.837
363.711,2.781
364.711,2.723
365.711,2.660
366.711,2.593
367.711,2.519
368.711,2.437
369.711,2.343
370.711,2.236
371.711,2.113
##END=
