##TITLE=5-(4-nitrophenyl)-1-phenyl-2,4-pentadien-1-one
##JCAMP-DX=4.24
##DATA TYPE=UV/VIS SPECTRUM
##ORIGIN=INSTITUTE OF ENERGY PROBLEMS OF CHEMICAL PHYSICS, RAS
##OWNER=INEP CP RAS, NIST OSRD
Collection (C) 2007 copyright by the U.S. Secretary of Commerce
on behalf of the United States of America. All rights reserved.
##CAS REGISTRY NO=3769-51-5
##MOLFORM=C17H13NO3
##MP=166-167
##SOURCE REFERENCE=RAS UV No. 23311
##$NIST SQUIB=1975LAV/2720
##$NIST SOURCE=TYUGLMTE
##SPECTROMETER/DATA SYSTEM=SF-4A
##XUNITS=Wavelength (nm)
##YUNITS=Logarithm epsilon
##XFACTOR=1.0
##YFACTOR=1.0
##FIRSTX=224.225
##LASTX=400.241
##FIRSTY=4.141
##MAXX=400.241
##MINX=224.225
##MAXY=4.657
##MINY=3.673
##NPOINTS=120
##$REF AUTHOR=Lavrushin, V.F.; et al.
##$REF JOURNAL=Zhur. Obshchei Khim.
##$REF VOLUME=45
##$REF PAGE=2720
##$REF DATE=1975
##XYPOINTS=(XY..XY)
224.225,4.141
225.725,4.139
227.225,4.135
228.725,4.129
230.225,4.121
231.725,4.111
233.225,4.100
234.725,4.086
236.225,4.071
237.725,4.055
239.225,4.037
240.725,4.017
242.225,3.996
243.725,3.973
245.225,3.948
246.725,3.922
248.225,3.894
249.658,3.866
251.158,3.835
252.658,3.813
254.158,3.810
255.658,3.828
257.006,3.850
257.854,3.864
259.071,3.874
260.571,3.886
262.071,3.899
263.571,3.912
265.071,3.924
266.571,3.935
268.071,3.945
269.571,3.954
271.071,3.961
272.571,3.967
274.071,3.971
275.571,3.974
277.107,3.977
278.570,3.977
280.070,3.976
281.570,3.978
283.070,3.981
284.570,3.986
286.070,3.993
287.570,4.000
289.070,4.009
290.570,4.019
292.070,4.030
293.570,4.041
295.070,4.053
296.570,4.065
298.070,4.078
299.570,4.092
301.070,4.106
302.570,4.121
304.070,4.137
305.570,4.154
307.070,4.171
308.570,4.190
310.070,4.210
311.570,4.232
313.070,4.255
313.931,4.274
314.741,4.291
316.241,4.318
317.741,4.344
319.241,4.368
320.741,4.392
322.241,4.415
323.741,4.437
325.241,4.457
326.741,4.477
328.241,4.496
329.741,4.514
331.241,4.531
332.741,4.547
334.241,4.562
335.741,4.576
337.241,4.589
338.741,4.601
340.241,4.612
341.741,4.621
343.241,4.630
344.741,4.637
346.241,4.644
347.741,4.649
349.241,4.653
350.741,4.656
352.241,4.657
353.741,4.657
355.241,4.656
356.741,4.653
358.241,4.649
359.741,4.643
361.241,4.636
362.741,4.627
364.241,4.616
365.741,4.604
367.241,4.590
368.741,4.574
370.241,4.556
371.741,4.536
373.241,4.514
374.741,4.490
376.241,4.464
377.741,4.435
379.241,4.404
380.741,4.371
382.241,4.335
383.741,4.296
385.241,4.255
386.741,4.211
388.241,4.164
389.741,4.114
391.241,4.061
392.741,4.005
394.241,3.946
395.741,3.883
397.241,3.817
398.741,3.747
400.241,3.673
##END=
