##TITLE=m-Dibenzoylbenzene
##JCAMP-DX=4.24
##DATA TYPE=UV/VIS SPECTRUM
##ORIGIN=INSTITUTE OF ENERGY PROBLEMS OF CHEMICAL PHYSICS, RAS
##OWNER=INEP CP RAS, NIST OSRD
Collection (C) 2007 copyright by the U.S. Secretary of Commerce
on behalf of the United States of America. All rights reserved.
##CAS REGISTRY NO=3770-82-9
##MOLFORM=C20H14O2
##MP=100
##SOURCE REFERENCE=RAS UV No. 22904
##$NIST SQUIB=1976AND319
##$NIST SOURCE=TYUGLMTE
##SPECTROMETER/DATA SYSTEM=Unicam SP-800
##XUNITS=Wavelength (nm)
##YUNITS=Logarithm epsilon
##XFACTOR=1.0
##YFACTOR=1.0
##FIRSTX=214.899
##LASTX=383.161
##FIRSTY=4.52
##MAXX=383.161
##MINX=214.899
##MAXY=4.52
##MINY=1.206
##NPOINTS=169
##$REF AUTHOR=Andrews andW. J. Feast, D.J.
##$REF JOURNAL=J. Pol. Sci., Pol. Chem. Ed.
##$REF VOLUME=14
##$REF PAGE=319
##$REF DATE=1976
##XYPOINTS=(XY..XY)
214.899,4.520
215.899,4.455
216.899,4.383
217.899,4.310
218.899,4.242
219.899,4.183
220.899,4.135
221.899,4.100
222.899,4.080
223.899,4.075
224.899,4.083
225.899,4.103
226.899,4.132
227.899,4.166
228.899,4.199
229.924,4.226
230.924,4.250
231.924,4.271
232.924,4.290
233.924,4.307
234.924,4.322
235.924,4.336
236.924,4.349
237.924,4.360
238.924,4.371
239.924,4.382
240.924,4.391
241.924,4.401
242.924,4.409
243.924,4.417
244.924,4.424
245.924,4.431
246.924,4.436
247.924,4.441
248.924,4.444
249.924,4.446
250.924,4.447
251.924,4.446
252.924,4.443
253.924,4.438
254.924,4.432
255.924,4.423
256.924,4.413
257.924,4.400
258.924,4.385
259.924,4.368
260.924,4.349
261.924,4.328
262.924,4.305
263.924,4.280
264.924,4.253
265.924,4.225
266.924,4.195
267.924,4.165
268.924,4.133
269.924,4.101
270.924,4.068
271.924,4.034
272.924,4.001
273.924,3.968
274.924,3.936
275.924,3.904
276.924,3.872
277.924,3.842
278.924,3.812
279.924,3.783
280.924,3.754
281.924,3.726
282.924,3.698
283.924,3.669
284.924,3.638
285.924,3.606
286.924,3.570
287.924,3.529
288.924,3.482
290.018,3.431
291.052,3.378
292.052,3.332
293.052,3.285
294.052,3.237
295.052,3.187
296.052,3.135
297.052,3.083
298.052,3.030
299.052,2.976
300.052,2.924
301.052,2.872
302.052,2.821
303.052,2.771
304.052,2.724
305.052,2.678
306.052,2.635
307.052,2.593
308.052,2.554
309.052,2.517
310.052,2.481
311.052,2.448
312.052,2.418
313.052,2.390
314.052,2.367
315.052,2.348
316.052,2.337
317.052,2.335
318.052,2.345
319.152,2.359
320.253,2.377
321.298,2.388
322.161,2.398
323.161,2.410
324.161,2.419
325.161,2.426
326.161,2.432
327.161,2.436
328.161,2.438
329.161,2.440
330.161,2.440
331.161,2.440
332.161,2.439
333.161,2.437
334.161,2.435
335.161,2.432
336.161,2.429
337.161,2.426
338.161,2.422
339.161,2.418
340.161,2.413
341.161,2.408
342.161,2.402
343.161,2.396
344.161,2.389
345.161,2.382
346.161,2.374
347.161,2.365
348.161,2.355
349.161,2.345
350.161,2.333
351.161,2.321
352.161,2.307
353.161,2.293
354.161,2.277
355.161,2.261
356.161,2.243
357.161,2.224
358.161,2.204
359.161,2.183
360.161,2.160
361.161,2.136
362.161,2.112
363.161,2.085
364.161,2.058
365.161,2.029
366.161,1.999
367.161,1.968
368.161,1.936
369.161,1.902
370.161,1.866
371.161,1.829
372.161,1.791
373.161,1.750
374.161,1.708
375.161,1.664
376.161,1.618
377.161,1.569
378.161,1.517
379.161,1.463
380.161,1.405
381.161,1.343
382.161,1.277
383.161,1.206
##END=
