##TITLE=Thiophene,3,3'-thiobis-
##JCAMP-DX=4.24
##DATA TYPE=UV/VIS SPECTRUM
##ORIGIN=INSTITUTE OF ENERGY PROBLEMS OF CHEMICAL PHYSICS, RAS
##OWNER=INEP CP RAS, NIST OSRD
Collection (C) 2007 copyright by the U.S. Secretary of Commerce
on behalf of the United States of America. All rights reserved.
##CAS REGISTRY NO=3807-38-3
##MOLFORM=C8H6S3
##MP=50
##SOURCE REFERENCE=RAS UV No. 19717
##$NIST SQUIB=1961LAN331
##$NIST SOURCE=TYUGLMTE
##SPECTROMETER/DATA SYSTEM=Beckman Model DU
##XUNITS=Wavelength (nm)
##YUNITS=Logarithm epsilon
##XFACTOR=1.0
##YFACTOR=1.0
##FIRSTX=212.56
##LASTX=320.51
##FIRSTY=3.902
##MAXX=320.51
##MINX=212.56
##MAXY=4.437
##MINY=1.009
##NPOINTS=159
##$REF AUTHOR=Lang (editor), L.
##$REF JOURNAL=Absorption Spectra in the Ultraviolet and Visible Region
##$REF VOLUME=1
##$REF PAGE=331
##$REF DATE=1961
##XYPOINTS=(XY..XY)
212.56,3.902
212.73,3.902
212.90,3.902
213.07,3.902
213.24,3.902
214.60,3.875
215.28,3.864
215.95,3.857
216.63,3.844
217.31,3.837
217.99,3.827
218.67,3.823
219.35,3.820
220.03,3.820
220.71,3.823
221.39,3.827
222.06,3.840
222.74,3.857
223.42,3.878
224.10,3.905
224.78,3.940
225.46,3.974
226.14,4.008
226.82,4.056
227.50,4.091
228.18,4.128
228.85,4.170
229.53,4.204
230.21,4.238
230.89,4.273
231.57,4.293
232.25,4.324
232.93,4.348
233.61,4.372
234.29,4.389
234.96,4.410
235.64,4.424
236.32,4.437
237.00,4.437
237.68,4.427
238.36,4.403
239.04,4.358
239.72,4.293
240.40,4.218
241.07,4.156
241.75,4.077
242.43,4.012
243.11,3.953
243.79,3.892
244.47,3.854
245.15,3.813
245.83,3.792
246.51,3.761
247.18,3.741
247.86,3.717
248.54,3.700
249.22,3.679
249.90,3.662
250.58,3.652
251.26,3.645
251.94,3.655
252.62,3.645
253.30,3.641
253.97,3.655
254.65,3.658
255.33,3.645
256.01,3.641
256.69,3.638
257.37,3.641
258.05,3.645
258.73,3.658
259.41,3.672
260.08,3.676
260.76,3.676
261.44,3.676
262.12,3.662
262.80,3.652
263.48,3.628
264.16,3.610
264.84,3.593
265.52,3.579
266.19,3.569
266.87,3.555
267.55,3.542
268.23,3.525
268.91,3.521
269.59,3.507
270.27,3.490
270.95,3.470
271.63,3.422
272.30,3.374
272.98,3.332
273.66,3.281
274.34,3.226
275.02,3.181
275.70,3.137
276.38,3.109
277.06,3.089
277.74,3.082
278.42,3.072
279.09,3.072
279.77,3.082
280.45,3.085
281.13,3.103
281.81,3.116
282.49,3.133
283.17,3.151
283.85,3.168
284.53,3.185
285.20,3.205
285.88,3.233
286.56,3.253
287.24,3.267
287.92,3.284
288.60,3.298
289.28,3.315
289.96,3.332
290.64,3.350
291.31,3.370
291.99,3.401
292.67,3.439
293.35,3.473
294.03,3.504
294.71,3.521
295.39,3.528
296.07,3.538
296.75,3.538
297.42,3.535
298.10,3.525
298.78,3.511
299.46,3.490
300.14,3.466
300.82,3.432
301.50,3.401
302.18,3.384
302.86,3.380
303.54,3.384
304.21,3.411
304.89,3.559
305.57,3.741
306.25,3.730
306.93,3.628
307.61,3.480
308.29,3.288
308.97,3.103
309.65,2.897
312.36,2.495
313.04,2.324
313.72,2.125
314.40,1.970
315.08,1.843
315.76,1.706
316.43,1.600
317.11,1.483
317.79,1.373
318.47,1.250
319.15,1.164
319.83,1.088
320.51,1.009
##END=
