##TITLE=N-[(5-chloro-2-hydroxyphenyl)phenylmethylene]-L-alanine
##JCAMP-DX=4.24
##DATA TYPE=UV/VIS SPECTRUM
##ORIGIN=INSTITUTE OF ENERGY PROBLEMS OF CHEMICAL PHYSICS, RAS
##OWNER=INEP CP RAS, NIST OSRD
Collection (C) 2007 copyright by the U.S. Secretary of Commerce
on behalf of the United States of America. All rights reserved.
##CAS REGISTRY NO=38075-42-2
##MOLFORM=C16H14ClNO3
##MP=182
##SOURCE REFERENCE=RAS UV No. 23952
##$NIST SQUIB=1975BET/2383
##$NIST SOURCE=TYUGLMTE
##SPECTROMETER/DATA SYSTEM=unknown
##XUNITS=Wavelength (nm)
##YUNITS=Logarithm epsilon
##XFACTOR=1.0
##YFACTOR=1.0
##FIRSTX=313.558
##LASTX=480.927
##FIRSTY=3.178
##MAXX=480.927
##MINX=313.558
##MAXY=3.541
##MINY=2.077
##NPOINTS=171
##$REF AUTHOR=Bettoni, G.; et al.
##$REF JOURNAL=Tetrahedron
##$REF VOLUME=31
##$REF PAGE=2383
##$REF DATE=1975
##XYPOINTS=(XY..XY)
313.558,3.178
313.821,3.180
314.821,3.200
315.821,3.221
316.821,3.241
317.821,3.261
318.821,3.281
319.821,3.299
320.821,3.317
321.821,3.334
322.821,3.350
323.821,3.366
324.821,3.380
325.821,3.394
326.821,3.407
327.821,3.421
328.821,3.434
329.586,3.445
330.586,3.459
331.586,3.472
332.586,3.484
333.586,3.495
334.586,3.505
335.586,3.513
336.586,3.520
337.586,3.527
338.586,3.532
339.586,3.536
340.586,3.539
341.586,3.540
342.586,3.541
343.586,3.541
344.586,3.540
345.586,3.538
346.586,3.535
347.586,3.532
348.586,3.527
349.586,3.522
350.586,3.515
351.586,3.508
352.586,3.500
353.586,3.492
354.586,3.482
355.586,3.472
356.586,3.462
357.586,3.451
358.586,3.439
359.586,3.426
360.586,3.413
361.586,3.399
362.586,3.385
363.586,3.370
364.531,3.360
365.531,3.339
366.531,3.318
367.531,3.297
368.531,3.276
369.531,3.256
370.531,3.237
371.531,3.218
372.531,3.201
373.531,3.186
374.531,3.171
375.531,3.159
376.531,3.148
377.531,3.139
378.531,3.131
379.531,3.125
380.531,3.121
381.531,3.118
382.531,3.117
383.531,3.117
384.531,3.119
385.531,3.122
386.531,3.126
387.531,3.130
388.531,3.136
389.531,3.142
390.531,3.149
391.531,3.157
392.531,3.164
393.531,3.172
394.531,3.180
395.531,3.188
396.531,3.195
397.531,3.203
398.531,3.210
399.531,3.216
400.531,3.223
401.531,3.228
402.531,3.234
403.531,3.239
404.531,3.244
405.531,3.249
406.531,3.253
406.570,3.255
407.570,3.258
408.570,3.261
409.570,3.264
410.570,3.268
411.570,3.271
412.570,3.274
413.570,3.278
414.570,3.281
415.570,3.284
416.570,3.286
417.570,3.289
418.570,3.291
419.570,3.292
420.570,3.293
421.570,3.294
422.570,3.294
423.570,3.293
424.570,3.292
425.570,3.290
426.570,3.288
427.570,3.285
428.570,3.281
429.570,3.276
430.570,3.271
431.570,3.265
432.570,3.259
433.570,3.251
434.570,3.243
435.570,3.234
436.570,3.224
437.570,3.214
438.570,3.203
439.570,3.191
440.570,3.178
441.570,3.165
442.570,3.151
443.570,3.136
444.570,3.121
445.570,3.105
446.570,3.089
447.570,3.072
448.570,3.054
449.570,3.036
450.570,3.018
451.570,2.999
452.570,2.980
453.570,2.960
454.389,2.944
455.389,2.921
456.389,2.896
457.389,2.870
458.389,2.843
459.389,2.814
460.389,2.785
461.389,2.754
462.389,2.723
463.389,2.691
464.389,2.658
465.389,2.624
466.389,2.590
467.389,2.556
468.389,2.521
469.389,2.486
470.389,2.450
471.389,2.414
472.389,2.378
473.389,2.342
474.389,2.306
475.389,2.270
476.389,2.235
477.389,2.199
478.389,2.163
479.389,2.128
480.389,2.093
480.927,2.077
##END=
