##TITLE=Sydnone, diphenyl-
##JCAMP-DX=4.24
##DATA TYPE=UV/VIS SPECTRUM
##ORIGIN=INSTITUTE OF ENERGY PROBLEMS OF CHEMICAL PHYSICS, RAS
##OWNER=INEP CP RAS, NIST OSRD
Collection (C) 2007 copyright by the U.S. Secretary of Commerce
on behalf of the United States of America. All rights reserved.
##CAS REGISTRY NO=3815-83-6
##MOLFORM=C14H10N2O2
##SOURCE REFERENCE=RAS UV No. 19854
##$NIST SQUIB=1967TIM/HUNg4/4
##$NIST SOURCE=TYUGLMTE
##SPECTROMETER/DATA SYSTEM=Unicaqm SP 700
##XUNITS=Wavelength (nm)
##YUNITS=Logarithm epsilon
##XFACTOR=1.0
##YFACTOR=1.0
##FIRSTX=195
##LASTX=407.55
##FIRSTY=4.486
##MAXX=407.55
##MINX=195
##MAXY=4.486
##MINY=1.677
##NPOINTS=222
##$REF AUTHOR=Timmons, C.J.; Hunt, J.H.
##$REF JOURNAL=UV atlas of organic compounds
##$REF VOLUME=3
##$REF PAGE=G4/4
##$REF DATE=1967
##XYPOINTS=(XY..XY)
195.00,4.486
195.50,4.473
195.99,4.461
196.49,4.448
197.07,4.435
197.66,4.424
198.25,4.414
198.92,4.403
199.61,4.395
200.29,4.386
200.99,4.380
201.68,4.371
202.39,4.360
203.09,4.350
203.81,4.339
204.43,4.326
204.97,4.314
205.52,4.301
206.06,4.288
206.61,4.275
207.07,4.260
207.53,4.243
207.91,4.229
208.40,4.210
208.74,4.194
209.12,4.177
209.42,4.162
209.78,4.143
210.09,4.127
210.44,4.107
210.75,4.092
211.21,4.075
211.59,4.058
212.04,4.042
212.56,4.026
213.10,4.009
213.63,3.996
214.32,3.983
215.02,3.972
215.81,3.962
216.62,3.951
217.43,3.941
218.35,3.934
219.17,3.926
220.00,3.917
220.83,3.911
221.78,3.906
222.74,3.909
223.59,3.917
224.46,3.923
225.44,3.930
226.31,3.938
227.20,3.947
227.98,3.958
228.88,3.968
229.78,3.977
230.69,3.985
231.60,3.995
232.46,4.003
233.47,4.009
234.50,4.013
235.60,4.017
236.68,4.019
237.77,4.022
238.87,4.022
239.97,4.019
241.09,4.019
242.22,4.017
243.36,4.017
244.52,4.015
245.68,4.013
246.85,4.011
248.04,4.009
249.10,3.998
250.17,3.990
251.25,3.981
252.20,3.970
253.17,3.960
254.13,3.947
255.25,3.936
256.23,3.923
257.23,3.911
258.23,3.898
259.23,3.885
260.25,3.872
261.27,3.862
262.30,3.849
263.34,3.838
264.24,3.825
265.14,3.810
266.21,3.798
266.97,3.783
267.89,3.768
268.67,3.753
269.44,3.736
270.23,3.721
271.01,3.706
271.81,3.691
272.60,3.674
273.24,3.657
274.05,3.642
274.53,3.625
275.34,3.610
276.00,3.593
276.82,3.578
277.65,3.561
278.31,3.544
279.31,3.529
280.15,3.512
281.17,3.497
282.02,3.480
283.05,3.465
284.26,3.452
285.66,3.442
287.25,3.435
288.85,3.435
290.29,3.444
291.57,3.454
292.67,3.467
293.59,3.482
294.71,3.497
295.65,3.514
296.59,3.529
297.35,3.546
298.49,3.561
299.26,3.578
300.23,3.595
301.20,3.610
302.18,3.627
303.16,3.644
304.15,3.661
305.15,3.678
306.15,3.695
306.96,3.712
307.98,3.729
309.00,3.747
310.03,3.764
311.07,3.781
312.11,3.798
313.16,3.815
314.22,3.832
315.28,3.847
316.57,3.862
317.65,3.877
318.96,3.891
320.06,3.906
321.38,3.919
322.72,3.934
324.07,3.947
325.43,3.960
327.03,3.970
328.65,3.981
330.52,3.987
332.64,3.992
334.80,3.996
336.98,3.996
339.19,3.994
341.43,3.990
343.45,3.981
345.24,3.970
347.04,3.958
348.60,3.943
350.17,3.930
351.50,3.915
352.83,3.898
353.90,3.881
354.98,3.864
355.80,3.850
357.04,3.830
357.99,3.813
359.15,3.789
360.27,3.766
361.10,3.748
361.89,3.729
362.74,3.710
363.59,3.689
364.44,3.668
365.30,3.644
366.16,3.623
367.03,3.595
367.90,3.565
368.77,3.533
369.65,3.506
370.54,3.480
371.42,3.440
372.32,3.408
373.21,3.363
374.11,3.327
375.02,3.290
375.93,3.256
376.84,3.216
377.76,3.182
378.68,3.141
379.61,3.101
380.54,3.049
381.48,2.988
382.42,2.939
383.36,2.896
384.31,2.847
385.27,2.804
386.23,2.764
387.19,2.713
388.16,2.649
389.14,2.600
390.11,2.555
391.10,2.508
392.09,2.455
393.08,2.404
394.08,2.350
395.08,2.282
396.09,2.231
397.11,2.180
398.13,2.129
399.15,2.082
400.03,2.036
400.96,1.987
402.26,1.917
403.31,1.873
404.36,1.822
405.42,1.775
406.48,1.728
407.55,1.677
##END=
