##TITLE=2-methyl-3H-indol-3-one,(2-methyl-3H-indol-3-ylidene) hydrazone
##JCAMP-DX=4.24
##DATA TYPE=UV/VIS SPECTRUM
##ORIGIN=INSTITUTE OF ENERGY PROBLEMS OF CHEMICAL PHYSICS, RAS
##OWNER=INEP CP RAS, NIST OSRD
Collection (C) 2007 copyright by the U.S. Secretary of Commerce
on behalf of the United States of America. All rights reserved.
##CAS REGISTRY NO=38292-50-1
##MOLFORM=C18H14N4
##MP=150-151
##SOURCE REFERENCE=RAS UV No. 22933
##$NIST SQUIB=1976HUN/STE1060
##$NIST SOURCE=TYUGLMTE
##SPECTROMETER/DATA SYSTEM=Cary 14
##XUNITS=Wavelength (nm)
##YUNITS=Logarithm epsilon
##XFACTOR=1.0
##YFACTOR=1.0
##FIRSTX=210.347
##LASTX=468.865
##FIRSTY=4.157
##MAXX=468.865
##MINX=210.347
##MAXY=4.454
##MINY=2.586
##NPOINTS=120
##$REF AUTHOR=Hunig, S.; Steinmetzer, H.-C.
##$REF JOURNAL=Liebigs Ann. Chem.
##$REF PAGE=1060
##$REF DATE=1976
##XYPOINTS=(XY..XY)
210.347,4.157
212.347,4.175
214.347,4.201
216.347,4.234
218.347,4.271
220.347,4.307
222.347,4.341
224.347,4.368
226.831,4.391
228.831,4.404
230.831,4.417
232.831,4.435
234.831,4.453
236.831,4.454
238.539,4.424
239.682,4.400
240.837,4.381
242.814,4.368
244.031,4.352
245.185,4.329
245.927,4.281
246.454,4.247
247.143,4.213
247.722,4.183
248.610,4.150
249.611,4.126
250.586,4.105
251.848,4.083
253.365,4.063
255.712,4.060
258.355,4.078
259.697,4.093
261.053,4.112
262.423,4.131
263.807,4.151
265.206,4.170
266.621,4.188
268.050,4.204
269.495,4.219
270.955,4.232
272.432,4.241
273.924,4.245
275.433,4.242
276.959,4.228
278.501,4.196
279.303,4.169
280.064,4.130
280.698,4.092
281.839,4.052
283.072,4.013
284.684,3.976
286.314,3.946
287.963,3.921
289.631,3.902
291.318,3.886
293.026,3.874
294.753,3.866
296.501,3.860
298.270,3.857
300.060,3.858
301.871,3.861
303.705,3.866
305.561,3.875
307.440,3.885
309.342,3.898
311.267,3.912
313.217,3.926
315.192,3.940
317.191,3.951
318.858,3.967
320.761,3.978
323.355,3.993
325.603,4.004
327.678,4.007
329.913,4.012
332.105,4.015
334.325,4.015
336.576,4.014
338.857,4.012
341.169,4.008
343.513,4.004
345.889,4.000
348.299,3.997
350.742,3.994
353.220,3.991
355.733,3.989
358.282,3.987
360.867,3.985
363.491,3.982
366.153,3.978
368.854,3.971
371.595,3.960
374.378,3.944
377.202,3.922
380.069,3.892
382.730,3.872
385.682,3.842
388.680,3.811
391.725,3.778
394.818,3.743
397.961,3.705
401.154,3.662
404.398,3.615
407.696,3.564
411.047,3.512
414.454,3.458
417.919,3.405
421.441,3.353
425.024,3.303
428.667,3.255
432.374,3.208
436.146,3.161
439.984,3.112
443.890,3.057
447.866,2.996
451.914,2.925
456.036,2.844
460.233,2.757
464.509,2.667
468.865,2.586
##END=
