##TITLE=3,3'-(1,2-ethenediyl)bis[1-methyl-1H-indole]
##JCAMP-DX=4.24
##DATA TYPE=UV/VIS SPECTRUM
##ORIGIN=INSTITUTE OF ENERGY PROBLEMS OF CHEMICAL PHYSICS, RAS
##OWNER=INEP CP RAS, NIST OSRD
Collection (C) 2007 copyright by the U.S. Secretary of Commerce
on behalf of the United States of America. All rights reserved.
##CAS REGISTRY NO=38281-08-2
##MOLFORM=C20H18N2
##MP=203-204
##SOURCE REFERENCE=RAS UV No. 22918
##$NIST SQUIB=1976HUN/STE1060
##$NIST SOURCE=TYUGLMTE
##SPECTROMETER/DATA SYSTEM=Cary 14
##XUNITS=Wavelength (nm)
##YUNITS=Logarithm epsilon
##XFACTOR=1.0
##YFACTOR=1.0
##FIRSTX=213.695
##LASTX=394.997
##FIRSTY=4.403
##MAXX=394.997
##MINX=213.695
##MAXY=4.421
##MINY=2.793
##NPOINTS=95
##$REF AUTHOR=Hunig, S.; Steinmetzer, H.-C.
##$REF JOURNAL=Liebigs Ann. Chem.
##$REF PAGE=1060
##$REF DATE=1976
##XYPOINTS=(XY..XY)
213.695,4.403
214.612,4.391
215.537,4.382
216.471,4.373
217.412,4.360
218.361,4.345
219.319,4.331
220.285,4.322
220.468,4.321
221.445,4.314
222.430,4.310
223.424,4.309
224.427,4.313
225.438,4.319
226.459,4.329
227.490,4.341
228.530,4.354
229.579,4.367
230.638,4.380
231.823,4.394
232.903,4.401
233.993,4.408
235.093,4.413
236.203,4.417
237.324,4.420
238.456,4.421
239.599,4.420
240.753,4.418
241.917,4.414
243.094,4.409
244.281,4.402
245.481,4.392
246.692,4.380
247.915,4.363
249.150,4.341
250.398,4.313
251.658,4.275
252.931,4.226
254.140,4.178
255.439,4.126
256.750,4.081
258.076,4.056
258.135,4.056
259.475,4.028
260.828,4.008
262.196,4.000
263.578,4.000
264.975,4.009
266.387,4.022
267.814,4.038
269.256,4.055
270.714,4.070
272.188,4.082
273.677,4.092
275.184,4.099
276.706,4.103
278.246,4.107
279.803,4.109
281.378,4.112
282.970,4.114
284.581,4.114
286.210,4.107
287.858,4.088
289.172,4.076
290.854,4.060
292.556,4.049
294.278,4.044
296.020,4.047
297.783,4.056
299.567,4.072
301.373,4.093
303.201,4.117
305.050,4.142
306.923,4.165
308.819,4.187
310.738,4.204
312.681,4.218
314.649,4.230
316.641,4.244
318.660,4.264
318.750,4.264
323.913,4.282
329.245,4.293
334.756,4.305
340.454,4.315
346.350,4.310
352.454,4.273
358.776,4.190
365.330,4.066
371.952,3.909
379.001,3.636
386.322,3.280
393.931,2.818
394.108,2.793
394.997,2.793
##END=
