##TITLE=Disilane,pentamethyl-1-naphthalenyl-
##JCAMP-DX=4.24
##DATA TYPE=UV/VIS SPECTRUM
##ORIGIN=INSTITUTE OF ENERGY PROBLEMS OF CHEMICAL PHYSICS, RAS
##OWNER=INEP CP RAS, NIST OSRD
Collection (C) 2007 copyright by the U.S. Secretary of Commerce
on behalf of the United States of America. All rights reserved.
##CAS REGISTRY NO=38446-40-1
##MOLFORM=C15H22Si2
##BP=135-137/ 3 mm
##SOURCE REFERENCE=RAS UV No. 17061
##$NIST SQUIB=1986TOD/BAS1943
##$NIST SOURCE=TYUGLMTE
##SPECTROMETER/DATA SYSTEM=Cary 219
##XUNITS=Wavelength (nm)
##YUNITS=Logarithm epsilon
##XFACTOR=1.0
##YFACTOR=1.0
##FIRSTX=235.38
##LASTX=329.48
##FIRSTY=3.759
##MAXX=329.48
##MINX=235.38
##MAXY=3.759
##MINY=1.446
##NPOINTS=207
##$REF AUTHOR=Todesco, R.V.; Basheer, R.
##$REF JOURNAL=J. Polimer Sci., Chem. Ed.
##$REF VOLUME=24
##$REF PAGE=1943
##$REF DATE=1986
##XYPOINTS=(XY..XY)
235.38,3.759
235.70,3.737
236.02,3.715
236.37,3.690
236.76,3.664
237.07,3.643
237.51,3.619
237.96,3.593
238.41,3.572
238.59,3.562
238.86,3.551
239.31,3.523
239.76,3.493
240.21,3.461
240.65,3.434
241.10,3.408
241.55,3.388
242.00,3.367
242.45,3.345
242.90,3.311
243.35,3.290
243.80,3.264
244.24,3.237
244.69,3.213
245.17,3.181
245.59,3.152
246.04,3.129
246.49,3.105
246.93,3.083
247.38,3.064
247.83,3.047
248.28,3.027
248.73,3.011
249.18,3.000
249.63,2.990
250.24,2.987
250.91,2.990
251.53,2.995
252.43,3.007
252.99,3.023
253.55,3.041
253.89,3.060
254.23,3.078
254.56,3.096
254.90,3.113
255.12,3.129
255.35,3.145
255.57,3.160
255.80,3.175
255.91,3.189
256.24,3.203
256.47,3.216
256.81,3.229
257.03,3.241
257.25,3.254
257.48,3.266
257.82,3.277
258.15,3.288
258.49,3.299
258.82,3.309
259.16,3.318
259.50,3.328
260.06,3.336
260.51,3.345
261.18,3.352
261.74,3.360
262.19,3.368
262.75,3.375
263.31,3.383
263.87,3.391
264.32,3.399
264.77,3.406
265.22,3.414
265.67,3.421
266.00,3.429
266.34,3.437
266.79,3.444
267.12,3.451
267.57,3.458
267.91,3.465
268.13,3.473
268.47,3.480
268.81,3.487
269.14,3.494
269.37,3.501
269.82,3.507
270.04,3.513
270.26,3.520
270.60,3.526
270.94,3.533
271.16,3.539
271.27,3.545
271.50,3.551
271.72,3.557
271.95,3.563
272.17,3.569
272.40,3.575
272.51,3.581
272.73,3.586
272.96,3.592
273.29,3.597
273.63,3.603
273.85,3.608
274.19,3.613
274.53,3.617
274.86,3.623
275.20,3.627
275.65,3.632
276.21,3.636
276.66,3.640
277.22,3.644
277.89,3.648
278.34,3.652
279.01,3.655
279.57,3.659
280.13,3.663
280.81,3.667
281.26,3.671
281.70,3.675
282.38,3.678
282.94,3.682
283.72,3.684
284.73,3.685
285.74,3.683
286.42,3.680
286.81,3.677
287.08,3.674
287.39,3.670
287.64,3.665
287.87,3.661
288.05,3.658
288.18,3.656
288.43,3.653
288.71,3.650
289.11,3.646
289.67,3.640
290.23,3.634
290.79,3.629
291.35,3.625
291.91,3.621
292.47,3.617
293.03,3.611
293.59,3.605
294.15,3.598
294.71,3.592
295.28,3.582
295.84,3.570
296.40,3.558
296.96,3.545
297.52,3.531
298.08,3.515
298.64,3.500
299.20,3.484
299.76,3.467
300.32,3.447
300.88,3.421
301.44,3.396
302.01,3.366
302.57,3.338
303.13,3.297
303.69,3.262
304.25,3.229
304.81,3.192
305.37,3.148
305.93,3.113
306.49,3.078
307.05,3.039
307.61,2.995
308.17,2.946
308.73,2.903
309.30,2.856
309.86,2.814
310.42,2.759
310.98,2.720
311.54,2.677
312.10,2.623
312.66,2.581
313.22,2.535
313.78,2.483
314.34,2.441
314.90,2.396
315.46,2.344
315.97,2.312
316.59,2.274
317.15,2.248
317.71,2.220
318.27,2.190
318.88,2.163
319.39,2.141
319.99,2.126
320.55,2.132
321.10,2.150
321.66,2.177
322.19,2.205
322.77,2.219
323.33,2.232
323.88,2.234
324.44,2.230
325.06,2.219
325.56,2.190
326.12,2.141
326.60,2.097
327.22,2.047
327.80,1.974
328.36,1.823
328.92,1.648
329.48,1.446
##END=
