##TITLE=3,4-dihydro-3-(2-oxo-2-phenylethyidene)-2(1H)-quinoxalinone
##JCAMP-DX=4.24
##DATA TYPE=UV/VIS SPECTRUM
##ORIGIN=INSTITUTE OF ENERGY PROBLEMS OF CHEMICAL PHYSICS, RAS
##OWNER=INEP CP RAS, NIST OSRD
Collection (C) 2007 copyright by the U.S. Secretary of Commerce
on behalf of the United States of America. All rights reserved.
##CAS REGISTRY NO=39260-15-6
##MOLFORM=C16H12N2O2
##MP=268-269
##SOURCE REFERENCE=RAS UV No. 22612
##$NIST SQUIB=1977AND/755
##$NIST SOURCE=TYUGLMTE
##SPECTROMETER/DATA SYSTEM=Specord UV-Vis
##XUNITS=Wavelength (nm)
##YUNITS=Logarithm epsilon
##XFACTOR=1.0
##YFACTOR=1.0
##FIRSTX=205.46
##LASTX=469.352
##FIRSTY=4.535
##MAXX=469.352
##MINX=205.46
##MAXY=4.558
##MINY=3.284
##NPOINTS=177
##$REF AUTHOR=Andreichikov, Yu.S.; et al.
##$REF JOURNAL=Khim. Geterosikl. Soedin.
##$REF PAGE=755
##$REF DATE=1977
##XYPOINTS=(XY..XY)
205.460,4.535
206.695,4.549
208.460,4.558
210.431,4.551
212.088,4.534
213.745,4.508
214.460,4.488
215.960,4.456
217.460,4.430
218.960,4.415
221.202,4.417
223.274,4.428
224.931,4.439
226.460,4.442
227.960,4.430
229.460,4.405
231.235,4.359
232.735,4.303
234.235,4.240
235.735,4.174
237.235,4.109
238.735,4.047
240.235,3.989
241.735,3.937
243.235,3.893
244.735,3.854
246.235,3.823
247.735,3.798
249.235,3.779
250.735,3.764
252.235,3.755
253.735,3.749
255.235,3.748
256.735,3.752
258.235,3.762
259.870,3.780
261.370,3.815
262.870,3.848
264.370,3.879
265.870,3.907
267.370,3.932
268.870,3.955
270.370,3.973
271.870,3.989
273.370,4.001
274.870,4.010
276.370,4.014
277.870,4.016
279.370,4.014
280.870,4.010
282.370,4.002
283.870,3.992
285.370,3.980
286.870,3.966
288.370,3.951
289.870,3.935
291.370,3.917
292.870,3.899
294.370,3.878
295.864,3.854
297.364,3.832
298.864,3.800
300.364,3.761
301.864,3.717
303.364,3.671
304.864,3.626
306.364,3.581
307.864,3.538
309.364,3.498
310.864,3.462
312.364,3.429
313.864,3.399
315.364,3.374
316.864,3.351
318.364,3.332
319.864,3.317
321.364,3.304
322.864,3.295
324.364,3.288
325.864,3.285
327.364,3.284
328.864,3.287
330.364,3.292
331.864,3.300
333.364,3.310
334.864,3.323
336.364,3.338
337.864,3.353
339.364,3.367
339.392,3.367
340.892,3.380
342.392,3.394
343.892,3.410
345.392,3.428
346.892,3.447
348.392,3.468
349.892,3.490
351.392,3.513
352.892,3.538
354.392,3.562
355.892,3.588
357.392,3.614
358.892,3.640
360.392,3.666
361.892,3.693
363.392,3.719
364.892,3.746
366.392,3.772
367.892,3.798
369.392,3.824
370.892,3.850
372.392,3.875
373.892,3.900
375.392,3.925
376.892,3.950
378.392,3.975
379.892,4.000
381.392,4.025
382.892,4.049
384.392,4.074
385.892,4.099
387.392,4.123
388.892,4.147
390.392,4.171
391.892,4.194
393.383,4.213
394.883,4.242
396.383,4.268
397.883,4.293
399.383,4.316
400.883,4.340
402.383,4.362
403.883,4.384
405.383,4.405
406.883,4.425
408.383,4.442
409.883,4.457
411.383,4.468
412.883,4.476
414.383,4.480
415.883,4.480
417.383,4.477
418.883,4.471
420.383,4.464
421.883,4.456
423.936,4.450
425.436,4.452
426.936,4.459
428.436,4.466
429.936,4.469
431.436,4.467
432.936,4.458
434.436,4.444
435.936,4.425
437.436,4.403
438.936,4.378
440.436,4.351
441.936,4.320
442.352,4.310
443.852,4.267
445.352,4.221
446.852,4.170
448.352,4.114
449.852,4.053
451.352,3.987
452.852,3.920
454.352,3.851
455.852,3.784
457.352,3.719
458.852,3.658
460.352,3.603
461.852,3.552
463.352,3.507
464.852,3.464
466.352,3.422
467.852,3.376
469.352,3.320
##END=
