##TITLE=N-phenyl-2-thiophenesulfonamide
##JCAMP-DX=4.24
##DATA TYPE=UV/VIS SPECTRUM
##ORIGIN=INSTITUTE OF ENERGY PROBLEMS OF CHEMICAL PHYSICS, RAS
##OWNER=INEP CP RAS, NIST OSRD
Collection (C) 2007 copyright by the U.S. Secretary of Commerce
on behalf of the United States of America. All rights reserved.
##CAS REGISTRY NO=39810-46-3
##MOLFORM=C10H9NO2S2
##MP=99-100
##SOURCE REFERENCE=RAS UV No. 23597
##$NIST SQUIB=1974ARC/611
##$NIST SOURCE=TYUGLMTE
##SPECTROMETER/DATA SYSTEM=Hitachi-Perkin-Elmer EPS-3T
##XUNITS=Wavelength (nm)
##YUNITS=Logarithm epsilon
##XFACTOR=1.0
##YFACTOR=1.0
##FIRSTX=210.851
##LASTX=320.88
##FIRSTY=3.944
##MAXX=320.88
##MINX=210.851
##MAXY=4.158
##MINY=2.599
##NPOINTS=112
##$REF AUTHOR=Arcoria, A.; et al.
##$REF JOURNAL=Spectrochim. Acta
##$REF VOLUME=30A
##$REF PAGE=611
##$REF DATE=1974
##XYPOINTS=(XY..XY)
210.851,3.944
211.851,3.949
212.851,3.955
213.851,3.961
214.851,3.970
215.851,3.981
216.851,3.995
217.851,4.011
218.851,4.029
219.851,4.049
220.851,4.070
221.851,4.090
222.851,4.109
223.851,4.126
224.851,4.140
225.851,4.150
226.851,4.156
227.851,4.158
228.851,4.155
229.851,4.147
230.851,4.136
231.851,4.121
232.851,4.105
233.851,4.090
234.727,4.085
235.727,4.072
236.727,4.059
237.727,4.048
238.727,4.039
239.727,4.030
240.727,4.024
241.727,4.019
242.727,4.015
243.727,4.013
244.727,4.012
245.727,4.011
246.727,4.011
247.727,4.011
248.727,4.012
249.727,4.012
250.727,4.011
251.727,4.010
252.727,4.008
253.727,4.006
254.727,4.002
255.727,3.997
256.727,3.992
257.727,3.985
258.727,3.976
259.727,3.967
260.727,3.956
261.727,3.944
262.727,3.930
263.727,3.913
264.727,3.894
265.727,3.872
266.727,3.846
266.907,3.844
267.907,3.814
268.907,3.785
269.907,3.757
270.907,3.729
271.907,3.700
272.907,3.669
273.907,3.637
274.907,3.604
275.907,3.569
276.907,3.532
277.907,3.494
278.907,3.455
279.907,3.416
280.907,3.375
281.907,3.334
282.907,3.293
283.907,3.252
284.907,3.212
285.907,3.171
286.907,3.131
287.907,3.091
288.880,3.054
289.880,3.011
290.880,2.972
291.880,2.936
292.880,2.904
293.880,2.875
294.880,2.849
295.880,2.826
296.880,2.805
297.880,2.786
298.880,2.769
299.880,2.754
300.880,2.741
301.880,2.728
302.880,2.718
303.880,2.708
304.880,2.699
305.880,2.690
306.880,2.683
307.880,2.676
308.880,2.669
309.880,2.662
310.880,2.656
311.880,2.650
312.880,2.643
313.880,2.637
314.880,2.631
315.880,2.625
316.880,2.620
317.880,2.614
318.880,2.609
319.880,2.603
320.880,2.599
##END=
