##TITLE=Cyclopentanone, 2,5-dimethyl-
##JCAMP-DX=4.24
##DATA TYPE=UV/VIS SPECTRUM
##ORIGIN=INSTITUTE OF ENERGY PROBLEMS OF CHEMICAL PHYSICS, RAS
##OWNER=INEP CP RAS, NIST OSRD
Collection (C) 2007 copyright by the U.S. Secretary of Commerce
on behalf of the United States of America. All rights reserved.
##CAS REGISTRY NO=4041-09-2
##MOLFORM=C7H12O
##BP=146.5
##SOURCE REFERENCE=RAS UV No. 16200
##$NIST SQUIB=1973OSU/TES1830
##$NIST SOURCE=TYUGLMTE
##SPECTROMETER/DATA SYSTEM=Beckman DU
##XUNITS=Wavelength (nm)
##YUNITS=Logarithm epsilon
##XFACTOR=1.0
##YFACTOR=1.0
##FIRSTX=225.38
##LASTX=334.05
##FIRSTY=0.692
##MAXX=334.05
##MINX=225.38
##MAXY=1.276
##MINY=-0.24
##NPOINTS=191
##$REF AUTHOR=O'Sullivan, M.; Testa, A.C.
##$REF JOURNAL=J. Phys. Chem.
##$REF VOLUME=77
##$REF PAGE=1830
##$REF DATE=1973
##XYPOINTS=(XY..XY)
225.38,0.692
225.52,0.694
225.94,0.650
226.51,0.633
227.08,0.609
227.64,0.585
228.21,0.562
228.77,0.540
229.34,0.514
229.91,0.491
230.47,0.469
231.04,0.450
231.60,0.431
232.17,0.410
232.74,0.384
233.30,0.361
233.87,0.347
234.43,0.322
235.00,0.311
235.57,0.289
236.13,0.261
236.70,0.236
237.83,0.226
238.40,0.224
238.96,0.217
240.09,0.224
240.66,0.236
241.23,0.255
241.79,0.272
242.36,0.284
242.92,0.300
243.49,0.311
244.06,0.322
244.62,0.337
245.75,0.370
246.32,0.384
246.89,0.402
247.45,0.423
248.02,0.435
248.58,0.450
249.15,0.465
249.72,0.476
250.28,0.491
250.85,0.508
251.41,0.524
251.98,0.540
252.55,0.559
253.11,0.573
253.68,0.590
254.24,0.604
254.81,0.620
255.38,0.633
255.94,0.650
256.51,0.664
257.07,0.683
257.64,0.696
258.21,0.711
258.77,0.726
259.34,0.740
259.91,0.753
260.47,0.768
261.04,0.783
261.60,0.797
262.17,0.810
262.74,0.824
263.30,0.837
263.87,0.849
264.43,0.858
265.00,0.870
265.57,0.894
266.13,0.909
266.70,0.925
267.26,0.937
267.83,0.951
268.40,0.962
268.96,0.970
269.53,0.978
270.09,0.992
270.66,0.994
271.23,0.999
271.79,1.006
272.36,1.017
272.92,1.021
273.49,1.031
274.06,1.039
274.62,1.051
275.19,1.063
275.75,1.075
276.32,1.085
276.89,1.096
277.45,1.103
278.02,1.109
278.58,1.119
279.15,1.120
279.72,1.123
280.28,1.129
280.85,1.137
281.41,1.145
281.98,1.153
282.55,1.161
283.11,1.168
283.68,1.175
284.24,1.182
284.81,1.187
285.38,1.196
285.94,1.207
286.51,1.214
287.07,1.221
287.64,1.226
288.21,1.230
288.77,1.233
289.34,1.235
289.90,1.237
290.47,1.238
291.04,1.240
291.60,1.242
292.17,1.243
292.73,1.245
293.30,1.248
293.87,1.250
294.43,1.252
295.00,1.257
295.56,1.259
296.13,1.265
296.70,1.271
297.26,1.274
297.83,1.275
298.40,1.276
298.96,1.276
299.53,1.276
300.09,1.273
300.66,1.266
301.23,1.259
301.79,1.254
302.36,1.250
302.92,1.245
303.49,1.237
304.06,1.227
304.62,1.222
305.19,1.218
305.75,1.217
306.32,1.217
306.89,1.215
307.45,1.215
308.02,1.216
308.58,1.217
309.15,1.215
309.72,1.210
310.28,1.202
310.85,1.191
311.41,1.180
311.98,1.167
312.55,1.152
313.11,1.131
313.68,1.109
314.24,1.093
314.81,1.066
315.38,1.049
315.94,1.028
316.51,1.002
317.07,0.994
317.64,0.981
318.21,0.974
318.77,0.965
319.34,0.958
319.90,0.950
320.47,0.940
321.04,0.931
321.60,0.918
322.17,0.910
322.73,0.900
323.30,0.881
323.87,0.857
324.43,0.800
325.00,0.736
325.56,0.662
326.13,0.617
326.70,0.565
327.26,0.518
327.83,0.454
328.39,0.414
328.96,0.356
329.53,0.311
330.09,0.255
330.66,0.217
331.22,0.153
331.79,0.088
332.36,0.010
332.92,-0.058
333.49,-0.140
334.05,-0.240
##END=
