##TITLE=N-(4-methylphenyl)-2,4,6-trinitrobenzeneethanamine
##JCAMP-DX=4.24
##DATA TYPE=UV/VIS SPECTRUM
##ORIGIN=INSTITUTE OF ENERGY PROBLEMS OF CHEMICAL PHYSICS, RAS
##OWNER=INEP CP RAS, NIST OSRD
Collection (C) 2007 copyright by the U.S. Secretary of Commerce
on behalf of the United States of America. All rights reserved.
##CAS REGISTRY NO=40668-57-3
##MOLFORM=C15H14N4O6
##MP=148
##SOURCE REFERENCE=RAS UV No. 23414
##$NIST SQUIB=1975BER/626
##$NIST SOURCE=TYUGLMTE
##SPECTROMETER/DATA SYSTEM=SF-4
##XUNITS=Wavelength (nm)
##YUNITS=Logarithm epsilon
##XFACTOR=1.0
##YFACTOR=1.0
##FIRSTX=328.519
##LASTX=582.956
##FIRSTY=3.173
##MAXX=582.956
##MINX=328.519
##MAXY=3.173
##MINY=1.764
##NPOINTS=128
##$REF AUTHOR=Berzin', L.E.; et al.
##$REF JOURNAL=Zhur. Obshchei Khim.
##$REF VOLUME=45
##$REF PAGE=626
##$REF DATE=1975
##XYPOINTS=(XY..XY)
328.519,3.173
330.519,3.151
332.519,3.129
334.519,3.107
336.519,3.086
338.519,3.066
340.519,3.047
342.519,3.029
344.519,3.013
346.519,2.998
348.519,2.984
350.519,2.973
352.519,2.962
354.519,2.953
356.519,2.946
358.519,2.940
360.519,2.935
362.519,2.932
364.519,2.930
366.519,2.929
368.519,2.928
370.519,2.929
372.519,2.931
374.519,2.933
376.519,2.937
378.519,2.940
380.519,2.945
382.519,2.950
384.519,2.955
386.519,2.961
388.519,2.968
390.519,2.974
392.519,2.981
394.519,2.988
396.909,2.997
398.909,3.004
400.909,3.011
402.909,3.017
404.909,3.022
406.909,3.027
408.909,3.032
410.909,3.037
412.909,3.041
414.909,3.046
416.909,3.050
418.909,3.054
420.909,3.058
422.909,3.061
424.909,3.065
426.909,3.068
428.909,3.070
430.909,3.072
432.909,3.074
434.909,3.076
436.909,3.076
438.909,3.076
440.909,3.076
442.909,3.075
444.909,3.073
446.909,3.071
448.909,3.068
450.909,3.065
452.909,3.060
454.909,3.055
456.909,3.050
458.909,3.044
460.909,3.037
462.909,3.029
464.909,3.021
466.909,3.013
468.909,3.004
470.909,2.994
472.909,2.985
474.909,2.974
476.909,2.963
478.909,2.952
480.909,2.941
482.909,2.929
484.909,2.917
486.909,2.905
488.909,2.893
490.909,2.880
492.909,2.867
494.909,2.854
496.909,2.840
498.909,2.826
500.909,2.812
502.909,2.798
504.909,2.783
506.909,2.768
508.909,2.753
510.909,2.737
512.909,2.720
514.909,2.703
516.909,2.686
518.909,2.667
520.909,2.648
522.909,2.629
524.909,2.608
526.909,2.587
528.909,2.565
530.909,2.543
532.909,2.520
534.956,2.498
536.956,2.472
538.956,2.445
540.956,2.416
542.956,2.387
544.956,2.358
546.956,2.327
548.956,2.296
550.956,2.265
552.956,2.234
554.956,2.202
556.956,2.170
558.956,2.139
560.956,2.107
562.956,2.075
564.956,2.044
566.956,2.012
568.956,1.981
570.956,1.950
572.956,1.919
574.956,1.888
576.956,1.857
578.956,1.826
580.956,1.795
582.956,1.764
##END=
