##TITLE=2-Butene-1,4-dione, 1,4-diphenyl-
##JCAMP-DX=4.24
##DATA TYPE=UV/VIS SPECTRUM
##ORIGIN=INSTITUTE OF ENERGY PROBLEMS OF CHEMICAL PHYSICS, RAS
##OWNER=INEP CP RAS, NIST OSRD
Collection (C) 2007 copyright by the U.S. Secretary of Commerce
on behalf of the United States of America. All rights reserved.
##CAS REGISTRY NO=4070-75-1
##MOLFORM=C16H12O2
##MP=111
##SOURCE REFERENCE=RAS UV No. 12792
##$NIST SQUIB=1956LUT/DIE551
##$NIST SOURCE=TYUGLMTE
##SPECTROMETER/DATA SYSTEM=Beckman DU
##XUNITS=Wavelength (nm)
##YUNITS=Logarithm epsilon
##XFACTOR=1.0
##YFACTOR=1.0
##FIRSTX=230.4
##LASTX=323.5
##FIRSTY=3.97
##MAXX=323.5
##MINX=230.4
##MAXY=4.286
##MINY=3.307
##NPOINTS=125
##$REF AUTHOR=Lutz, R.E.; Dien, C.K.
##$REF JOURNAL=J. Org. Chem.
##$REF VOLUME=21
##$REF PAGE=551
##$REF DATE=1956
##XYPOINTS=(XY..XY)
230.40,3.970
230.57,3.971
230.74,3.971
230.90,3.973
231.07,3.974
231.24,3.975
231.41,3.977
231.57,3.977
231.74,3.978
231.91,3.979
232.08,3.980
232.25,3.982
232.41,3.983
232.58,3.983
232.75,3.984
232.92,3.985
233.08,3.986
233.75,3.991
234.59,3.999
235.43,4.008
236.27,4.018
237.11,4.027
237.95,4.040
238.79,4.050
239.63,4.061
240.46,4.073
241.30,4.085
242.14,4.097
242.98,4.110
243.82,4.122
244.66,4.134
245.50,4.145
246.34,4.156
247.17,4.166
248.01,4.175
248.85,4.184
249.69,4.194
250.53,4.202
251.37,4.209
252.21,4.216
253.05,4.224
253.88,4.229
254.72,4.235
255.56,4.242
256.40,4.247
257.24,4.252
258.08,4.257
258.92,4.262
259.75,4.265
260.59,4.270
261.43,4.273
262.27,4.277
263.11,4.279
263.95,4.282
264.79,4.284
265.63,4.285
266.46,4.286
267.30,4.286
268.14,4.286
268.98,4.285
269.82,4.283
270.66,4.279
271.50,4.276
272.34,4.273
273.17,4.270
274.01,4.267
274.85,4.264
275.69,4.260
276.53,4.255
277.37,4.250
278.21,4.245
279.05,4.241
279.88,4.235
280.72,4.228
281.56,4.222
282.40,4.216
283.24,4.208
284.08,4.202
284.92,4.194
285.75,4.188
286.59,4.179
287.43,4.171
288.27,4.163
289.11,4.153
289.95,4.144
290.79,4.135
291.63,4.124
292.46,4.114
293.30,4.102
294.14,4.091
294.98,4.078
295.82,4.064
296.66,4.046
297.50,4.033
298.34,4.015
299.17,3.997
300.01,3.979
300.85,3.961
301.69,3.943
302.53,3.925
303.37,3.906
304.21,3.883
305.05,3.861
305.88,3.837
306.72,3.814
307.56,3.792
308.40,3.766
309.24,3.736
310.08,3.712
310.92,3.688
311.75,3.660
312.59,3.636
313.43,3.611
314.27,3.587
315.11,3.558
315.95,3.534
316.79,3.509
317.63,3.487
318.46,3.455
319.30,3.429
320.14,3.406
320.98,3.382
321.82,3.351
322.66,3.330
323.50,3.307
##END=
