##TITLE=2-(4-Hydroxyphenyl)-4H-1-benzopyran-4-one
##JCAMP-DX=4.24
##DATA TYPE=UV/VIS SPECTRUM
##ORIGIN=INSTITUTE OF ENERGY PROBLEMS OF CHEMICAL PHYSICS, RAS
##OWNER=INEP CP RAS, NIST OSRD
Collection (C) 2007 copyright by the U.S. Secretary of Commerce
on behalf of the United States of America. All rights reserved.
##CAS REGISTRY NO=4143-63-9
##MOLFORM=C15H10O3
##MP=268-270
##SOURCE REFERENCE=RAS UV No. 23814
##$NIST SQUIB=1974FRO/1294
##$NIST SOURCE=TYUGLMTE
##SPECTROMETER/DATA SYSTEM=Pye Unicam SP 8000
##XUNITS=Wavelength (nm)
##YUNITS=Logarithm epsilon
##XFACTOR=1.0
##YFACTOR=1.0
##FIRSTX=224.877
##LASTX=329.332
##FIRSTY=4.433
##MAXX=329.332
##MINX=224.877
##MAXY=4.433
##MINY=3.955
##NPOINTS=95
##$REF AUTHOR=Frolov, Yu.L.; et al.
##$REF JOURNAL=Izvest. Akad. Nauk SSSR, ser. khim.
##$REF PAGE=1294
##$REF DATE=1974
##XYPOINTS=(XY..XY)
224.877,4.433
226.023,4.416
227.018,4.401
228.018,4.381
229.018,4.358
230.018,4.333
231.018,4.309
232.018,4.288
233.018,4.269
234.018,4.255
235.018,4.244
236.018,4.238
237.018,4.235
238.018,4.235
239.018,4.237
240.018,4.241
241.018,4.246
242.018,4.251
243.018,4.255
244.214,4.256
245.214,4.256
246.214,4.255
247.214,4.256
248.214,4.257
249.214,4.258
250.214,4.261
251.214,4.264
252.214,4.267
253.214,4.270
254.214,4.272
255.214,4.274
256.214,4.274
257.214,4.274
258.214,4.272
259.214,4.269
260.214,4.266
261.214,4.261
262.214,4.255
263.416,4.251
264.416,4.245
265.416,4.231
266.416,4.209
267.416,4.179
268.416,4.142
269.416,4.102
269.429,4.104
270.429,4.061
271.429,4.023
272.429,3.994
273.429,3.977
274.429,3.972
275.425,3.975
276.432,3.980
277.272,3.990
278.772,4.013
280.272,4.036
281.772,4.060
283.272,4.083
284.772,4.106
286.272,4.129
287.772,4.152
289.272,4.176
290.772,4.199
292.272,4.222
293.772,4.245
295.272,4.269
296.772,4.292
298.272,4.315
299.772,4.338
301.272,4.361
302.304,4.378
303.304,4.389
304.304,4.399
305.304,4.406
306.304,4.411
307.304,4.413
308.304,4.411
309.304,4.406
310.187,4.398
311.687,4.384
313.187,4.368
314.687,4.350
316.187,4.330
317.687,4.307
319.187,4.281
320.687,4.253
321.332,4.240
322.332,4.214
323.332,4.184
324.332,4.151
325.332,4.117
326.332,4.080
327.332,4.041
328.332,4.000
329.332,3.955
##END=
