##TITLE=(E)-Dimethyldiazene
##JCAMP-DX=4.24
##DATA TYPE=UV/VIS SPECTRUM
##ORIGIN=INSTITUTE OF ENERGY PROBLEMS OF CHEMICAL PHYSICS, RAS
##OWNER=INEP CP RAS, NIST OSRD
Collection (C) 2007 copyright by the U.S. Secretary of Commerce
on behalf of the United States of America. All rights reserved.
##CAS REGISTRY NO=4143-41-3
##MOLFORM=C2H6N2
##SOURCE REFERENCE=RAS UV No. 19769
##$NIST SQUIB=1967KOR/RAUc7/1
##$NIST SOURCE=TYUGLMTE
##SPECTROMETER/DATA SYSTEM=Zeiss PMQ II
##XUNITS=Wavelength (nm)
##YUNITS=Logarithm epsilon
##XFACTOR=1.0
##YFACTOR=1.0
##FIRSTX=215.56
##LASTX=415.52
##FIRSTY=1.915
##MAXX=415.52
##MINX=215.56
##MAXY=1.915
##MINY=-0.352
##NPOINTS=133
##$REF AUTHOR=Kortum, G.; Rau, H.
##$REF JOURNAL=UV atlas of organic compounds
##$REF VOLUME=3
##$REF PAGE=C7/1
##$REF DATE=1967
##$REF PUBLISHER=Plenum Press
##$REF LOCATION=New York
##XYPOINTS=(XY..XY)
215.56,1.915
215.66,1.915
215.76,1.915
216.36,1.887
217.16,1.853
217.98,1.823
218.80,1.791
219.62,1.763
220.45,1.742
221.29,1.729
222.13,1.717
222.98,1.710
223.84,1.710
224.71,1.714
225.58,1.719
226.45,1.725
227.34,1.723
228.23,1.734
229.13,1.744
230.03,1.753
230.94,1.761
231.86,1.766
232.79,1.770
233.72,1.772
234.67,1.772
235.62,1.772
236.57,1.770
237.54,1.763
238.51,1.761
239.49,1.753
240.48,1.744
241.48,1.732
242.48,1.721
243.50,1.710
244.52,1.691
245.55,1.678
246.59,1.659
247.64,1.638
248.70,1.610
249.77,1.583
250.84,1.555
251.93,1.514
253.02,1.491
254.13,1.461
255.24,1.417
256.36,1.368
257.50,1.314
258.64,1.255
259.79,1.195
260.96,1.125
262.13,1.050
263.32,0.970
264.52,0.887
265.72,0.787
266.94,0.704
268.17,0.612
269.41,0.518
270.66,0.427
271.93,0.331
273.20,0.231
274.49,0.142
275.79,0.061
277.10,-0.020
278.43,-0.084
279.77,-0.146
281.12,-0.195
282.48,-0.212
283.86,-0.218
285.25,-0.214
286.65,-0.195
288.07,-0.156
289.50,-0.114
290.95,-0.065
292.41,-0.014
293.89,0.042
295.38,0.091
296.88,0.144
298.40,0.197
299.94,0.248
301.49,0.269
303.06,0.308
304.65,0.357
306.25,0.408
307.87,0.450
309.51,0.497
311.16,0.540
312.83,0.582
314.52,0.623
316.23,0.663
317.96,0.697
319.70,0.735
321.47,0.770
323.25,0.808
325.06,0.840
326.88,0.870
328.73,0.901
330.59,0.931
332.48,0.959
334.39,0.984
336.32,1.002
338.28,1.025
340.25,1.044
342.25,1.059
344.28,1.074
346.32,1.085
348.40,1.095
350.49,1.104
352.61,1.112
354.76,1.114
356.94,1.114
359.14,1.112
361.37,1.102
363.62,1.087
365.91,1.067
368.22,1.044
370.57,1.021
372.94,0.991
375.34,0.953
377.78,0.916
380.25,0.870
382.75,0.821
385.28,0.767
387.84,0.706
390.44,0.644
393.08,0.565
395.75,0.478
398.46,0.367
401.21,0.227
403.99,0.084
406.81,-0.039
409.67,-0.097
412.58,-0.218
415.52,-0.352
##END=
