##TITLE=Disulfide, 1,1-dimethylethyl ethyl
##JCAMP-DX=4.24
##DATA TYPE=UV/VIS SPECTRUM
##ORIGIN=INSTITUTE OF ENERGY PROBLEMS OF CHEMICAL PHYSICS, RAS
##OWNER=INEP CP RAS, NIST OSRD
Collection (C) 2007 copyright by the U.S. Secretary of Commerce
on behalf of the United States of America. All rights reserved.
##CAS REGISTRY NO=4151-69-3
##MOLFORM=C6H14S2
##SOURCE REFERENCE=RAS UV No. 20137
##$NIST SQUIB=1969BOL/145
##$NIST SOURCE=TYUGLMTE
##SPECTROMETER/DATA SYSTEM=unknown
##XUNITS=Wavelength (nm)
##YUNITS=Logarithm epsilon
##XFACTOR=1.0
##YFACTOR=1.0
##FIRSTX=214.81
##LASTX=315.72
##FIRSTY=2.911
##MAXX=315.72
##MINX=214.81
##MAXY=2.911
##MINY=0.444
##NPOINTS=102
##$REF AUTHOR=Bol'shakov, G.F.; et al.
##$REF JOURNAL=Ultraviolet spectra of heteroorganic compounds
##$REF PAGE=145
##$REF DATE=1969
##XYPOINTS=(XY..XY)
214.81,2.911
215.32,2.877
216.17,2.843
217.02,2.810
217.87,2.780
218.89,2.750
219.74,2.721
220.59,2.687
221.61,2.661
222.63,2.632
223.66,2.606
225.02,2.585
226.38,2.568
227.91,2.560
229.27,2.573
230.80,2.581
232.16,2.602
233.53,2.619
234.89,2.632
236.25,2.644
237.61,2.657
238.97,2.670
240.50,2.678
242.03,2.678
243.57,2.674
245.10,2.670
246.63,2.657
247.99,2.640
249.35,2.628
250.71,2.606
252.08,2.585
253.44,2.564
254.80,2.543
255.99,2.522
257.01,2.496
258.20,2.471
259.39,2.446
260.58,2.424
261.78,2.399
262.97,2.374
263.99,2.348
265.18,2.323
266.20,2.293
267.22,2.264
268.24,2.238
269.26,2.213
270.29,2.187
271.31,2.158
272.25,2.129
273.18,2.098
274.20,2.073
275.22,2.043
276.07,2.014
277.09,1.988
277.94,1.959
278.96,1.929
279.82,1.895
280.84,1.866
281.69,1.836
282.71,1.806
283.56,1.777
284.41,1.747
285.26,1.718
286.11,1.688
287.13,1.658
287.98,1.624
288.84,1.595
289.69,1.561
290.54,1.531
291.22,1.497
292.24,1.468
293.09,1.434
293.94,1.404
294.79,1.371
295.47,1.337
296.32,1.303
297.17,1.269
298.02,1.239
298.88,1.205
299.69,1.168
300.24,1.142
301.09,1.108
301.75,1.081
302.61,1.048
303.41,1.014
304.15,0.981
304.89,0.947
305.55,0.917
306.36,0.884
307.21,0.850
307.90,0.816
308.57,0.782
309.26,0.748
309.94,0.714
310.66,0.681
311.47,0.647
312.27,0.609
312.83,0.579
313.51,0.545
314.19,0.511
314.87,0.477
315.72,0.444
##END=
