##TITLE=2-(methylthio)-3-phenyl-2-propenoic acid, methyl ester
##JCAMP-DX=4.24
##DATA TYPE=UV/VIS SPECTRUM
##ORIGIN=INSTITUTE OF ENERGY PROBLEMS OF CHEMICAL PHYSICS, RAS
##OWNER=INEP CP RAS, NIST OSRD
Collection (C) 2007 copyright by the U.S. Secretary of Commerce
on behalf of the United States of America. All rights reserved.
##CAS REGISTRY NO=41769-23-8
##MOLFORM=C11H12O2S
##BP=149/4 mm
##SOURCE REFERENCE=RAS UV No. 23331
##$NIST SQUIB=1976RAS/153
##$NIST SOURCE=TYUGLMTE
##SPECTROMETER/DATA SYSTEM=SF-4A
##XUNITS=Wavelength (nm)
##YUNITS=Logarithm epsilon
##XFACTOR=1.0
##YFACTOR=1.0
##FIRSTX=221.51
##LASTX=343.165
##FIRSTY=3.871
##MAXX=343.165
##MINX=221.51
##MAXY=3.985
##MINY=3.676
##NPOINTS=126
##$REF AUTHOR=Rasteikiene, L.P.; et al.
##$REF JOURNAL=Zhur. Organ. Khim.
##$REF VOLUME=12
##$REF PAGE=153
##$REF DATE=1976
##XYPOINTS=(XY..XY)
221.510,3.871
222.266,3.871
222.484,3.868
223.484,3.858
224.484,3.851
225.484,3.845
226.484,3.840
227.484,3.836
228.484,3.831
229.484,3.827
230.484,3.822
231.484,3.817
232.484,3.812
233.484,3.807
234.484,3.803
235.484,3.798
236.484,3.794
237.484,3.791
238.484,3.789
239.484,3.787
240.484,3.786
241.484,3.786
242.484,3.787
243.484,3.790
244.484,3.794
244.499,3.794
245.499,3.800
246.499,3.808
247.499,3.816
248.499,3.825
249.499,3.833
250.499,3.843
251.499,3.852
252.499,3.861
253.499,3.870
254.499,3.880
255.408,3.890
256.408,3.898
257.408,3.907
258.408,3.916
259.408,3.926
260.408,3.935
261.408,3.944
262.408,3.952
263.408,3.960
264.408,3.966
265.408,3.972
266.408,3.977
267.408,3.980
268.408,3.983
269.408,3.984
270.408,3.985
271.408,3.985
272.408,3.985
273.408,3.983
274.408,3.982
275.408,3.980
276.408,3.978
277.408,3.976
277.617,3.975
278.617,3.973
279.617,3.971
280.617,3.968
281.617,3.964
282.617,3.961
283.617,3.957
284.617,3.953
285.617,3.949
286.617,3.945
287.617,3.940
288.617,3.936
289.617,3.932
290.617,3.928
291.617,3.924
292.617,3.920
293.617,3.917
294.617,3.913
295.345,3.911
296.345,3.907
297.345,3.903
298.345,3.900
299.345,3.897
300.345,3.894
301.345,3.891
302.345,3.887
303.345,3.884
304.345,3.880
305.345,3.877
306.345,3.874
307.345,3.872
308.345,3.871
309.345,3.870
310.333,3.871
311.333,3.871
312.333,3.871
313.333,3.871
314.333,3.871
315.333,3.870
316.333,3.869
317.333,3.868
318.333,3.866
319.333,3.864
320.333,3.861
321.333,3.858
322.333,3.855
323.333,3.851
324.333,3.847
325.333,3.843
326.333,3.839
327.333,3.835
328.333,3.830
329.333,3.825
330.333,3.819
331.333,3.813
332.165,3.807
333.165,3.800
334.165,3.791
335.165,3.781
336.165,3.770
337.165,3.759
338.165,3.748
339.165,3.736
340.165,3.724
341.165,3.711
342.165,3.695
343.165,3.676
##END=
