##TITLE=Crotonaldehyde
##JCAMP-DX=4.24
##DATA TYPE=UV/VIS SPECTRUM
##ORIGIN=INSTITUTE OF ENERGY PROBLEMS OF CHEMICAL PHYSICS, RAS
##OWNER=INEP CP RAS, NIST OSRD
Collection (C) 2007 copyright by the U.S. Secretary of Commerce
on behalf of the United States of America. All rights reserved.
##CAS REGISTRY NO=4170-30-3
##MOLFORM=C4H6O
##SOURCE REFERENCE=RAS UV No. 19
##$NIST SQUIB=1948BLA534-545
##$NIST SOURCE=TSGMTE
##SPECTROMETER/DATA SYSTEM=n.i.g.
##XUNITS=Wavelength (nm)
##YUNITS=Logarithm epsilon
##XFACTOR=1.000000
##YFACTOR=1.000000
##FIRSTX=380.5118
##LASTX=238.8000
##FIRSTY=0.420055
##MAXX=380.512
##MINX=238.8
##MAXY=1.71986
##MINY=0.188647
##NPOINTS=422
##$REF AUTHOR=Blacet, F.E.
##$REF TITLE=The photochemistry of the aldehydes
##$REF JOURNAL=J. Phys. Chem.
##$REF VOLUME=52
##$REF PAGE=534-545
##$REF DATE=1948
##XYPOINTS=(XY..XY)
380.5118,0.420055
379.4820,0.441664
379.1003,0.464430
378.5189,0.547369
378.2909,0.553203
378.2507,0.570788
378.2107,0.588317
378.1709,0.605747
378.1526,0.613726
378.0735,0.621457
377.9825,0.629185
377.8855,0.636909
377.8855,0.636909
377.6990,0.636638
377.6669,0.638988
377.5127,0.636307
377.4266,0.638938
377.3519,0.577526
377.3269,0.635876
377.3269,0.635876
377.3212,0.548868
377.3175,0.627827
377.3025,0.619667
377.2933,0.603718
377.2757,0.611458
376.8109,0.522900
376.5961,0.523798
375.8597,0.574968
375.3884,0.604140
374.8085,0.636368
373.5102,0.593950
373.3837,0.581665
373.1489,0.593353
371.5292,0.691400
371.5292,0.691400
371.3474,0.691762
371.1661,0.692027
370.9850,0.692239
370.9850,0.692239
370.3109,0.612318
369.8815,0.620927
368.6709,0.684073
368.2346,0.685867
368.1342,0.685312
368.0341,0.684648
367.9342,0.683929
367.9342,0.683929
367.5032,0.637149
367.2949,0.639925
366.4091,0.651879
365.8064,0.666181
365.3246,0.679455
365.1299,0.696994
365.1123,0.685285
364.8430,0.705838
363.8102,0.712498
363.8102,0.712498
363.5846,0.720201
363.4880,0.729489
362.7846,0.809068
362.4765,0.851142
362.2619,0.879434
362.1169,0.896747
362.0179,0.905893
361.8638,0.910907
361.8638,0.910907
361.8334,0.910197
361.7922,0.909486
361.7456,0.908774
361.5658,0.900995
361.2954,0.921525
361.0148,0.941948
360.2125,0.965037
360.2125,0.965037
359.4598,0.966222
359.2706,0.981909
358.8973,1.027207
358.8972,1.035918
358.6764,1.029043
358.6697,1.032329
358.6629,1.035610
358.6562,1.038894
358.6480,1.042883
358.2765,0.988826
358.1887,0.981705
358.0905,0.974479
358.0905,0.974479
358.0521,0.981034
358.0086,0.987537
356.5030,0.998804
356.3582,1.003241
356.3582,1.003241
355.5193,0.995095
355.1905,0.994326
354.3673,1.004962
354.1113,1.003667
353.6125,0.994950
353.0449,1.021582
352.8610,1.031881
352.8610,1.031881
352.7777,1.025527
352.1280,1.014134
352.1280,1.014134
351.9360,1.016841
351.7393,1.019444
351.1867,1.017134
350.9687,1.015322
350.6917,1.015016
350.6917,1.015016
350.5891,1.019913
350.4816,1.024761
350.3640,1.029497
350.3640,1.029497
350.0195,1.029428
349.6757,1.029355
349.3325,1.029286
349.3325,1.029286
349.0902,1.041136
348.9316,1.046640
348.7206,1.050519
348.0686,1.046628
347.7953,1.058540
347.2298,1.082362
347.2298,1.082362
346.9586,1.082060
346.6830,1.081707
346.3981,1.081250
346.3981,1.081250
346.3222,1.093905
346.2364,1.106561
346.1456,1.119216
346.1456,1.119216
345.9172,1.120488
345.6956,1.120929
345.2914,1.120913
345.2914,1.120913
344.9908,1.142927
344.8296,1.151777
344.6691,1.155047
344.6691,1.155047
344.4715,1.152823
344.3064,1.151756
344.0326,1.150922
344.0326,1.150922
343.9257,1.163626
343.7514,1.175532
343.3247,1.185975
343.3247,1.185975
343.0820,1.180736
342.9706,1.176149
342.8948,1.168282
342.8948,1.168282
342.7839,1.168259
342.6682,1.168235
342.5428,1.168209
342.5428,1.168209
342.4827,1.173358
342.4129,1.178508
342.3382,1.183654
341.9470,1.193428
341.9051,1.188951
341.8535,1.184419
341.7973,1.179782
341.7973,1.179782
341.6815,1.179759
341.5560,1.179730
341.4367,1.173839
341.4329,1.175880
341.4293,1.177816
341.4258,1.179704
341.4258,1.179704
341.2512,1.179667
341.2487,1.181003
341.2464,1.182238
341.2442,1.183418
341.0406,1.187366
340.9832,1.191334
340.9163,1.195249
340.8447,1.199058
340.6746,1.196908
340.6142,1.194314
340.5538,1.191719
340.4934,1.189125
340.3307,1.183221
340.1894,1.185772
340.0386,1.188321
339.8831,1.190869
339.8831,1.190869
339.7695,1.190306
339.6466,1.189636
339.5191,1.188914
339.5191,1.188914
339.3759,1.184657
339.2327,1.180401
339.0896,1.176146
338.8331,1.175152
338.4958,1.178580
338.2817,1.180054
338.0073,1.180840
338.0073,1.180840
337.9018,1.179572
337.7919,1.178200
337.6726,1.176774
337.6726,1.176774
337.4358,1.177427
337.1946,1.178079
336.9442,1.178727
335.9884,1.179454
335.9024,1.179836
335.8119,1.180112
335.7121,1.180332
334.4890,1.181935
334.3240,1.180014
331.2875,1.195996
331.1351,1.200883
330.9829,1.205716
330.8310,1.210444
330.0673,1.202524
329.9394,1.204389
329.8206,1.208866
329.6093,1.219786
329.4499,1.217871
329.4048,1.216923
329.3507,1.215970
329.2922,1.215019
328.4297,1.221625
328.2510,1.220704
328.1233,1.218911
327.9371,1.214703
327.6976,1.213475
327.6148,1.214854
327.5321,1.216182
327.4496,1.217408
326.7751,1.213260
326.7716,1.215302
326.7683,1.217239
326.7651,1.219123
326.4618,1.209429
326.4595,1.210768
326.4574,1.212001
326.4554,1.213183
326.4554,1.213183
326.2345,1.213592
326.0095,1.213948
325.7762,1.214197
325.7762,1.214197
325.7023,1.210893
325.6284,1.207591
325.5545,1.204288
325.5545,1.204288
325.3951,1.204250
325.2314,1.204212
325.0591,1.204172
325.0591,1.204172
325.0346,1.206502
325.0058,1.208783
324.9684,1.210955
324.9684,1.210955
324.8305,1.210680
324.6927,1.210351
324.5552,1.209917
324.5552,1.209917
324.4816,1.206780
324.4081,1.203539
324.3348,1.200243
324.3348,1.200243
324.0134,1.200566
323.6841,1.200785
323.3512,1.200946
323.3512,1.200946
323.3336,1.199300
323.3117,1.197653
323.2811,1.196002
322.3847,1.194847
322.2311,1.193169
322.0733,1.191487
321.9070,1.189805
321.1051,1.194539
321.0056,1.192871
320.8976,1.191202
320.7853,1.189532
320.1460,1.192191
319.9094,1.191255
319.7682,1.189457
319.6013,1.185253
318.8650,1.191878
318.7691,1.191853
318.6691,1.191828
318.5606,1.191803
318.5606,1.191803
318.5433,1.190320
318.5219,1.188734
318.4922,1.187092
318.4922,1.187092
318.1793,1.187501
317.9547,1.188349
317.6933,1.188771
317.6933,1.188771
317.6218,1.186173
317.5504,1.183574
317.4790,1.180974
316.6807,1.185468
315.7793,1.173673
314.7237,1.160951
310.7916,1.121731
309.4578,1.111293
308.0590,1.100271
306.6463,1.088537
305.2689,1.075963
303.9743,1.062424
302.8084,1.047793
301.8161,1.031937
301.0413,1.014730
299.4840,0.979771
298.4631,0.958860
297.2254,0.935422
295.9465,0.913554
292.9801,0.867585
292.3335,0.854907
291.4168,0.834796
291.4168,0.834796
290.2548,0.817446
289.0347,0.794509
287.9460,0.770160
285.2546,0.706274
284.4659,0.685419
283.6825,0.664275
282.8881,0.643186
282.0669,0.622515
281.2033,0.602613
281.2033,0.602613
281.1130,0.598112
280.9411,0.593164
280.8509,0.588653
280.8509,0.588653
280.1897,0.573915
279.0674,0.545579
276.6488,0.477150
275.9304,0.458502
275.1821,0.440059
272.8084,0.385588
271.9901,0.367654
271.1661,0.349763
270.3409,0.331913
269.5188,0.314057
268.7042,0.296204
268.7042,0.296204
267.9169,0.283527
267.1630,0.269163
264.9835,0.235907
264.6963,0.231164
264.4039,0.226394
262.6671,0.208092
262.4210,0.205718
262.1696,0.203278
261.6334,0.200029
261.4808,0.198492
261.3257,0.196867
261.1651,0.195180
260.7984,0.191982
259.4620,0.188647
258.2280,0.189883
257.1284,0.196149
256.1940,0.207984
255.4556,0.225878
254.1598,0.280237
253.9154,0.292367
253.6780,0.304383
253.4314,0.317102
253.1597,0.331387
252.8469,0.348110
252.4773,0.368101
252.0354,0.392222
251.5063,0.421324
250.8750,0.456275
249.4294,0.543720
249.2386,0.557868
248.9724,0.578020
248.6179,0.605424
248.1625,0.641286
247.5938,0.686824
246.5937,0.765117
246.3517,0.787042
246.0920,0.809715
245.8244,0.832905
245.5588,0.856391
245.3050,0.879944
245.0724,0.903334
244.8707,0.926342
244.7095,0.948741
244.5981,0.970305
244.2165,1.017809
243.9682,1.042461
243.7175,1.067350
243.4726,1.092285
243.2420,1.117066
243.0338,1.141506
242.8562,1.165408
242.7623,1.171235
242.7604,1.173277
242.7586,1.175213
242.7568,1.177101
242.6613,1.184805
242.5218,1.203685
242.3802,1.222459
241.7451,1.296452
241.4185,1.340357
241.1558,1.375854
240.9487,1.404067
240.7891,1.426114
240.6687,1.443117
240.1461,1.514073
240.0027,1.536454
239.8586,1.558833
239.7141,1.581212
239.5693,1.603590
239.4243,1.625970
239.2792,1.648347
239.1341,1.670726
239.0450,1.674442
238.9249,1.697154
238.8000,1.719864
##END=
