##TITLE=Thiirane
##JCAMP-DX=4.24
##DATA TYPE=UV/VIS SPECTRUM
##ORIGIN=INSTITUTE OF ENERGY PROBLEMS OF CHEMICAL PHYSICS, RAS
##OWNER=INEP CP RAS, NIST OSRD
Collection (C) 2007 copyright by the U.S. Secretary of Commerce
on behalf of the United States of America. All rights reserved.
##CAS REGISTRY NO=420-12-2
##MOLFORM=C2H4S
##BP=54/ 760 mm
##SOURCE REFERENCE=RAS UV No. 19865
##$NIST SQUIB=1971SEWi/8
##$NIST SOURCE=TYUGLMTE
##SPECTROMETER/DATA SYSTEM=Beckman DK 2
##XUNITS=Wavelength (nm)
##YUNITS=Logarithm epsilon
##XFACTOR=1.0
##YFACTOR=1.0
##FIRSTX=216.05
##LASTX=292.35
##FIRSTY=2.728
##MAXX=292.35
##MINX=216.05
##MAXY=2.728
##MINY=0.364
##NPOINTS=95
##$REF AUTHOR=Sewell, P.R.
##$REF JOURNAL=UV atlas of organic compounds
##$REF VOLUME=5
##$REF PAGE=I/8
##$REF DATE=1971
##XYPOINTS=(XY..XY)
216.05,2.728
216.59,2.694
217.15,2.656
217.76,2.616
218.37,2.571
218.98,2.524
219.60,2.479
220.23,2.434
220.85,2.390
221.48,2.345
222.12,2.296
222.75,2.253
223.39,2.206
224.04,2.153
224.69,2.106
225.34,2.063
225.99,2.016
226.65,1.971
227.32,1.924
227.98,1.884
228.66,1.837
229.33,1.792
230.01,1.745
230.69,1.705
231.38,1.666
232.07,1.621
232.77,1.587
233.47,1.555
234.17,1.525
234.88,1.500
235.59,1.476
236.31,1.455
237.03,1.440
237.76,1.429
238.49,1.425
239.22,1.425
239.96,1.427
240.70,1.427
241.45,1.431
242.20,1.436
242.96,1.442
243.72,1.446
244.49,1.455
245.26,1.461
246.04,1.468
246.82,1.474
247.61,1.483
248.40,1.491
249.20,1.495
250.00,1.504
250.81,1.512
251.62,1.521
252.44,1.530
253.26,1.538
254.09,1.544
254.92,1.553
255.76,1.555
256.61,1.559
257.46,1.562
258.31,1.562
259.18,1.562
260.04,1.557
260.92,1.555
261.80,1.549
262.68,1.540
263.57,1.534
264.47,1.523
265.38,1.508
266.29,1.493
267.20,1.468
268.12,1.442
269.05,1.410
269.99,1.378
270.93,1.342
271.88,1.303
272.83,1.263
273.80,1.222
274.76,1.177
275.74,1.137
276.72,1.081
277.71,1.032
278.71,0.987
279.71,0.936
280.72,0.889
281.74,0.844
282.77,0.798
283.80,0.751
284.84,0.704
285.89,0.657
286.95,0.608
288.01,0.554
289.08,0.509
290.16,0.460
291.25,0.411
292.35,0.364
##END=
