##TITLE=5-methoxy-2-phenyl-4H-1-benzopyran-4-one
##JCAMP-DX=4.24
##DATA TYPE=UV/VIS SPECTRUM
##ORIGIN=INSTITUTE OF ENERGY PROBLEMS OF CHEMICAL PHYSICS, RAS
##OWNER=INEP CP RAS, NIST OSRD
Collection (C) 2007 copyright by the U.S. Secretary of Commerce
on behalf of the United States of America. All rights reserved.
##CAS REGISTRY NO=42079-78-7
##MOLFORM=C16H12O3
##MP=131
##SOURCE REFERENCE=RAS UV No. 23811
##$NIST SQUIB=1974FRO/1294
##$NIST SOURCE=TYUGLMTE
##SPECTROMETER/DATA SYSTEM=Pye Unicam SP 8000
##XUNITS=Wavelength (nm)
##YUNITS=Logarithm epsilon
##XFACTOR=1.0
##YFACTOR=1.0
##FIRSTX=219.645
##LASTX=327.11
##FIRSTY=4.435
##MAXX=327.11
##MINX=219.645
##MAXY=4.435
##MINY=3.848
##NPOINTS=110
##$REF AUTHOR=Frolov, Yu.L.; et al.
##$REF JOURNAL=Izvest. Akad. Nauk SSSR, Ser. Khim.
##$REF PAGE=1294
##$REF DATE=1974
##XYPOINTS=(XY..XY)
219.645,4.435
220.645,4.433
221.645,4.421
222.645,4.402
223.645,4.379
224.645,4.354
225.645,4.328
226.645,4.302
227.645,4.277
228.645,4.252
229.645,4.228
230.645,4.205
231.645,4.183
232.645,4.161
233.645,4.139
234.645,4.116
235.645,4.094
236.645,4.071
237.645,4.049
238.560,4.031
239.560,4.012
240.560,3.997
241.560,3.987
242.560,3.981
243.560,3.980
244.560,3.983
245.560,3.990
246.560,4.000
247.560,4.013
248.560,4.027
249.560,4.043
250.560,4.060
251.560,4.078
252.560,4.098
253.560,4.118
254.353,4.144
255.353,4.158
256.353,4.184
257.353,4.215
258.353,4.248
259.353,4.280
260.353,4.308
261.353,4.332
262.353,4.350
263.353,4.364
264.353,4.373
265.353,4.379
266.353,4.381
267.208,4.383
268.208,4.381
269.208,4.375
270.208,4.368
271.208,4.359
272.208,4.350
273.208,4.340
274.208,4.330
275.208,4.318
276.208,4.305
277.208,4.289
278.208,4.268
278.226,4.268
279.226,4.243
280.226,4.215
281.226,4.187
282.226,4.162
283.226,4.138
284.226,4.118
285.226,4.102
286.226,4.089
287.226,4.079
288.226,4.071
289.226,4.064
290.226,4.059
291.226,4.053
292.182,4.045
293.182,4.043
294.182,4.035
295.182,4.022
296.182,4.004
297.182,3.983
298.182,3.959
299.182,3.934
300.182,3.910
301.182,3.888
302.182,3.870
303.182,3.857
304.182,3.849
305.182,3.848
306.139,3.850
307.139,3.852
308.139,3.858
309.139,3.868
310.139,3.881
311.139,3.897
312.139,3.914
313.139,3.933
314.139,3.952
315.139,3.971
316.139,3.990
317.139,4.007
318.139,4.022
319.139,4.034
320.139,4.043
321.139,4.047
322.139,4.047
323.139,4.042
324.110,4.030
325.110,4.014
326.110,3.998
327.110,3.983
##END=
