##TITLE=1,2'-Binaphthyl
##JCAMP-DX=4.24
##DATA TYPE=UV/VIS SPECTRUM
##ORIGIN=INSTITUTE OF ENERGY PROBLEMS OF CHEMICAL PHYSICS, RAS
##OWNER=INEP CP RAS, NIST OSRD
Collection (C) 2007 copyright by the U.S. Secretary of Commerce
on behalf of the United States of America. All rights reserved.
##CAS REGISTRY NO=4325-74-0
##MOLFORM=C20H14
##MP=76
##SOURCE REFERENCE=RAS UV No. 743
##$NIST SQUIB=1948FRI/ORC199-204
##$NIST SOURCE=TSGMTE
##SPECTROMETER/DATA SYSTEM=Beckman DU
##XUNITS=Wavelength (nm)
##YUNITS=Logarithm epsilon
##XFACTOR=1.000000
##YFACTOR=1.000000
##FIRSTX=201.3735
##LASTX=335.7657
##FIRSTY=4.50675
##MAXX=335.766
##MINX=201.374
##MAXY=4.80702
##MINY=2.86924
##NPOINTS=171
##$REF AUTHOR=Friedel, R.A.; Orchin, M.; Reggel, L.
##$REF TITLE=Steric hindrance and short wave length bands in the ultraviolet spectra of some naphthalene and diphenyl derivatives
##$REF JOURNAL=J. Am. Chem. Soc.
##$REF VOLUME=70
##$REF PAGE=199-204
##$REF DATE=1948
##XYPOINTS=(XY..XY)
201.3735,4.506749
202.7243,4.506520
204.0832,4.506212
204.4664,4.504501
204.5570,4.505881
204.6518,4.507100
204.7546,4.508241
206.8972,4.537378
207.7290,4.551036
208.5690,4.564534
209.4132,4.577952
210.8829,4.631361
211.0259,4.628306
211.0800,4.625386
211.0913,4.620100
211.3570,4.629677
211.8780,4.645541
212.4070,4.661408
212.9401,4.677276
213.6644,4.705986
214.4021,4.726529
215.2488,4.741909
216.2810,4.757914
217.5733,4.780950
218.6171,4.796742
219.5621,4.804062
220.9594,4.800965
222.2898,4.797348
224.7666,4.804710
225.8447,4.807024
226.4481,4.806272
227.9743,4.784084
228.5130,4.769892
229.0559,4.755539
229.6069,4.741107
230.8437,4.716641
231.5498,4.697480
232.2601,4.678240
232.9785,4.658839
233.7396,4.638247
234.3157,4.622700
234.8959,4.607073
235.4843,4.591286
237.0202,4.555951
237.4667,4.543558
237.9173,4.531003
238.3760,4.518370
238.3760,4.518370
238.4905,4.518405
238.6131,4.518442
238.7397,4.518480
238.7397,4.518480
238.7433,4.513624
238.7470,4.508606
238.7509,4.503507
239.9163,4.477192
240.3763,4.461975
241.0580,4.442117
242.0386,4.411715
243.0054,4.383515
243.7736,4.360625
244.5500,4.337576
245.3305,4.314446
246.4821,4.282283
246.8416,4.265548
247.4177,4.245468
248.0364,4.222480
249.1894,4.188491
249.5421,4.169047
250.2816,4.140305
250.9508,4.119252
252.2897,4.079840
252.5628,4.062335
253.1147,4.039475
253.5698,4.021780
254.4487,3.989535
255.1700,3.966293
255.6945,3.952246
256.4717,3.935352
258.4607,3.926454
259.3294,3.933183
260.2022,3.939750
261.0832,3.946239
262.5728,3.972988
263.4369,3.979485
264.1664,3.987566
265.3868,4.004154
266.9670,4.031296
267.8113,4.045431
268.6555,4.059566
269.4998,4.073701
270.6103,4.096683
271.7996,4.115022
272.8301,4.124302
274.3671,4.131787
275.6860,4.143508
277.0966,4.157867
277.8725,4.167004
278.6788,4.178746
279.7893,4.201728
281.0789,4.208502
282.3677,4.210974
283.7506,4.206574
285.0837,4.199305
285.8689,4.195131
286.5093,4.190021
287.5538,4.179593
290.0214,4.163169
291.0020,4.152465
291.6189,4.147253
292.4008,4.143064
294.3956,4.126497
294.8729,4.122406
295.6644,4.114189
296.9596,4.102796
298.3877,4.090076
299.0858,4.080789
299.7838,4.071502
300.4819,4.062215
302.5943,4.034359
303.4449,4.022818
304.3038,4.011117
305.1667,3.999336
307.1727,3.967796
307.6765,3.957977
308.1885,3.947998
308.7046,3.937939
310.0489,3.915697
310.6971,3.897438
311.2444,3.884345
312.1600,3.865193
313.3087,3.837047
314.2899,3.816562
314.8662,3.802530
315.5316,3.782925
316.7712,3.754806
317.4420,3.734187
318.1169,3.713569
318.7998,3.692954
319.6757,3.664726
320.3185,3.643747
320.9921,3.619449
321.7098,3.595570
322.4039,3.567287
322.9872,3.541149
323.5706,3.514930
324.1542,3.488548
324.9405,3.458466
325.0615,3.449722
325.1907,3.440900
325.3241,3.431916
326.9080,3.356780
327.2340,3.334217
327.5601,3.311573
327.8863,3.288767
328.6781,3.251381
328.9100,3.231428
329.1668,3.215785
329.6690,3.191043
330.2553,3.160901
330.6422,3.137166
331.0372,3.113271
331.4364,3.089297
332.0352,3.066829
332.5493,3.043133
333.0717,3.019276
333.5982,2.995340
333.9872,2.961486
334.5746,2.930871
335.1661,2.900095
335.7657,2.869240
##END=
