##TITLE=isobutyranilide
##JCAMP-DX=4.24
##DATA TYPE=UV/VIS SPECTRUM
##ORIGIN=INSTITUTE OF ENERGY PROBLEMS OF CHEMICAL PHYSICS, RAS
##OWNER=INEP CP RAS, NIST OSRD
Collection (C) 2007 copyright by the U.S. Secretary of Commerce
on behalf of the United States of America. All rights reserved.
##CAS REGISTRY NO=4406-41-1
##MOLFORM=C10H13NO
##SOURCE REFERENCE=RAS UV No. 6339
##$NIST SQUIB=1971BUT/MYE105-134
##$NIST SOURCE=TSGMTE
##SPECTROMETER/DATA SYSTEM=Beckman DK-2A
##XUNITS=Wavelength (nm)
##YUNITS=Logarithm epsilon
##XFACTOR=1.000000
##YFACTOR=1.000000
##FIRSTX=178.2391
##LASTX=269.8453
##FIRSTY=4.1079
##MAXX=269.845
##MINX=178.239
##MAXY=4.44787
##MINY=2.69264
##NPOINTS=348
##$REF AUTHOR=Butler, G.B.; Myers, G.R.
##$REF TITLE=The fundamental basis for cyclopolymerization. III. A spectroscopic study of dimethacrylamides
##$REF JOURNAL=J. Macromol. Sci. Chem.
##$REF VOLUME=5
##$REF NUMBER=1
##$REF PAGE=105-134
##$REF DATE=1971
##XYPOINTS=(XY..XY)
178.2391,4.107896
178.4599,4.106450
178.6829,4.104973
178.9103,4.103438
180.0083,4.098928
180.7577,4.099584
181.0619,4.100132
181.1818,4.101045
182.0926,4.108529
182.3064,4.110530
182.5453,4.113675
183.0142,4.120589
183.9992,4.133390
184.1788,4.136147
184.3608,4.138885
184.5472,4.141606
185.3062,4.152834
185.4868,4.155851
185.6695,4.158801
185.8567,4.161708
186.1924,4.169860
186.4516,4.175628
186.7130,4.181319
186.9789,4.186936
187.3695,4.196121
187.6113,4.201714
187.8576,4.207194
188.1061,4.212586
188.6661,4.223592
188.9440,4.230368
189.1457,4.234911
189.3456,4.240348
189.9028,4.249771
190.1346,4.255722
190.3664,4.261574
190.5980,4.267314
190.9889,4.275038
191.1579,4.279179
191.3313,4.283247
191.5069,4.287259
191.9028,4.296129
192.0726,4.300318
192.2470,4.304466
192.4236,4.308574
192.8690,4.316660
192.9860,4.320803
193.1051,4.324891
193.2286,4.328910
193.6842,4.336628
193.8414,4.340579
193.9985,4.344480
194.1555,4.348317
194.4968,4.355069
194.6874,4.359497
194.8802,4.363881
195.0775,4.368219
195.4160,4.373988
195.5661,4.377619
195.7206,4.381218
195.8775,4.384788
196.2835,4.391887
196.4507,4.395250
196.6202,4.398587
196.7942,4.401899
197.3539,4.408990
197.5093,4.411939
197.6646,4.414856
197.8198,4.417728
198.1677,4.424928
198.5391,4.430901
198.7268,4.433287
198.8917,4.434186
198.8917,4.434186
199.0695,4.438744
199.1771,4.440877
199.3069,4.442442
200.1215,4.446986
200.5861,4.447692
200.8742,4.447873
201.2328,4.447683
201.8547,4.445972
201.9903,4.444583
202.1259,4.443189
202.2615,4.441790
202.6530,4.436494
202.7145,4.434435
202.7759,4.432366
202.8374,4.430287
203.0296,4.425704
203.1176,4.422643
203.2077,4.419548
203.3023,4.416405
203.4920,4.411102
203.5517,4.408517
203.6114,4.405917
203.6710,4.403301
203.8452,4.396598
203.9041,4.393745
203.9630,4.390860
204.0217,4.387928
204.2114,4.382263
204.3001,4.379066
204.3911,4.375845
204.4866,4.372598
204.6738,4.366096
204.7136,4.363356
204.7534,4.360585
204.7931,4.357767
204.9201,4.348615
204.9808,4.345891
205.0414,4.343136
205.1019,4.340333
205.2863,4.332574
205.3768,4.326415
205.4469,4.323225
205.5564,4.320318
205.7487,4.314405
205.7995,4.310704
205.8617,4.306968
205.8860,4.295503
205.9046,4.300904
205.9457,4.292127
206.0054,4.288724
206.0650,4.285295
206.1478,4.276496
206.2005,4.273025
206.2576,4.269489
206.3169,4.265907
206.4022,4.257516
206.4421,4.253997
206.4820,4.250450
206.5218,4.246874
206.6488,4.235023
206.7067,4.230535
206.7646,4.226000
206.8225,4.221417
206.8979,4.212204
206.9558,4.207472
207.0137,4.202689
207.0716,4.197852
207.1391,4.185154
207.2185,4.183984
207.2655,4.180841
207.3207,4.172935
207.3908,4.160492
207.4514,4.156284
207.5121,4.152013
207.5726,4.147653
207.6554,4.135527
207.7071,4.130310
207.7633,4.125004
207.8217,4.119581
207.9017,4.105367
207.9534,4.099772
208.0096,4.094077
208.0680,4.088251
208.2551,4.075649
208.3130,4.069157
208.3709,4.062566
208.4288,4.055873
208.6132,4.040811
208.6733,4.034994
208.7335,4.029098
208.7937,4.023121
208.8676,4.007619
208.9547,3.999078
209.0440,3.990298
209.1378,3.981301
209.3247,3.964954
209.3827,3.956673
209.4407,3.948157
209.4986,3.939433
209.6807,3.925085
209.7378,3.915332
209.7949,3.905313
209.8518,3.894975
210.0415,3.877101
210.1312,3.867576
210.2232,3.857791
210.3195,3.847686
210.5092,3.827708
210.5668,3.814892
210.6872,3.797084
210.8883,3.784522
210.9742,3.769225
211.0604,3.753369
211.1488,3.736911
211.2418,3.719802
211.5249,3.683039
211.8614,3.661650
212.0991,3.648806
212.4416,3.633891
213.3639,3.601888
213.7261,3.595892
214.0904,3.589641
214.4592,3.583209
215.8848,3.571726
216.4271,3.571506
216.8103,3.573279
217.3629,3.578520
218.3703,3.595470
218.6396,3.602264
218.9111,3.608951
219.1872,3.615532
219.7235,3.640028
220.0186,3.653707
220.3136,3.666897
220.6085,3.679562
221.3660,3.709613
221.7267,3.723128
222.0918,3.736113
222.4592,3.748660
223.1141,3.773492
223.2947,3.780683
223.4774,3.787649
223.6646,3.794450
224.5506,3.823411
224.8774,3.833490
225.2042,3.843294
225.5308,3.852790
226.1375,3.874437
226.4125,3.882672
226.6875,3.890754
226.9625,3.898688
227.7904,3.923588
228.0279,3.931086
228.2699,3.938380
228.5141,3.945515
229.2782,3.966214
229.5026,3.973021
229.7269,3.979656
229.9511,3.986156
230.4994,4.003666
230.7236,4.009815
230.9478,4.015877
231.1721,4.021856
231.7241,4.034626
232.1164,4.045358
232.2621,4.049891
232.2863,4.052276
232.9517,4.069957
233.1689,4.075329
233.3906,4.080580
233.6144,4.085741
234.1820,4.103904
234.4094,4.110243
234.6368,4.116441
234.8641,4.122528
235.5319,4.138683
235.7880,4.143608
236.0463,4.148453
236.3090,4.153198
237.2772,4.162467
237.7977,4.165523
238.2750,4.167593
238.8803,4.169399
240.1579,4.172165
240.3579,4.171779
240.6648,4.170793
241.2483,4.169317
242.5644,4.163275
242.9032,4.160424
243.2442,4.157509
243.5896,4.154549
244.1046,4.149025
244.2551,4.146998
244.4102,4.144961
244.5675,4.142913
245.4364,4.132182
245.6039,4.129739
245.7736,4.127258
245.9476,4.124712
246.4560,4.115874
246.6208,4.112174
246.7878,4.108391
246.9593,4.104548
247.5662,4.089070
247.7572,4.083785
247.9305,4.079720
248.0565,4.075659
248.5570,4.061818
248.7581,4.055581
248.9592,4.049224
249.1601,4.042714
249.5504,4.028627
249.7125,4.022604
249.8769,4.016463
250.0456,4.010169
250.4473,3.995706
250.5709,3.988922
250.6991,3.982030
250.8295,3.975025
251.1362,3.963538
251.2971,3.956003
251.4579,3.948261
251.6187,3.940341
251.9186,3.923173
252.0101,3.915868
252.1038,3.908396
252.2020,3.900709
252.2020,3.900709
252.2731,3.900676
252.3442,3.900644
252.4153,3.900612
252.4153,3.900612
252.4418,3.897437
252.4705,3.894197
252.5036,3.890846
253.0029,3.868485
253.1951,3.857288
253.3917,3.845746
253.5905,3.833792
254.2951,3.800929
254.4450,3.790527
254.6459,3.778969
254.8896,3.766956
255.4965,3.732547
255.7979,3.717650
256.0993,3.702158
256.4005,3.685958
257.1115,3.647385
257.4155,3.632643
257.7194,3.617383
258.0234,3.601567
259.1585,3.549698
259.3256,3.540283
259.4926,3.530563
259.6595,3.520424
260.7920,3.451923
261.0307,3.440933
261.2692,3.429415
261.5076,3.417458
262.5404,3.360081
263.0708,3.330637
263.6057,3.298878
264.1427,3.264251
264.9180,3.205257
265.3663,3.171518
265.8146,3.134456
266.2628,3.093671
267.3009,2.994836
267.5733,2.964520
267.8503,2.931908
268.1295,2.896637
269.1714,2.768228
269.3931,2.745463
269.6170,2.720179
269.8453,2.692636
##END=
