##TITLE=1,1'-Biphenyl, 2,4-dimethyl-
##JCAMP-DX=4.24
##DATA TYPE=UV/VIS SPECTRUM
##ORIGIN=INSTITUTE OF ENERGY PROBLEMS OF CHEMICAL PHYSICS, RAS
##OWNER=INEP CP RAS, NIST OSRD
Collection (C) 2007 copyright by the U.S. Secretary of Commerce
on behalf of the United States of America. All rights reserved.
##CAS REGISTRY NO=4433-10-7
##MOLFORM=C14H14
##BP=144/ 20 mm
##SOURCE REFERENCE=RAS UV No. 20066
##$NIST SQUIB=1963KUS/192
##$NIST SOURCE=TYUGLMTE
##SPECTROMETER/DATA SYSTEM=unknown
##XUNITS=Wavelength (nm)
##YUNITS=Logarithm epsilon
##XFACTOR=1.0
##YFACTOR=1.0
##FIRSTX=220.34
##LASTX=269.02
##FIRSTY=4.162
##MAXX=269.02
##MINX=220.34
##MAXY=4.162
##MINY=3.256
##NPOINTS=198
##$REF AUTHOR=Kusakov, M.M.; et al.
##$REF JOURNAL=Ultraviolet Absorption Spectra of Aromatic Hydrocarbons
##$REF PAGE=192
##$REF DATE=1963
##XYPOINTS=(XY..XY)
220.34,4.162
220.47,4.154
220.59,4.145
220.72,4.137
220.85,4.128
220.97,4.120
221.06,4.110
221.19,4.102
221.31,4.093
221.48,4.085
221.61,4.075
221.74,4.067
221.86,4.058
221.99,4.050
222.12,4.040
222.24,4.032
222.37,4.024
222.50,4.015
222.62,4.007
222.79,3.998
222.92,3.990
223.05,3.981
223.22,3.973
223.39,3.964
223.51,3.956
223.73,3.947
223.89,3.939
224.11,3.931
224.32,3.923
224.57,3.917
224.83,3.911
225.12,3.905
225.46,3.900
225.84,3.897
226.22,3.895
226.60,3.895
226.99,3.898
227.37,3.900
227.70,3.904
228.04,3.908
228.38,3.914
228.68,3.919
228.97,3.925
229.27,3.931
229.57,3.936
229.86,3.941
230.12,3.947
230.41,3.953
230.71,3.958
231.01,3.963
231.30,3.970
231.60,3.976
231.90,3.982
232.19,3.989
232.49,3.994
232.78,4.000
233.08,4.006
233.38,4.011
233.67,4.016
233.97,4.021
234.31,4.027
234.65,4.032
234.99,4.037
235.32,4.040
235.62,4.046
235.96,4.050
236.30,4.054
236.64,4.058
236.98,4.062
237.31,4.066
237.70,4.067
238.03,4.070
238.42,4.071
238.75,4.074
239.13,4.076
239.52,4.076
239.90,4.077
240.28,4.078
240.66,4.078
241.04,4.078
241.42,4.077
241.80,4.077
242.18,4.076
242.56,4.075
242.94,4.073
243.33,4.071
243.71,4.069
244.09,4.066
244.47,4.064
244.81,4.059
245.15,4.056
245.53,4.053
245.87,4.049
246.20,4.045
246.59,4.042
246.92,4.036
247.26,4.032
247.60,4.027
247.94,4.021
248.28,4.016
248.62,4.011
248.96,4.006
249.29,4.000
249.59,3.994
249.89,3.989
250.18,3.982
250.48,3.976
250.78,3.970
251.03,3.963
251.28,3.957
251.54,3.951
251.79,3.943
252.05,3.937
252.26,3.930
252.51,3.922
252.77,3.915
252.98,3.907
253.23,3.900
253.49,3.893
253.70,3.885
253.91,3.878
254.12,3.870
254.33,3.863
254.54,3.856
254.76,3.847
254.97,3.840
255.18,3.831
255.39,3.824
255.56,3.815
255.77,3.808
255.98,3.800
256.20,3.792
256.36,3.784
256.58,3.775
256.79,3.768
256.96,3.759
257.13,3.751
257.34,3.743
257.51,3.734
257.72,3.727
257.89,3.718
258.10,3.711
258.27,3.702
258.48,3.694
258.69,3.685
258.82,3.677
259.03,3.670
259.20,3.661
259.41,3.654
259.58,3.645
259.75,3.637
259.96,3.628
260.17,3.620
260.34,3.611
260.56,3.603
260.72,3.595
260.89,3.586
261.06,3.578
261.23,3.569
261.44,3.561
261.66,3.552
261.83,3.544
261.99,3.535
262.21,3.528
262.38,3.520
262.59,3.512
262.76,3.504
262.93,3.495
263.14,3.488
263.31,3.479
263.52,3.471
263.73,3.463
263.90,3.454
264.11,3.446
264.32,3.437
264.49,3.429
264.70,3.421
264.87,3.413
265.00,3.404
265.21,3.397
265.38,3.389
265.59,3.381
265.76,3.373
265.97,3.365
266.19,3.357
266.36,3.348
266.61,3.341
266.78,3.333
266.99,3.325
267.20,3.317
267.41,3.309
267.63,3.301
267.84,3.293
268.05,3.286
268.26,3.279
268.51,3.271
268.77,3.264
269.02,3.256
##END=
