##TITLE=1,2-Dihydronaphthalene
##JCAMP-DX=4.24
##DATA TYPE=UV/VIS SPECTRUM
##ORIGIN=INSTITUTE OF ENERGY PROBLEMS OF CHEMICAL PHYSICS, RAS
##OWNER=INEP CP RAS, NIST OSRD
Collection (C) 2007 copyright by the U.S. Secretary of Commerce
on behalf of the United States of America. All rights reserved.
##CAS REGISTRY NO=447-53-0
##MOLFORM=C10H10
##MP=-8
##BP=206.5
##SOURCE REFERENCE=RAS UV No. 303
##$NIST SQUIB=1961HUI/JUP2332-2349
##$NIST SOURCE=TSGMTE
##SPECTROMETER/DATA SYSTEM=n.i.g.
##XUNITS=Wavelength (nm)
##YUNITS=Logarithm epsilon
##XFACTOR=1.000000
##YFACTOR=1.000000
##FIRSTX=206.7560
##LASTX=312.5405
##FIRSTY=4.32743
##MAXX=312.541
##MINX=206.756
##MAXY=4.33791
##MINY=2.56724
##NPOINTS=174
##$REF AUTHOR=Huisgen, R.; Juppe, G.
##$REF TITLE=Benzo-norcaradien-carbonsaure und benzo-cycloheptatrien-carbonsaure
##$REF JOURNAL=Chem. Ber.
##$REF VOLUME=94
##$REF PAGE=2332-2349
##$REF DATE=1961
##XYPOINTS=(XY..XY)
206.7560,4.327432
207.6082,4.326352
208.4603,4.325197
210.1327,4.304851
210.3472,4.304461
210.5766,4.303993
210.8134,4.303373
212.6829,4.317323
212.8662,4.318651
213.0646,4.319976
213.2707,4.321300
215.8622,4.337844
216.3689,4.337454
217.2339,4.337907
218.6970,4.337350
218.6970,4.337350
219.4376,4.331103
220.1782,4.324856
220.9189,4.318609
223.6670,4.268844
224.1551,4.250668
224.4338,4.242953
224.7421,4.239085
225.7964,4.178058
225.9487,4.166802
226.1084,4.155469
226.2831,4.143983
227.3600,4.095868
227.5105,4.083606
227.6686,4.071342
227.8419,4.059075
228.5715,3.988247
228.5850,3.995962
228.5983,4.003526
228.6115,4.011014
229.6693,3.971401
229.7765,3.974101
229.8838,3.976802
229.8918,3.923095
229.9539,3.913807
229.9910,3.979503
230.0309,3.904364
230.1154,3.894844
230.8700,3.838289
230.9305,3.828068
231.0060,3.817770
231.0889,3.807319
231.5649,3.747753
231.6842,3.737875
231.8034,3.727997
231.9227,3.718119
232.5336,3.657509
232.5499,3.646629
232.5737,3.635748
232.6128,3.624864
232.9552,3.567021
233.1109,3.557716
233.2739,3.548258
233.4520,3.538722
233.9334,3.482214
234.0857,3.470958
234.2455,3.459625
234.4201,3.448139
235.1945,3.402796
235.3102,3.390187
235.4334,3.377501
235.5716,3.364661
237.6371,3.334730
238.8493,3.341204
239.5814,3.355239
239.9846,3.367972
241.4920,3.428552
241.7874,3.440385
242.0902,3.452141
242.4080,3.463743
243.4756,3.507405
243.6159,3.538967
244.0272,3.564891
244.8905,3.593155
245.2137,3.622204
245.2625,3.629800
245.3433,3.616769
245.5011,3.610044
246.4243,3.649312
246.7171,3.659697
247.0173,3.669930
247.3325,3.680085
247.6458,3.702804
247.6492,3.704743
247.6524,3.706530
247.6554,3.708241
248.8297,3.734889
249.2275,3.746704
249.6329,3.758442
250.0531,3.770026
252.1261,3.822011
252.6319,3.834034
253.2682,3.846864
253.5886,3.857106
256.8199,3.907190
257.3861,3.917616
257.9598,3.927965
258.5484,3.938160
262.1698,3.976959
263.6127,3.983631
264.8891,3.986330
266.5853,3.981628
271.0735,3.949915
271.9828,3.940328
272.5544,3.932914
273.2780,3.921319
274.3998,3.898690
276.0658,3.877527
277.4467,3.853997
278.6449,3.825891
280.9676,3.767363
281.3535,3.752919
281.7466,3.738322
282.1548,3.723648
283.6339,3.671045
283.8837,3.656965
284.1408,3.642732
284.4130,3.628421
285.7046,3.566333
285.8657,3.555076
286.0419,3.543740
286.2254,3.532252
286.9902,3.481473
287.2456,3.470552
287.5085,3.459629
287.7867,3.448703
288.5437,3.393507
288.7967,3.381226
289.0572,3.368944
289.3330,3.356660
290.6293,3.297290
290.7904,3.286033
290.9666,3.274697
291.1502,3.263209
292.4411,3.200781
292.6959,3.189520
292.9582,3.178258
293.2358,3.166992
294.5758,3.113054
294.8288,3.100773
295.0894,3.088491
295.3651,3.076207
296.6662,3.019556
296.9192,3.007275
297.1798,2.994993
297.4555,2.982709
299.3169,2.914403
299.5422,2.906534
299.7674,2.898589
299.9923,2.890492
302.2954,2.820751
302.7280,2.808439
303.1757,2.796124
303.6311,2.783808
306.0887,2.724237
306.5464,2.712500
307.0038,2.700611
307.4610,2.688648
308.5259,2.653112
308.5295,2.655138
308.5329,2.657089
308.5361,2.658889
310.6809,2.596312
310.7126,2.594167
310.7515,2.591869
310.8056,2.589493
310.8056,2.589493
311.8727,2.579651
312.5405,2.567235
##END=
