##TITLE=1,4-Methanonaphthalene, 1,2,3,4-tetrahydro-
##JCAMP-DX=4.24
##DATA TYPE=UV/VIS SPECTRUM
##ORIGIN=INSTITUTE OF ENERGY PROBLEMS OF CHEMICAL PHYSICS, RAS
##OWNER=INEP CP RAS, NIST OSRD
Collection (C) 2007 copyright by the U.S. Secretary of Commerce
on behalf of the United States of America. All rights reserved.
##CAS REGISTRY NO=4486-29-7
##MOLFORM=C11H12
##SOURCE REFERENCE=RAS UV No. 22424
##$NIST SQUIB=1977YOS/1057
##$NIST SOURCE=TYUGLMTE
##SPECTROMETER/DATA SYSTEM=Hitachi ERS-3T
##XUNITS=Wavelength (nm)
##YUNITS=Logarithm epsilon
##XFACTOR=1.0
##YFACTOR=1.0
##FIRSTX=219.206
##LASTX=274.841
##FIRSTY=3.017
##MAXX=274.841
##MINX=219.206
##MAXY=3.047
##MINY=1.394
##NPOINTS=103
##$REF AUTHOR=Yoshikawa, K.; et al.
##$REF JOURNAL=J. Chem. Soc., Perkin. Trans. II
##$REF PAGE=1057
##$REF DATE=1977
##XYPOINTS=(XY..XY)
219.206,3.017
219.706,2.907
220.206,2.798
220.706,2.691
221.206,2.586
221.706,2.483
222.206,2.385
222.706,2.290
223.206,2.200
223.706,2.115
224.206,2.035
224.706,1.960
225.206,1.891
225.706,1.828
226.206,1.770
226.632,1.715
227.132,1.685
227.632,1.638
228.132,1.584
228.632,1.529
229.132,1.480
229.632,1.441
230.132,1.412
230.632,1.397
231.132,1.394
231.632,1.402
232.132,1.420
232.632,1.446
233.132,1.477
233.632,1.511
234.132,1.546
234.632,1.581
235.132,1.615
235.631,1.646
236.131,1.682
236.631,1.723
237.131,1.766
237.631,1.811
238.131,1.854
238.631,1.896
239.131,1.934
239.631,1.970
240.131,2.003
240.631,2.033
241.131,2.061
241.631,2.089
242.131,2.118
242.631,2.150
244.066,2.244
245.543,2.309
247.337,2.395
249.393,2.492
251.006,2.549
251.096,2.553
251.596,2.575
252.096,2.597
252.596,2.620
253.096,2.644
253.596,2.668
254.096,2.691
254.596,2.712
255.096,2.731
255.596,2.747
256.096,2.759
256.596,2.764
257.096,2.762
257.561,2.751
258.061,2.733
258.561,2.713
259.061,2.708
259.561,2.729
260.007,2.768
260.507,2.829
261.007,2.884
261.507,2.926
262.007,2.952
262.507,2.960
263.007,2.951
263.400,2.936
263.900,2.902
264.400,2.873
264.900,2.846
265.400,2.817
265.900,2.781
266.400,2.735
266.526,2.722
267.026,2.690
267.526,2.699
267.958,2.745
268.458,2.969
268.958,3.047
269.458,3.043
269.863,3.019
270.363,2.946
270.863,2.881
271.363,2.811
271.863,2.732
272.363,2.640
272.863,2.537
273.363,2.429
273.841,2.331
274.341,2.209
274.841,2.052
##END=
