##TITLE=2-Chloro-5-nitropyridine
##JCAMP-DX=4.24
##DATA TYPE=UV/VIS SPECTRUM
##ORIGIN=INSTITUTE OF ENERGY PROBLEMS OF CHEMICAL PHYSICS, RAS
##OWNER=INEP CP RAS, NIST OSRD
Collection (C) 2007 copyright by the U.S. Secretary of Commerce
on behalf of the United States of America. All rights reserved.
##CAS REGISTRY NO=4548-45-2
##MOLFORM=C5H3ClN2O2
##MP=107-108
##SOURCE REFERENCE=RAS UV No. 14582
##$NIST SQUIB=1968TOM/SKR0795
##$NIST SOURCE=TYUGLMTE
##SPECTROMETER/DATA SYSTEM=Unicam SP 700
##XUNITS=Wavelength (nm)
##YUNITS=Logarithm epsilon
##XFACTOR=1.0
##YFACTOR=1.0
##FIRSTX=200.84
##LASTX=351.36
##FIRSTY=3.856
##MAXX=351.36
##MINX=200.84
##MAXY=4.012
##MINY=2.278
##NPOINTS=99
##$REF AUTHOR=Tomazik, P.; Skrowaczewska, Z.
##$REF JOURNAL=Roczniki Chem.
##$REF VOLUME=42
##$REF PAGE=0795
##$REF DATE=1968
##XYPOINTS=(XY..XY)
200.84,3.856
202.72,3.959
203.35,3.967
205.28,3.994
205.93,4.002
206.58,4.007
207.90,4.009
208.57,4.012
209.24,4.009
209.92,4.009
210.60,4.004
211.97,3.987
212.67,3.972
214.07,3.931
214.77,3.901
215.49,3.861
216.20,3.833
216.92,3.798
217.65,3.748
218.38,3.735
219.12,3.680
219.86,3.652
220.60,3.645
222.11,3.614
223.64,3.604
225.19,3.597
226.76,3.597
227.55,3.604
228.35,3.619
229.97,3.637
231.61,3.665
235.81,3.733
237.53,3.763
240.16,3.791
241.05,3.803
242.86,3.818
243.77,3.823
248.42,3.856
250.34,3.861
251.30,3.866
253.26,3.869
254.25,3.869
255.25,3.869
257.27,3.858
259.32,3.848
261.41,3.836
262.47,3.823
264.60,3.818
266.77,3.821
275.83,3.871
278.19,3.876
280.59,3.874
283.03,3.861
284.27,3.846
285.52,3.821
286.78,3.783
288.05,3.768
289.33,3.705
290.63,3.630
291.93,3.572
293.25,3.514
294.58,3.463
295.92,3.408
297.27,3.330
298.64,3.270
300.02,3.237
301.41,3.162
302.81,3.104
304.23,3.046
305.66,2.983
307.10,2.923
308.56,2.865
310.03,2.835
311.52,2.809
313.02,2.764
314.53,2.739
316.06,2.731
317.60,2.706
319.16,2.679
320.74,2.653
322.33,2.618
323.93,2.590
325.56,2.570
327.20,2.550
328.85,2.543
330.52,2.520
331.08,2.512
331.65,2.507
332.21,2.502
332.78,2.497
333.35,2.492
333.92,2.487
340.92,2.412
342.12,2.389
344.54,2.369
346.37,2.346
348.23,2.324
350.10,2.301
351.36,2.278
##END=
