##TITLE=3,3,4,4,5,5-hexafluoro-3,4,5,6-tetrahydro-6-imino-2-pyridinamine
##JCAMP-DX=4.24
##DATA TYPE=UV/VIS SPECTRUM
##ORIGIN=INSTITUTE OF ENERGY PROBLEMS OF CHEMICAL PHYSICS, RAS
##OWNER=INEP CP RAS, NIST OSRD
Collection (C) 2007 copyright by the U.S. Secretary of Commerce
on behalf of the United States of America. All rights reserved.
##CAS REGISTRY NO=4556-39-2
##MOLFORM=C5H3F6N3
##MP=159 dec.
##SOURCE REFERENCE=RAS UV No. 22465
##$NIST SQUIB=1977DOL/1387
##$NIST SOURCE=TYUGLMTE
##SPECTROMETER/DATA SYSTEM=SF-8
##XUNITS=Wavelength (nm)
##YUNITS=Logarithm epsilon
##XFACTOR=1.0
##YFACTOR=1.0
##FIRSTX=202.028
##LASTX=298.082
##FIRSTY=2.572
##MAXX=298.082
##MINX=202.028
##MAXY=4.197
##MINY=2.508
##NPOINTS=97
##$REF AUTHOR=Dolgopolskii, I.M.; et al.
##$REF JOURNAL=Zhur. Organ. Khim.
##$REF VOLUME=13
##$REF PAGE=1387
##$REF DATE=1977
##XYPOINTS=(XY..XY)
202.028,2.572
203.028,2.539
204.028,2.517
205.028,2.508
206.028,2.515
207.028,2.539
208.028,2.579
209.028,2.634
210.028,2.699
211.028,2.772
212.028,2.849
213.028,2.929
214.028,3.009
215.028,3.089
216.028,3.167
217.028,3.244
218.028,3.318
219.028,3.391
220.028,3.461
221.028,3.528
222.028,3.594
223.028,3.658
224.180,3.722
225.180,3.791
226.180,3.848
227.180,3.895
228.180,3.935
229.180,3.970
230.180,4.000
231.180,4.027
232.180,4.050
233.180,4.071
234.180,4.089
235.180,4.105
236.180,4.120
237.180,4.132
238.180,4.144
239.180,4.154
240.180,4.162
241.180,4.170
242.180,4.176
243.180,4.182
244.180,4.186
245.180,4.190
246.180,4.193
247.180,4.195
248.180,4.196
249.180,4.197
250.180,4.197
251.180,4.196
252.180,4.195
253.180,4.194
254.180,4.191
255.180,4.189
256.180,4.185
257.180,4.182
258.180,4.177
259.180,4.173
260.047,4.168
261.032,4.163
262.032,4.157
263.032,4.150
264.032,4.143
265.032,4.134
266.032,4.122
267.032,4.107
268.032,4.089
269.032,4.067
270.032,4.041
271.032,4.011
272.032,3.977
273.032,3.938
274.032,3.893
275.032,3.844
276.032,3.790
277.032,3.731
278.082,3.666
279.082,3.595
280.082,3.530
281.082,3.470
282.082,3.415
283.082,3.365
284.082,3.319
285.082,3.275
286.082,3.234
287.082,3.192
288.082,3.151
289.082,3.108
290.082,3.065
291.082,3.022
292.082,2.978
293.082,2.936
294.082,2.896
295.082,2.860
296.082,2.827
297.082,2.796
298.082,2.763
##END=
