##TITLE=4-Pyridinethiol
##JCAMP-DX=4.24
##DATA TYPE=UV/VIS SPECTRUM
##ORIGIN=INSTITUTE OF ENERGY PROBLEMS OF CHEMICAL PHYSICS, RAS
##OWNER=INEP CP RAS, NIST OSRD
Collection (C) 2007 copyright by the U.S. Secretary of Commerce
on behalf of the United States of America. All rights reserved.
##CAS REGISTRY NO=4556-23-4
##MOLFORM=C5H5NS
##MP=177 dec
##SOURCE REFERENCE=RAS UV No. 12944
##$NIST SQUIB=1959ALB/BAR2384
##$NIST SOURCE=TYUGLMTE
##SPECTROMETER/DATA SYSTEM=n.i.g.
##XUNITS=Wavelength (nm)
##YUNITS=Logarithm epsilon
##XFACTOR=1.0
##YFACTOR=1.0
##FIRSTX=220.03
##LASTX=381.13
##FIRSTY=3.99
##MAXX=381.13
##MINX=220.03
##MAXY=4.374
##MINY=2.293
##NPOINTS=100
##$REF AUTHOR=Albert, A.; Barlin, G.B.
##$REF JOURNAL=J. Chem. Soc.
##$REF PAGE=2384
##$REF DATE=1959
##XYPOINTS=(XY..XY)
220.03,3.990
222.06,4.025
224.38,4.060
226.71,4.088
229.32,4.088
231.64,4.060
233.38,4.018
234.83,3.962
235.99,3.906
236.87,3.851
237.16,3.788
237.45,3.725
238.03,3.662
238.61,3.599
239.19,3.536
239.48,3.473
240.06,3.411
240.93,3.348
241.80,3.285
243.25,3.229
245.28,3.187
247.61,3.159
250.22,3.145
252.83,3.145
255.44,3.152
257.76,3.180
260.38,3.201
262.70,3.222
265.02,3.243
267.63,3.250
269.96,3.271
272.57,3.285
274.89,3.306
277.50,3.320
279.54,3.355
281.57,3.390
283.31,3.432
285.05,3.473
286.79,3.515
288.53,3.564
289.99,3.613
291.44,3.669
292.89,3.725
294.34,3.781
295.79,3.830
297.24,3.878
298.40,3.934
299.85,3.983
301.31,4.039
302.76,4.095
304.50,4.144
306.24,4.193
308.27,4.235
310.30,4.270
312.34,4.304
314.66,4.339
316.98,4.367
319.59,4.374
322.21,4.367
324.53,4.339
326.56,4.297
328.59,4.256
330.33,4.214
332.08,4.165
333.82,4.116
335.27,4.060
336.43,4.004
337.88,3.948
339.04,3.892
339.91,3.837
341.36,3.788
342.24,3.725
343.11,3.669
344.27,3.613
345.43,3.557
346.30,3.501
347.17,3.446
348.04,3.390
349.20,3.334
350.07,3.278
351.23,3.222
352.39,3.166
353.56,3.110
354.72,3.054
356.17,3.006
357.33,2.950
358.78,2.894
360.23,2.845
361.68,2.789
363.13,2.740
364.59,2.684
366.33,2.642
368.07,2.594
369.81,2.545
371.84,2.503
373.88,2.468
375.91,2.426
377.65,2.377
379.39,2.335
381.13,2.293
##END=
