##TITLE=1-fluoro-3-methoxybenzene
##JCAMP-DX=4.24
##DATA TYPE=UV/VIS SPECTRUM
##ORIGIN=INSTITUTE OF ENERGY PROBLEMS OF CHEMICAL PHYSICS, RAS
##OWNER=INEP CP RAS, NIST OSRD
Collection (C) 2007 copyright by the U.S. Secretary of Commerce
on behalf of the United States of America. All rights reserved.
##CAS REGISTRY NO=456-49-5
##MOLFORM=C7H7FO
##BP=159
##SOURCE REFERENCE=RAS UV No. 22556
##$NIST SQUIB=1977ROM/975
##$NIST SOURCE=TYUGLMTE
##SPECTROMETER/DATA SYSTEM=Perkin-Elmer 450
##XUNITS=Wavelength (nm)
##YUNITS=Logarithm epsilon
##XFACTOR=1.0
##YFACTOR=1.0
##FIRSTX=218.069
##LASTX=279.47
##FIRSTY=3.541
##MAXX=279.47
##MINX=218.069
##MAXY=3.541
##MINY=1.546
##NPOINTS=129
##$REF AUTHOR=Romm, I.P.; et al.
##$REF JOURNAL=Zhur. Obshchei Khim.
##$REF VOLUME=47
##$REF PAGE=975
##$REF DATE=1977
##XYPOINTS=(XY..XY)
218.069,3.541
218.069,3.519
218.166,3.511
218.666,3.422
219.166,3.325
219.666,3.221
220.166,3.110
220.666,2.995
221.166,2.880
221.666,2.773
222.166,2.682
222.177,2.688
222.677,2.612
223.177,2.533
223.677,2.451
224.177,2.365
224.677,2.277
225.177,2.185
225.677,2.091
226.177,1.996
226.677,1.901
227.177,1.809
227.677,1.724
228.177,1.651
228.677,1.594
229.177,1.559
229.677,1.546
230.177,1.554
230.677,1.579
231.177,1.614
231.677,1.656
232.177,1.701
232.677,1.747
233.177,1.792
233.677,1.835
234.177,1.877
234.677,1.916
235.177,1.954
235.677,1.990
236.177,2.024
236.677,2.058
237.177,2.090
237.677,2.122
238.177,2.154
238.677,2.185
239.177,2.216
239.677,2.247
240.177,2.278
240.677,2.310
241.177,2.341
241.677,2.373
242.177,2.404
242.677,2.436
243.177,2.468
243.677,2.499
244.177,2.530
244.677,2.561
245.064,2.584
245.564,2.617
246.064,2.642
246.564,2.665
247.064,2.685
247.564,2.705
248.064,2.725
248.564,2.745
249.064,2.767
249.564,2.790
250.064,2.813
250.564,2.836
251.064,2.859
251.564,2.882
252.064,2.905
252.564,2.927
253.064,2.947
253.564,2.967
254.064,2.986
254.564,3.004
255.064,3.022
255.564,3.039
256.064,3.056
256.564,3.074
256.606,3.077
257.106,3.094
257.606,3.108
258.106,3.118
258.606,3.126
259.106,3.131
259.606,3.135
260.106,3.136
260.606,3.138
261.106,3.139
261.606,3.142
262.106,3.149
262.606,3.160
263.061,3.174
263.561,3.200
264.061,3.219
264.561,3.231
265.061,3.236
265.561,3.231
266.061,3.215
266.093,3.213
266.593,3.174
267.093,3.135
267.593,3.099
268.093,3.069
268.593,3.048
269.093,3.041
269.593,3.047
270.093,3.067
270.495,3.090
270.995,3.133
271.495,3.181
271.995,3.194
272.495,3.158
272.995,3.077
273.470,2.995
273.970,2.914
274.470,2.832
274.970,2.751
275.470,2.672
275.970,2.596
276.470,2.523
276.970,2.455
277.470,2.389
277.970,2.323
278.470,2.249
278.970,2.158
279.470,2.025
##END=
