##TITLE=p-Bromofluorobenzene
##JCAMP-DX=4.24
##DATA TYPE=UV/VIS SPECTRUM
##ORIGIN=INSTITUTE OF ENERGY PROBLEMS OF CHEMICAL PHYSICS, RAS
##OWNER=INEP CP RAS, NIST OSRD
Collection (C) 2007 copyright by the U.S. Secretary of Commerce
on behalf of the United States of America. All rights reserved.
##CAS REGISTRY NO=460-00-4
##MOLFORM=C6H4BrF
##MP=-17.4
##BP=151.5
##SOURCE REFERENCE=RAS UV No. 8993
##$NIST SQUIB=1966PER/SCHd9/27C
##$NIST SOURCE=TSGMTE
##SPECTROMETER/DATA SYSTEM=Zeiss MM12 or Zeiss PMQ II
##XUNITS=Wavelength (nm)
##YUNITS=Logarithm epsilon
##XFACTOR=1.000000
##YFACTOR=1.000000
##FIRSTX=284.8995
##LASTX=184.5700
##FIRSTY=1.73046
##MAXX=284.899
##MINX=184.57
##MAXY=4.62806
##MINY=1.73046
##NPOINTS=266
##$REF AUTHOR=Perkampus, H.-H.; Schmiele, C.; Braunschweig, T.H.
##$REF TITLE=p-Bromofluorobenzene
##$REF BOOK TITLE=UV Atlas of Organic Compounds - Vol. 2
##$REF PAGE=D9/27
##$REF DATE=1966
##$REF PUBLISHER=Plenum Press
##$REF LOCATION=New York
##XYPOINTS=(XY..XY)
284.8995,1.730462
284.7221,1.772021
284.5537,1.811520
284.3939,1.849085
284.2420,1.884842
284.0977,1.918918
283.9603,1.951437
283.8293,1.982527
283.7043,2.012312
283.5847,2.040921
283.4700,2.068477
283.3598,2.095108
283.2535,2.120939
283.1506,2.146097
283.0506,2.170707
282.9531,2.194896
282.8575,2.218790
282.7634,2.242515
282.6702,2.266197
282.5776,2.289961
282.4848,2.313935
282.3916,2.338244
282.2974,2.363014
282.2017,2.388371
282.1040,2.414441
282.0039,2.441351
281.9009,2.469226
281.7945,2.498193
281.6842,2.528377
281.5695,2.559905
281.4500,2.592903
281.3253,2.627496
281.1947,2.663812
281.0580,2.701975
280.9145,2.742112
280.7639,2.784349
280.6056,2.828812
280.4393,2.875627
280.2645,2.924921
280.0807,2.976819
280.0807,2.976819
279.9398,2.978364
279.7989,2.979852
279.6713,3.003569
279.6669,2.996121
279.6625,2.988673
279.6581,2.981225
279.6581,2.981225
279.3155,2.982285
279.1736,2.980939
279.0317,2.979478
278.8900,2.977960
278.8900,2.977960
278.5215,2.939591
278.2026,2.900651
277.9244,2.861312
277.6783,2.821748
277.4554,2.782133
277.4554,2.782133
277.3321,2.756271
276.8947,2.713203
275.9149,2.684685
275.9149,2.684685
275.7779,2.685907
275.6409,2.687014
275.5041,2.688064
275.5041,2.688064
275.0635,2.723107
274.7002,2.758256
274.4011,2.793476
274.1535,2.828728
273.9449,2.863976
273.7627,2.899184
273.5945,2.934314
273.4281,2.969330
273.2511,3.004195
273.2511,3.004195
273.1498,3.005736
273.0400,3.007222
272.9259,3.008593
272.9259,3.008593
272.2904,3.008505
271.7120,3.006470
271.1040,3.000044
271.1040,3.000044
270.5795,2.959454
270.1617,2.918163
269.7738,2.876412
269.3401,2.834444
268.7859,2.792502
268.7859,2.792502
268.4455,2.790406
268.2474,2.789894
268.0212,2.790526
268.0212,2.790526
267.6201,2.804361
267.3600,2.811047
267.0176,2.816314
267.0176,2.816314
266.7824,2.832929
266.4828,2.850463
265.9782,2.863681
265.9782,2.863681
265.8081,2.863433
265.6302,2.863128
265.4483,2.862710
265.4483,2.862710
264.9534,2.843623
264.6953,2.835527
264.4519,2.831481
264.4519,2.831481
262.9178,2.743422
261.9397,2.688984
261.3889,2.659761
261.1441,2.647344
261.0874,2.643328
261.0874,2.643328
259.2204,2.615121
257.9546,2.581071
257.0670,2.543223
256.3454,2.503623
256.3454,2.503623
255.7311,2.474718
254.6620,2.418242
253.8272,2.376522
253.8272,2.376522
252.3528,2.349744
251.0736,2.317239
250.2193,2.282686
250.2193,2.282686
249.5404,2.262791
248.9431,2.234668
248.3853,2.208938
248.3853,2.208938
248.1299,2.207932
247.9061,2.205495
247.5227,2.199539
247.3960,2.199555
245.1021,2.209933
243.6581,2.233791
242.6705,2.265875
241.7672,2.300936
241.7672,2.300936
241.4940,2.310150
241.1899,2.323763
240.9081,2.333150
240.9081,2.333150
240.3522,2.363513
239.8084,2.393902
239.2762,2.424315
238.7551,2.454751
238.2447,2.485211
237.7446,2.515692
237.2543,2.546194
236.7733,2.576717
236.3013,2.607260
235.8378,2.637822
235.3824,2.668401
234.9348,2.698999
234.4945,2.729613
234.0611,2.760243
233.6344,2.790889
233.2138,2.821549
232.7990,2.852223
232.3897,2.882909
231.9855,2.913608
231.5860,2.944319
231.1910,2.975040
230.8000,3.005772
230.4127,3.036512
230.0288,3.067261
229.6480,3.098019
229.2699,3.128782
228.8942,3.159553
228.5206,3.190328
228.1487,3.221109
227.7784,3.251894
227.4092,3.282682
227.0408,3.313472
226.6731,3.344264
226.3056,3.375058
225.9381,3.405851
225.5703,3.436644
225.2019,3.467436
225.2019,3.467436
224.8088,3.499799
224.2381,3.546106
223.5991,3.589823
222.9987,3.614416
222.9987,3.614416
222.8608,3.624891
222.7202,3.635252
222.5741,3.645557
222.5741,3.645557
221.3735,3.682247
220.2946,3.719492
219.2095,3.756510
219.2095,3.756510
218.9871,3.774973
218.3984,3.808953
217.5687,3.844364
216.6220,3.867121
215.6787,3.863139
215.6787,3.863139
215.3661,3.863190
215.0517,3.863240
214.7330,3.863292
214.7330,3.863292
213.2420,3.875385
211.3131,3.878910
209.4077,3.874395
207.9565,3.862368
207.9565,3.862368
206.0735,3.853401
204.0943,3.849481
202.3011,3.862085
202.3011,3.862085
201.5705,3.882071
200.7429,3.908354
200.2804,3.933086
200.2804,3.933086
199.7228,3.962241
199.5119,3.995612
199.1008,4.021145
199.1008,4.021145
198.8388,4.053574
198.5858,4.086035
198.3408,4.118520
198.1024,4.151019
197.8697,4.183526
197.6413,4.216032
197.4162,4.248530
197.1932,4.281010
196.9713,4.313466
196.7492,4.345889
196.5260,4.378271
196.3004,4.410605
196.0715,4.442882
195.8382,4.475094
195.5993,4.507233
195.5993,4.507233
195.2548,4.539476
194.8455,4.570961
194.2979,4.598408
193.5405,4.618534
192.5051,4.628059
191.1286,4.623700
191.1286,4.623700
189.9765,4.599994
188.8342,4.570945
187.7952,4.538505
186.9491,4.504630
186.9491,4.504630
186.9368,4.502245
186.9204,4.499746
186.9020,4.497191
186.9020,4.497191
186.8565,4.497201
186.8091,4.497211
186.7576,4.497222
186.7576,4.497222
186.1467,4.472469
185.5490,4.445316
184.8811,4.420577
184.8811,4.420577
184.5700,4.402438
##END=
