##TITLE=1,3-Butadiyne
##JCAMP-DX=4.24
##DATA TYPE=UV/VIS SPECTRUM
##ORIGIN=INSTITUTE OF ENERGY PROBLEMS OF CHEMICAL PHYSICS, RAS
##OWNER=INEP CP RAS, NIST OSRD
Collection (C) 2007 copyright by the U.S. Secretary of Commerce
on behalf of the United States of America. All rights reserved.
##CAS REGISTRY NO=460-12-8
##MOLFORM=C4H2
##MP=10
##SOURCE REFERENCE=RAS UV No. 20172
##$NIST SQUIB=1969FIH/172
##$NIST SOURCE=TYUGLMTE
##SPECTROMETER/DATA SYSTEM=SF-4
##XUNITS=Wavelength (nm)
##YUNITS=Logarithm epsilon
##XFACTOR=1.0
##YFACTOR=1.0
##FIRSTX=216.75
##LASTX=258.59
##FIRSTY=2.504
##MAXX=258.59
##MINX=216.75
##MAXY=2.72
##MINY=1.395
##NPOINTS=150
##$REF AUTHOR=Fihtengolts, V.S.; et al.
##$REF JOURNAL=Atlas of UV Absorption Spectra of Substances Used in Synthetic Rubber Manufacture
##$REF PAGE=172
##$REF DATE=1969
##XYPOINTS=(XY..XY)
216.75,2.504
217.05,2.511
217.35,2.519
217.67,2.527
217.94,2.534
218.24,2.540
218.54,2.548
218.80,2.556
219.05,2.562
219.35,2.571
219.65,2.578
219.87,2.584
220.16,2.593
220.37,2.601
220.63,2.609
220.84,2.618
221.09,2.627
221.27,2.634
221.48,2.642
221.74,2.648
222.00,2.655
222.25,2.661
222.55,2.666
222.89,2.670
223.26,2.673
223.62,2.675
224.00,2.674
224.34,2.669
224.60,2.663
224.90,2.657
225.15,2.650
225.36,2.643
225.62,2.635
225.83,2.627
226.09,2.620
226.43,2.615
226.73,2.609
227.07,2.605
227.45,2.601
227.84,2.600
228.18,2.604
228.52,2.608
228.86,2.613
229.20,2.618
229.55,2.623
229.84,2.628
230.14,2.634
230.40,2.641
230.65,2.648
230.91,2.655
231.17,2.661
231.38,2.668
231.64,2.674
231.85,2.680
232.06,2.687
232.32,2.692
232.57,2.699
232.83,2.705
233.17,2.710
233.47,2.714
233.81,2.718
234.15,2.720
234.54,2.718
234.88,2.715
235.18,2.711
235.43,2.705
235.69,2.700
235.90,2.693
236.16,2.687
236.37,2.679
236.58,2.672
236.77,2.665
236.97,2.657
237.18,2.649
237.39,2.642
237.61,2.633
237.77,2.624
237.95,2.616
238.12,2.607
238.29,2.598
238.46,2.590
238.63,2.580
238.81,2.571
239.00,2.562
239.21,2.552
239.42,2.542
239.61,2.533
239.82,2.523
240.04,2.513
240.25,2.504
240.46,2.493
240.68,2.483
240.89,2.473
241.15,2.462
241.40,2.451
241.66,2.439
241.92,2.431
242.26,2.420
242.59,2.411
242.94,2.405
243.28,2.399
243.66,2.394
244.05,2.390
244.41,2.387
244.82,2.388
245.16,2.394
245.50,2.399
245.88,2.401
246.27,2.399
246.61,2.390
246.91,2.381
247.12,2.367
247.37,2.354
247.57,2.340
247.79,2.326
248.06,2.309
248.31,2.293
248.57,2.279
248.82,2.262
249.08,2.244
249.34,2.226
249.59,2.209
249.85,2.192
250.13,2.173
250.39,2.153
250.66,2.136
250.91,2.116
251.17,2.094
251.43,2.072
251.73,2.052
252.02,2.027
252.36,2.005
252.71,1.982
252.99,1.956
253.35,1.927
253.69,1.899
254.03,1.869
254.37,1.844
254.67,1.820
255.05,1.788
255.39,1.758
255.73,1.725
256.08,1.698
256.41,1.665
256.80,1.619
257.14,1.573
257.38,1.542
257.87,1.493
258.14,1.455
258.59,1.395
##END=
