##TITLE=2,4-Imidazolidinedione
##JCAMP-DX=4.24
##DATA TYPE=UV/VIS SPECTRUM
##ORIGIN=INSTITUTE OF ENERGY PROBLEMS OF CHEMICAL PHYSICS, RAS
##OWNER=INEP CP RAS, NIST OSRD
Collection (C) 2007 copyright by the U.S. Secretary of Commerce
on behalf of the United States of America. All rights reserved.
##CAS REGISTRY NO=461-72-3
##MOLFORM=C3H4N2O2
##MP=220-222
##SOURCE REFERENCE=RAS UV No. 19959
##$NIST SQUIB=1966JOHb11/5
##$NIST SOURCE=TYUGLMTE
##SPECTROMETER/DATA SYSTEM=Unicam SP 500
##XUNITS=Wavelength (nm)
##YUNITS=Logarithm epsilon
##XFACTOR=1.0
##YFACTOR=1.0
##FIRSTX=191.81
##LASTX=254.44
##FIRSTY=3.775
##MAXX=254.44
##MINX=191.81
##MAXY=3.775
##MINY=1.1
##NPOINTS=113
##$REF AUTHOR=Johnson, E.A.
##$REF JOURNAL=UV atlas of organic compounds
##$REF VOLUME=1
##$REF PAGE=B11/5
##$REF DATE=1966
##XYPOINTS=(XY..XY)
191.81,3.775
191.89,3.772
191.97,3.768
192.05,3.765
192.13,3.762
192.21,3.760
192.29,3.757
192.37,3.754
192.44,3.751
192.52,3.748
192.60,3.746
192.68,3.743
192.76,3.740
192.84,3.736
192.92,3.733
193.24,3.728
193.72,3.712
194.20,3.699
194.69,3.690
195.18,3.683
195.67,3.680
196.16,3.675
196.65,3.672
197.15,3.664
197.65,3.662
198.15,3.662
198.66,3.664
199.17,3.666
199.68,3.666
200.19,3.667
200.71,3.669
201.22,3.669
201.74,3.669
202.27,3.667
202.79,3.667
203.32,3.667
203.86,3.666
204.39,3.664
204.93,3.659
205.47,3.658
206.01,3.653
206.56,3.650
207.11,3.641
207.66,3.635
208.21,3.629
208.77,3.621
209.33,3.611
209.90,3.601
210.46,3.590
211.03,3.577
211.60,3.561
212.18,3.547
212.76,3.532
213.34,3.516
213.93,3.500
214.52,3.481
215.11,3.463
215.70,3.447
216.30,3.441
216.91,3.426
217.51,3.405
218.12,3.383
218.73,3.363
219.35,3.342
219.97,3.318
220.59,3.296
221.22,3.272
221.85,3.251
222.48,3.225
223.12,3.199
223.76,3.177
224.40,3.148
225.05,3.122
225.70,3.096
226.36,3.071
227.02,3.043
227.68,3.014
228.35,2.984
229.02,2.953
229.69,2.923
230.37,2.892
231.05,2.860
231.74,2.828
232.43,2.796
233.13,2.760
233.83,2.728
234.53,2.690
235.24,2.651
235.95,2.611
236.67,2.568
237.39,2.526
238.11,2.474
238.84,2.426
239.58,2.373
240.32,2.320
241.06,2.270
241.81,2.211
242.56,2.156
243.32,2.103
244.08,2.040
244.85,1.979
245.62,1.920
246.40,1.850
247.18,1.780
247.96,1.711
248.76,1.640
249.55,1.576
250.35,1.502
251.16,1.415
251.97,1.341
252.79,1.273
253.61,1.186
254.44,1.100
##END=
