##TITLE=Benzene, fluoro-
##JCAMP-DX=4.24
##DATA TYPE=UV/VIS SPECTRUM
##ORIGIN=INSTITUTE OF ENERGY PROBLEMS OF CHEMICAL PHYSICS, RAS
##OWNER=INEP CP RAS, NIST OSRD
Collection (C) 2007 copyright by the U.S. Secretary of Commerce
on behalf of the United States of America. All rights reserved.
##CAS REGISTRY NO=462-06-6
##MOLFORM=C6H5F
##MP=- 42.2
##BP=84.7
##SOURCE REFERENCE=RAS UV No. 11510
##$NIST SQUIB=1952BOW/BRA1068
##$NIST SOURCE=TYUGLMTE
##SPECTROMETER/DATA SYSTEM=Hilger, Beckman spectrophotometer
##XUNITS=Wavelength (nm)
##YUNITS=Logarithm epsilon
##XFACTOR=1.0
##YFACTOR=1.0
##FIRSTX=200.95
##LASTX=267.72
##FIRSTY=3.754
##MAXX=267.72
##MINX=200.95
##MAXY=3.787
##MINY=1.853
##NPOINTS=113
##$REF AUTHOR=Bowden, K.; Braude, E.A.
##$REF JOURNAL=J. Chem. Soc.
##$REF PAGE=1068
##$REF DATE=1952
##XYPOINTS=(XY..XY)
200.95,3.754
201.55,3.768
202.38,3.782
202.62,3.787
202.74,3.787
203.34,3.782
203.93,3.768
204.53,3.745
205.13,3.688
205.72,3.631
206.32,3.555
206.92,3.480
207.51,3.414
207.92,3.364
208.70,3.258
209.16,3.205
209.76,3.123
210.51,3.013
211.09,2.955
211.68,2.889
212.20,2.840
212.88,2.771
213.47,2.709
214.07,2.666
214.66,2.619
215.26,2.558
215.86,2.506
216.45,2.444
216.98,2.394
217.65,2.331
218.12,2.288
218.84,2.235
219.43,2.203
220.63,2.132
221.22,2.090
222.41,2.028
223.01,1.995
223.61,1.971
224.80,1.919
225.41,1.899
225.99,1.886
226.59,1.872
227.20,1.863
227.78,1.858
228.38,1.853
229.57,1.853
230.15,1.858
230.76,1.872
231.95,1.900
232.55,1.915
233.14,1.934
234.34,1.986
234.93,2.019
236.13,2.075
236.72,2.108
237.32,2.151
237.81,2.187
238.51,2.241
239.25,2.291
240.56,2.405
240.89,2.435
241.43,2.479
242.09,2.534
242.67,2.580
243.28,2.633
243.81,2.682
244.47,2.742
245.07,2.794
245.67,2.833
246.26,2.851
246.86,2.851
248.05,2.851
248.64,2.870
249.39,2.920
250.12,2.967
250.51,2.988
251.03,2.997
251.66,2.989
252.22,2.955
252.82,2.889
253.41,2.808
253.86,2.769
254.21,2.755
254.61,2.752
254.91,2.755
255.20,2.766
255.54,2.799
255.84,2.841
256.39,2.936
256.68,2.955
256.99,2.960
257.21,2.947
257.38,2.927
257.56,2.861
258.18,2.676
258.78,2.534
259.08,2.493
259.52,2.473
259.97,2.468
260.33,2.483
260.57,2.501
261.16,2.558
261.76,2.596
262.35,2.610
262.95,2.605
263.55,2.577
264.14,2.534
264.74,2.468
265.34,2.359
265.93,2.265
266.46,2.195
267.04,2.095
267.72,1.952
##END=
