##TITLE=Camphor
##JCAMP-DX=4.24
##DATA TYPE=UV/VIS SPECTRUM
##ORIGIN=INSTITUTE OF ENERGY PROBLEMS OF CHEMICAL PHYSICS, RAS
##OWNER=INEP CP RAS, NIST OSRD
Collection (C) 2007 copyright by the U.S. Secretary of Commerce
on behalf of the United States of America. All rights reserved.
##CAS REGISTRY NO=464-48-2
##MOLFORM=C10H16O
##MP=178.8
##BP=207.4
##SOURCE REFERENCE=RAS UV No. 306
##$NIST SQUIB=1960CHE361-373
##$NIST SOURCE=TSGMTE
##SPECTROMETER/DATA SYSTEM=n.i.g.
##XUNITS=Wavelength (nm)
##YUNITS=Logarithm epsilon
##XFACTOR=1.000000
##YFACTOR=1.000000
##FIRSTX=251.0175
##LASTX=321.5301
##FIRSTY=3.5407
##MAXX=321.53
##MINX=251.018
##MAXY=4.44679
##MINY=3.13852
##NPOINTS=146
##$REF AUTHOR=Cherubin, G.
##$REF TITLE=Liaisons intermoleculaires du nitrate de cellulose avec divers solvant et plastifiants
##$REF JOURNAL=J. Chim. Phys.
##$REF VOLUME=57
##$REF PAGE=361-373
##$REF DATE=1960
##XYPOINTS=(XY..XY)
251.0175,3.540699
251.7214,3.578082
252.4256,3.612671
253.1297,3.644853
253.8336,3.674936
254.5369,3.703174
255.2395,3.729773
255.9410,3.754908
256.6414,3.778726
257.3402,3.801350
258.0373,3.822887
258.7325,3.843432
259.4254,3.863062
260.1159,3.881851
260.8037,3.899859
261.4886,3.917142
261.4886,3.917142
262.0780,3.934160
262.6685,3.950682
263.2592,3.966737
263.8496,3.982352
264.4389,3.997552
265.0266,4.012359
265.6119,4.026794
266.1942,4.040875
266.7729,4.054621
267.3472,4.068047
267.9164,4.081168
268.4800,4.093999
269.0372,4.106552
269.5875,4.118839
270.1301,4.130872
270.6643,4.142660
271.1895,4.154215
271.7051,4.165544
272.2103,4.176658
272.7045,4.187563
273.1870,4.198267
273.6573,4.208778
274.1145,4.219103
274.5580,4.229248
274.9873,4.239219
275.4015,4.249022
275.8001,4.258662
276.1824,4.268144
276.1824,4.268144
277.2740,4.291454
277.8909,4.304609
278.2025,4.311112
278.3784,4.313867
278.3784,4.313867
278.5717,4.319220
278.9446,4.326257
279.3640,4.332150
279.3640,4.332150
279.7672,4.341978
280.1805,4.351514
280.6022,4.360783
281.0305,4.369812
281.4636,4.378624
281.8997,4.387239
282.3372,4.395678
282.7743,4.403958
283.2091,4.412098
283.2091,4.412098
284.1597,4.423443
284.9218,4.431699
285.2658,4.436117
285.2658,4.436117
286.8393,4.442280
287.5028,4.445034
287.8254,4.446791
287.8254,4.446791
289.0952,4.446644
290.3679,4.446497
291.6467,4.446349
291.6467,4.446349
292.5497,4.442054
293.3570,4.437135
294.0831,4.431625
294.7427,4.425554
295.3502,4.418956
295.9202,4.411863
296.4672,4.404310
297.0059,4.396330
297.5507,4.387963
297.5507,4.387963
297.8847,4.380570
298.2214,4.373038
298.5606,4.365361
298.9022,4.357537
299.2459,4.349558
299.5918,4.341420
299.9396,4.333118
300.2892,4.324644
300.6405,4.315993
300.9933,4.307157
301.3475,4.298129
301.7030,4.288903
302.0597,4.279468
302.4174,4.269817
302.7759,4.259941
303.1352,4.249829
303.4950,4.239470
303.8553,4.228852
304.2160,4.217965
304.5768,4.206793
304.9377,4.195324
305.2986,4.183540
305.6592,4.171426
306.0194,4.158964
306.3792,4.146132
306.7384,4.132910
307.0968,4.119274
307.0968,4.119274
307.9537,4.090749
308.6662,4.067029
309.2078,4.048798
309.5515,4.036570
309.6706,4.030628
309.6706,4.030628
310.2078,4.021041
310.6268,4.001180
310.8809,3.985010
310.8809,3.985010
311.3743,3.966644
311.8680,3.947540
312.3621,3.927627
312.8568,3.906820
313.3523,3.885026
313.8487,3.862133
314.3462,3.838014
314.8450,3.812515
315.3453,3.785458
315.8473,3.756626
316.3511,3.725754
316.8570,3.692519
317.3650,3.656515
317.8754,3.617223
318.3884,3.573967
318.9041,3.525845
319.4228,3.471609
319.9445,3.409469
320.4695,3.336720
320.9980,3.248993
321.5301,3.138517
##END=
