##TITLE=Benzoic acid, 2,4,6-trimethyl-
##JCAMP-DX=4.24
##DATA TYPE=UV/VIS SPECTRUM
##ORIGIN=INSTITUTE OF ENERGY PROBLEMS OF CHEMICAL PHYSICS, RAS
##OWNER=INEP CP RAS, NIST OSRD
Collection (C) 2007 copyright by the U.S. Secretary of Commerce
on behalf of the United States of America. All rights reserved.
##CAS REGISTRY NO=480-63-7
##MOLFORM=C10H12O2
##MP=155
##SOURCE REFERENCE=RAS UV No. 17745
##$NIST SQUIB=1976SMI/107
##$NIST SOURCE=TYUGLMTE
##SPECTROMETER/DATA SYSTEM=SF-4a
##XUNITS=Wavelength (nm)
##YUNITS=Logarithm epsilon
##XFACTOR=1.0
##YFACTOR=1.0
##FIRSTX=259.62
##LASTX=297.96
##FIRSTY=3.657
##MAXX=297.96
##MINX=259.62
##MAXY=4.285
##MINY=3.427
##NPOINTS=118
##$REF AUTHOR=Smirnova, T.I.; et al.
##$REF JOURNAL=Zhur. Organ. Khim. (English translation)
##$REF VOLUME=12
##$REF PAGE=107
##$REF DATE=1976
##XYPOINTS=(XY..XY)
259.62,3.657
260.13,3.680
260.56,3.701
260.98,3.721
261.41,3.740
261.83,3.758
262.26,3.776
262.60,3.795
263.02,3.812
263.36,3.829
263.79,3.844
264.13,3.861
264.55,3.877
264.89,3.892
265.23,3.907
265.66,3.920
266.08,3.934
266.42,3.947
266.76,3.960
267.10,3.973
267.53,3.986
267.78,3.998
268.12,4.009
268.38,4.021
268.80,4.032
269.14,4.043
269.48,4.053
269.82,4.064
270.08,4.074
270.50,4.083
270.76,4.093
271.10,4.103
271.35,4.112
271.78,4.121
272.03,4.131
272.37,4.139
272.71,4.148
273.14,4.156
273.39,4.164
273.73,4.172
273.99,4.180
274.24,4.188
274.67,4.196
274.92,4.203
275.26,4.210
275.52,4.218
275.94,4.225
276.20,4.232
276.54,4.239
276.79,4.247
277.13,4.254
277.47,4.260
277.81,4.266
278.24,4.273
278.75,4.278
279.34,4.281
280.02,4.284
280.79,4.285
281.55,4.284
282.23,4.281
282.74,4.276
283.25,4.270
283.68,4.265
284.02,4.258
284.27,4.252
284.61,4.245
284.78,4.238
284.95,4.230
285.12,4.222
285.38,4.215
285.63,4.207
285.72,4.198
285.89,4.190
286.06,4.181
286.31,4.173
286.40,4.164
286.65,4.156
286.74,4.147
286.99,4.137
287.25,4.127
287.42,4.117
287.59,4.107
287.84,4.097
288.01,4.086
288.27,4.076
288.44,4.065
288.69,4.053
288.86,4.041
289.20,4.030
289.37,4.018
289.63,4.006
289.88,3.995
290.14,3.981
290.39,3.967
290.56,3.952
290.82,3.939
291.16,3.925
291.50,3.911
291.67,3.894
291.92,3.879
292.18,3.863
292.52,3.847
292.69,3.827
293.11,3.812
293.45,3.793
293.79,3.774
294.13,3.753
294.39,3.732
294.73,3.709
295.07,3.686
295.49,3.661
295.83,3.634
296.26,3.606
296.60,3.576
297.02,3.543
297.36,3.508
297.62,3.469
297.96,3.427
##END=
