##TITLE=Naphthalene, 1,6-dimethyl-4-(1-methylethyl)-
##JCAMP-DX=4.24
##DATA TYPE=UV/VIS SPECTRUM
##ORIGIN=INSTITUTE OF ENERGY PROBLEMS OF CHEMICAL PHYSICS, RAS
##OWNER=INEP CP RAS, NIST OSRD
Collection (C) 2007 copyright by the U.S. Secretary of Commerce
on behalf of the United States of America. All rights reserved.
##CAS REGISTRY NO=483-78-3
##MOLFORM=C15H18
##BP=149/ 10 mm
##SOURCE REFERENCE=RAS UV No. 20081
##$NIST SQUIB=1963KUS252
##$NIST SOURCE=TYUGLMTE
##SPECTROMETER/DATA SYSTEM=unknown
##XUNITS=Wavelength (nm)
##YUNITS=Logarithm epsilon
##XFACTOR=1.0
##YFACTOR=1.0
##FIRSTX=300.69
##LASTX=328.34
##FIRSTY=3.755
##MAXX=328.34
##MINX=300.69
##MAXY=3.755
##MINY=2.367
##NPOINTS=160
##$REF AUTHOR=Kusakov et al, M.M.
##$REF JOURNAL=Ultraviolet Absorption Spectra of Aromatic Hydrocarbons
##$REF PAGE=252
##$REF DATE=1963
##XYPOINTS=(XY..XY)
300.69,3.755
301.10,3.755
301.52,3.752
301.93,3.750
302.35,3.748
302.76,3.745
303.17,3.740
303.59,3.736
304.00,3.731
304.42,3.724
304.67,3.717
305.01,3.705
305.06,3.702
305.11,3.700
305.15,3.698
305.20,3.695
305.24,3.693
305.37,3.685
305.52,3.674
305.69,3.655
305.89,3.622
306.07,3.586
306.25,3.547
306.44,3.500
306.62,3.457
306.81,3.429
306.99,3.400
307.18,3.381
307.36,3.364
307.55,3.352
307.73,3.343
307.91,3.338
308.10,3.329
308.28,3.326
308.47,3.321
308.65,3.321
308.83,3.321
309.02,3.321
309.20,3.326
309.39,3.333
309.57,3.343
309.75,3.352
309.94,3.360
310.12,3.362
310.31,3.360
310.49,3.352
310.67,3.343
310.86,3.321
311.04,3.290
311.23,3.233
311.41,3.174
311.58,3.142
311.78,3.119
311.94,3.103
312.15,3.088
312.33,3.071
312.51,3.060
312.70,3.048
312.88,3.038
313.07,3.029
313.25,3.019
313.43,3.012
313.62,3.005
313.80,2.998
313.99,2.990
314.17,2.983
314.35,2.979
314.54,2.974
314.72,2.974
314.91,2.976
315.09,2.976
315.27,2.976
315.46,2.976
315.64,2.979
315.83,2.979
316.01,2.979
316.19,2.979
316.38,2.981
316.56,2.981
316.75,2.981
316.93,2.981
317.11,2.981
317.30,2.981
317.48,2.979
317.67,2.979
317.85,2.976
318.03,2.974
318.22,2.971
318.40,2.967
318.59,2.957
318.77,2.936
318.95,2.924
319.14,2.917
319.32,2.910
319.51,2.898
319.69,2.886
319.87,2.869
320.06,2.850
320.24,2.833
320.43,2.814
320.61,2.798
320.79,2.786
320.98,2.776
321.16,2.769
321.35,2.764
321.53,2.757
321.71,2.755
321.90,2.752
322.08,2.755
322.27,2.757
322.45,2.762
322.63,2.771
322.82,2.783
323.00,2.800
323.19,2.819
323.37,2.852
323.55,2.906
323.65,2.941
323.73,2.975
323.79,3.003
323.85,3.028
323.92,3.055
323.97,3.072
324.02,3.088
324.11,3.117
324.20,3.140
324.29,3.162
324.38,3.181
324.48,3.198
324.57,3.210
324.66,3.224
324.75,3.238
324.84,3.248
324.94,3.257
325.03,3.264
325.12,3.271
325.21,3.279
325.30,3.283
325.40,3.288
325.49,3.290
325.58,3.293
325.67,3.293
325.76,3.290
325.86,3.283
325.95,3.267
326.04,3.252
326.13,3.186
326.22,3.138
326.32,3.100
326.50,3.019
326.68,2.938
326.87,2.867
327.05,2.771
327.24,2.712
327.42,2.643
327.60,2.567
327.79,2.510
327.97,2.455
328.16,2.407
328.34,2.367
##END=
