##TITLE=9-Phenanthrol
##JCAMP-DX=4.24
##DATA TYPE=UV/VIS SPECTRUM
##ORIGIN=INSTITUTE OF ENERGY PROBLEMS OF CHEMICAL PHYSICS, RAS
##OWNER=INEP CP RAS, NIST OSRD
Collection (C) 2007 copyright by the U.S. Secretary of Commerce
on behalf of the United States of America. All rights reserved.
##CAS REGISTRY NO=484-17-3
##MOLFORM=C14H10O
##MP=158
##SOURCE REFERENCE=RAS UV No. 683
##$NIST SQUIB=1948RAM/MAT1215-1225
##$NIST SOURCE=TSGMTE
##SPECTROMETER/DATA SYSTEM=n.i.g.
##XUNITS=Wavelength (nm)
##YUNITS=Logarithm epsilon
##XFACTOR=1.000000
##YFACTOR=1.000000
##FIRSTX=260.0000
##LASTX=389.0000
##FIRSTY=4.64
##MAXX=389
##MINX=260
##MAXY=4.64
##MINY=1.54
##NPOINTS=130
##$REF AUTHOR=Ramart-Lucas, M.; Matti, M.J.; Guilmart, T.
##$REF TITLE=Structure, absorption et comportement chimique dans la serie du phenanthrene
##$REF JOURNAL=Bull. Soc. Chim. Fr.
##$REF VOLUME=15
##$REF PAGE=1215-1225
##$REF DATE=1948
##XYPOINTS=(XY..XY)
260.0000,4.640000
261.0000,4.620000
262.0000,4.580000
263.0000,4.600000
264.0000,4.540000
265.0000,4.560000
266.0000,4.510000
267.0000,4.480000
268.0000,4.450000
269.0000,4.420000
270.0000,4.390000
271.0000,4.350000
272.0000,4.350000
273.0000,4.350000
274.0000,4.370000
275.0000,4.380000
276.0000,4.380000
277.0000,4.340000
278.0000,4.270000
279.0000,4.250000
280.0000,4.230000
281.0000,4.210000
282.0000,4.180000
283.0000,4.160000
284.0000,4.130000
285.0000,4.110000
286.0000,4.090000
287.0000,4.100000
288.0000,4.090000
289.0000,4.090000
290.0000,4.090000
291.0000,4.100000
292.0000,4.090000
293.0000,4.110000
294.0000,4.130000
295.0000,4.120000
296.0000,4.140000
297.0000,4.130000
298.0000,4.150000
299.0000,4.140000
300.0000,4.130000
301.0000,4.100000
302.0000,4.120000
303.0000,4.080000
304.0000,4.050000
305.0000,4.010000
306.0000,3.970000
307.0000,4.000000
308.0000,3.950000
309.0000,3.880000
310.0000,3.910000
311.0000,3.870000
312.0000,3.790000
313.0000,3.730000
314.0000,3.710000
315.0000,3.700000
316.0000,3.630000
317.0000,3.590000
318.0000,3.580000
319.0000,3.490000
320.0000,3.450000
321.0000,3.410000
322.0000,3.370000
323.0000,3.310000
324.0000,3.260000
325.0000,3.300000
326.0000,3.240000
327.0000,3.190000
328.0000,3.210000
329.0000,3.170000
330.0000,3.180000
331.0000,3.170000
332.0000,3.160000
333.0000,3.180000
334.0000,3.220000
335.0000,3.250000
336.0000,3.270000
337.0000,3.290000
338.0000,3.270000
339.0000,3.300000
340.0000,3.300000
341.0000,3.270000
342.0000,3.240000
343.0000,3.190000
344.0000,3.150000
345.0000,3.110000
346.0000,3.080000
347.0000,3.070000
348.0000,3.070000
349.0000,3.070000
350.0000,3.120000
351.0000,3.190000
352.0000,3.260000
353.0000,3.270000
354.0000,3.350000
355.0000,3.360000
356.0000,3.370000
357.0000,3.310000
358.0000,3.220000
359.0000,3.100000
360.0000,3.000000
361.0000,2.920000
362.0000,2.810000
363.0000,2.670000
364.0000,2.580000
365.0000,2.490000
366.0000,2.380000
367.0000,2.240000
368.0000,2.170000
369.0000,2.140000
370.0000,2.160000
371.0000,2.120000
372.0000,2.130000
373.0000,2.100000
374.0000,2.110000
375.0000,2.110000
376.0000,2.100000
377.0000,2.130000
378.0000,2.140000
379.0000,2.160000
380.0000,2.160000
381.0000,2.140000
382.0000,2.020000
383.0000,1.990000
384.0000,1.880000
385.0000,1.810000
386.0000,1.720000
387.0000,1.660000
388.0000,1.560000
389.0000,1.540000
##END=
