##TITLE=2,3-Dichloropyrazine
##JCAMP-DX=4.24
##DATA TYPE=UV/VIS SPECTRUM
##ORIGIN=INSTITUTE OF ENERGY PROBLEMS OF CHEMICAL PHYSICS, RAS
##OWNER=INEP CP RAS, NIST OSRD
Collection (C) 2007 copyright by the U.S. Secretary of Commerce
on behalf of the United States of America. All rights reserved.
##CAS REGISTRY NO=4858-85-9
##MOLFORM=C4H2Cl2N2
##BP=105-107/ 50 mm
##SOURCE REFERENCE=RAS UV No. 10401
##$NIST SQUIB=1951HAL/HIR711
##$NIST SOURCE=TYUGLMTE
##SPECTROMETER/DATA SYSTEM=Beckman DU
##XUNITS=Wavelength (nm)
##YUNITS=Logarithm epsilon
##XFACTOR=1.0
##YFACTOR=1.0
##FIRSTX=214.49
##LASTX=324.8
##FIRSTY=3.84
##MAXX=324.8
##MINX=214.49
##MAXY=3.867
##MINY=1.21
##NPOINTS=561
##$REF AUTHOR=Halverson, F.; Hirt, R.C.
##$REF JOURNAL=J. Chem. Phys.
##$REF VOLUME=19
##$REF PAGE=711
##$REF DATE=1951
##XYPOINTS=(XY..XY)
214.49,3.840
214.60,3.840
214.72,3.845
214.84,3.845
214.96,3.849
215.07,3.849
215.19,3.849
215.31,3.849
215.43,3.854
215.55,3.867
216.14,3.863
216.26,3.854
216.38,3.854
216.50,3.854
216.62,3.858
217.10,3.854
217.22,3.849
217.34,3.849
217.46,3.849
217.58,3.854
218.31,3.826
218.43,3.826
218.55,3.822
218.67,3.817
218.79,3.812
218.92,3.812
219.04,3.808
219.16,3.803
219.28,3.799
219.41,3.790
219.53,3.790
219.65,3.785
219.77,3.785
219.90,3.785
220.02,3.780
220.14,3.780
220.27,3.776
220.39,3.780
220.76,3.744
220.89,3.735
221.01,3.735
221.14,3.735
221.26,3.739
221.39,3.739
221.51,3.712
221.64,3.698
221.76,3.694
221.89,3.694
222.01,3.698
222.14,3.707
222.39,3.680
222.52,3.666
222.64,3.662
222.77,3.652
222.90,3.643
223.02,3.630
223.15,3.616
223.28,3.598
223.41,3.593
223.53,3.588
223.66,3.588
223.79,3.588
223.92,3.588
224.04,3.543
224.17,3.543
224.30,3.502
224.43,3.497
224.56,3.497
224.69,3.433
224.81,3.415
224.94,3.392
225.07,3.378
225.20,3.373
225.33,3.373
225.46,3.328
225.59,3.328
225.72,3.291
225.85,3.250
225.98,3.236
226.11,3.213
226.24,3.195
226.37,3.181
226.50,3.177
226.63,3.177
226.76,3.140
226.90,3.104
227.03,3.099
227.16,3.099
227.29,3.044
227.42,3.026
227.55,3.012
227.69,2.985
227.82,2.976
227.95,2.971
228.08,2.966
228.22,2.925
228.35,2.916
228.48,2.916
228.61,2.884
228.75,2.880
228.88,2.843
229.02,2.829
229.15,2.811
229.28,2.797
229.42,2.779
229.55,2.761
229.69,2.756
229.82,2.752
229.96,2.720
230.09,2.715
230.23,2.683
230.36,2.678
230.50,2.678
230.63,2.633
230.77,2.623
230.90,2.614
231.04,2.605
231.18,2.582
231.31,2.573
231.45,2.573
231.58,2.564
231.72,2.559
231.86,2.555
232.00,2.555
232.13,2.555
232.27,2.550
232.41,2.532
232.55,2.523
232.68,2.523
232.82,2.523
232.96,2.523
233.10,2.523
233.52,2.495
233.65,2.491
233.79,2.491
233.93,2.491
234.07,2.454
234.21,2.454
234.35,2.454
234.49,2.445
234.63,2.445
234.77,2.441
234.91,2.441
235.05,2.436
235.20,2.436
235.34,2.441
235.48,2.441
235.62,2.441
235.76,2.441
235.90,2.441
236.05,2.441
236.19,2.441
236.33,2.441
236.47,2.441
236.61,2.441
236.76,2.441
236.90,2.441
237.04,2.441
237.19,2.441
237.33,2.441
237.47,2.441
237.62,2.441
237.76,2.445
237.91,2.445
238.05,2.450
238.20,2.450
238.34,2.450
238.49,2.454
238.63,2.454
238.78,2.454
238.92,2.454
239.07,2.459
239.21,2.459
239.36,2.459
239.51,2.463
239.65,2.463
239.80,2.463
239.94,2.468
240.09,2.468
240.24,2.468
240.39,2.473
240.53,2.473
240.68,2.477
240.83,2.486
240.98,2.491
241.12,2.491
241.27,2.500
241.42,2.505
241.57,2.509
241.72,2.509
241.87,2.514
242.02,2.518
242.17,2.518
242.32,2.523
242.47,2.537
242.62,2.532
242.77,2.527
242.92,2.527
243.07,2.532
243.22,2.537
243.37,2.541
243.52,2.546
243.67,2.550
243.82,2.550
243.98,2.555
244.13,2.559
244.28,2.564
244.43,2.564
244.58,2.569
244.74,2.569
244.89,2.573
245.04,2.573
245.20,2.578
245.35,2.578
245.50,2.587
245.66,2.591
245.81,2.601
245.96,2.591
246.12,2.633
246.27,2.628
246.43,2.623
246.58,2.623
246.74,2.633
246.89,2.637
247.05,2.637
247.36,2.655
247.52,2.651
247.67,2.651
247.83,2.655
247.99,2.655
248.46,2.678
248.61,2.674
248.77,2.674
248.93,2.674
249.09,2.678
249.25,2.678
249.41,2.683
249.56,2.688
249.72,2.692
249.88,2.692
250.04,2.697
250.20,2.701
250.36,2.706
250.52,2.710
250.68,2.715
250.84,2.720
251.00,2.756
251.16,2.756
251.32,2.756
251.48,2.756
251.65,2.756
251.81,2.756
251.97,2.765
252.13,2.765
252.29,2.774
252.46,2.774
252.62,2.784
252.78,2.788
252.94,2.825
253.11,2.820
253.27,2.820
253.43,2.820
253.60,2.820
253.76,2.834
253.93,2.834
254.09,2.834
254.26,2.838
254.42,2.848
254.59,2.852
254.75,2.861
254.92,2.866
255.08,2.875
255.25,2.880
255.42,2.889
255.58,2.893
255.75,2.907
255.92,2.912
256.08,2.916
256.25,2.939
256.42,2.934
256.59,2.934
256.75,2.939
256.92,2.948
257.09,2.953
257.26,2.962
257.43,2.966
257.60,2.976
257.77,2.980
257.94,2.989
258.11,2.998
258.28,3.008
258.45,3.017
258.62,3.021
258.79,3.030
258.96,3.040
259.47,3.058
259.64,3.062
259.82,3.067
260.16,3.085
260.33,3.085
260.51,3.090
260.68,3.099
260.85,3.127
261.03,3.113
261.20,3.117
261.37,3.127
261.55,3.131
261.72,3.140
261.90,3.145
262.07,3.154
262.25,3.159
262.42,3.168
262.60,3.172
262.77,3.177
262.95,3.186
263.13,3.191
263.30,3.218
263.48,3.213
263.66,3.213
263.84,3.218
264.01,3.227
264.19,3.232
264.37,3.241
264.55,3.245
264.73,3.255
264.90,3.255
265.08,3.277
265.26,3.268
265.44,3.277
265.62,3.287
265.80,3.296
265.98,3.296
266.16,3.305
266.34,3.309
266.52,3.319
266.71,3.323
266.89,3.332
267.07,3.337
267.25,3.346
267.43,3.351
267.62,3.360
267.80,3.369
267.98,3.373
268.17,3.378
268.35,3.415
268.53,3.405
268.72,3.405
268.90,3.405
269.09,3.415
269.27,3.442
269.45,3.438
269.64,3.433
269.83,3.438
270.01,3.447
270.20,3.451
270.38,3.460
270.57,3.465
270.76,3.474
270.94,3.479
271.13,3.488
271.32,3.492
271.51,3.502
271.69,3.506
272.07,3.524
272.26,3.520
272.45,3.524
272.64,3.529
273.02,3.543
273.21,3.543
273.40,3.547
273.59,3.547
273.78,3.552
273.97,3.556
274.16,3.561
274.36,3.566
274.55,3.570
274.74,3.575
274.93,3.579
275.13,3.584
275.32,3.588
275.51,3.593
275.71,3.598
275.90,3.607
276.09,3.616
276.29,3.620
276.48,3.625
276.68,3.634
276.87,3.639
277.66,3.652
277.85,3.652
278.05,3.657
278.25,3.662
278.45,3.662
278.64,3.662
278.84,3.666
279.04,3.666
279.24,3.671
279.44,3.671
279.64,3.675
279.84,3.675
280.04,3.675
280.24,3.675
280.44,3.675
280.64,3.675
280.84,3.675
281.04,3.675
281.24,3.675
281.44,3.675
281.65,3.675
281.85,3.675
282.05,3.675
282.25,3.675
283.07,3.666
283.27,3.666
283.48,3.666
283.68,3.666
284.51,3.652
284.71,3.643
284.92,3.643
285.13,3.648
285.33,3.648
286.17,3.630
286.38,3.630
286.59,3.625
286.80,3.625
287.01,3.625
287.22,3.620
287.43,3.616
287.64,3.611
287.85,3.611
288.06,3.607
288.27,3.602
288.48,3.598
288.70,3.593
288.91,3.588
289.12,3.584
289.33,3.579
289.55,3.575
289.76,3.570
289.98,3.570
290.19,3.566
290.41,3.566
290.62,3.566
290.84,3.566
291.05,3.566
291.27,3.561
291.48,3.561
291.70,3.570
291.92,3.556
292.14,3.556
292.35,3.547
292.57,3.547
292.79,3.538
293.01,3.534
293.23,3.534
293.45,3.534
293.67,3.520
293.89,3.515
294.11,3.515
294.33,3.511
294.55,3.511
294.77,3.506
294.99,3.506
295.22,3.502
295.44,3.497
295.66,3.497
295.88,3.497
296.11,3.492
296.33,3.492
296.55,3.492
296.78,3.492
297.00,3.492
297.23,3.492
298.81,3.470
299.04,3.460
299.27,3.460
299.50,3.465
300.65,3.433
300.88,3.428
301.11,3.428
301.34,3.428
301.57,3.433
302.50,3.410
302.74,3.405
302.97,3.401
303.20,3.401
303.44,3.396
303.67,3.392
303.91,3.387
304.14,3.387
304.38,3.383
304.62,3.383
304.85,3.378
305.09,3.369
305.33,3.364
305.57,3.360
305.80,3.360
306.04,3.355
306.28,3.355
306.76,3.314
307.00,3.314
307.24,3.314
307.48,3.277
307.72,3.273
307.97,3.273
308.21,3.227
308.45,3.204
308.69,3.181
308.94,3.181
309.18,3.122
309.42,3.122
309.67,3.099
309.91,3.053
310.16,3.030
310.40,3.003
310.65,2.985
310.90,2.980
311.14,2.934
311.39,2.898
311.64,2.889
311.88,2.889
312.13,2.852
312.38,2.779
312.63,2.774
312.88,2.774
313.13,2.738
313.38,2.692
313.63,2.619
313.88,2.591
314.13,2.578
314.38,2.527
314.64,2.486
314.89,2.482
315.14,2.404
315.40,2.386
315.65,2.372
315.90,2.326
316.16,2.290
316.41,2.285
316.67,2.248
316.92,2.216
317.18,2.171
317.44,2.120
317.70,2.116
317.95,2.079
318.21,2.038
318.47,2.020
318.73,1.983
318.99,1.960
319.25,1.910
319.51,1.864
319.77,1.851
320.03,1.809
320.29,1.764
320.55,1.736
320.81,1.691
321.08,1.654
321.34,1.604
321.60,1.558
321.87,1.512
324.80,1.210
##END=
