##TITLE=Cytisine
##JCAMP-DX=4.24
##DATA TYPE=UV/VIS SPECTRUM
##ORIGIN=INSTITUTE OF ENERGY PROBLEMS OF CHEMICAL PHYSICS, RAS
##OWNER=INEP CP RAS, NIST OSRD
Collection (C) 2007 copyright by the U.S. Secretary of Commerce
on behalf of the United States of America. All rights reserved.
##CAS REGISTRY NO=485-35-8
##MOLFORM=C11H14N2O
##MP=270
##SOURCE REFERENCE=RAS UV No. 12730
##$NIST SQUIB=1956BOH/WEI792
##$NIST SOURCE=TYUGLMTE
##SPECTROMETER/DATA SYSTEM=Unicam Spectrophotometer
##XUNITS=Wavelength (nm)
##YUNITS=Logarithm epsilon
##XFACTOR=1.0
##YFACTOR=1.0
##FIRSTX=226.72
##LASTX=341.4
##FIRSTY=3.681
##MAXX=341.4
##MINX=226.72
##MAXY=3.977
##MINY=2.572
##NPOINTS=630
##$REF AUTHOR=Bohlmann, F.; Weise, W.
##$REF JOURNAL=Chem. Ber.
##$REF VOLUME=89
##$REF PAGE=792
##$REF DATE=1956
##XYPOINTS=(XY..XY)
226.72,3.681
226.83,3.688
226.94,3.690
227.04,3.696
227.15,3.698
227.47,3.709
227.58,3.711
227.69,3.717
227.80,3.720
227.91,3.722
228.01,3.728
228.12,3.730
228.23,3.732
228.34,3.737
228.66,3.751
228.77,3.751
228.88,3.754
228.99,3.758
229.10,3.762
229.21,3.762
229.32,3.768
229.43,3.771
229.54,3.773
229.65,3.779
229.97,3.790
230.08,3.792
230.19,3.792
230.30,3.794
230.41,3.796
230.53,3.802
230.64,3.802
230.75,3.805
230.86,3.809
230.97,3.813
231.08,3.813
231.41,3.824
231.52,3.826
231.63,3.830
231.75,3.834
231.86,3.834
231.97,3.836
232.08,3.843
232.19,3.845
232.31,3.847
232.42,3.853
232.98,3.866
233.09,3.873
233.21,3.875
233.32,3.877
233.43,3.883
233.55,3.885
234.00,3.904
234.11,3.904
234.23,3.904
234.34,3.907
234.46,3.907
234.57,3.909
234.68,3.913
234.80,3.915
234.91,3.915
235.03,3.917
235.14,3.917
235.26,3.919
235.37,3.921
235.49,3.921
235.60,3.921
235.72,3.921
236.18,3.921
236.30,3.919
236.41,3.917
236.53,3.917
236.65,3.917
236.76,3.915
236.88,3.911
237.00,3.909
237.11,3.909
237.23,3.907
237.35,3.904
237.46,3.898
237.58,3.898
237.70,3.900
237.82,3.890
237.93,3.890
238.05,3.887
238.17,3.885
238.29,3.879
238.40,3.877
238.52,3.875
238.64,3.868
238.76,3.866
238.88,3.864
239.12,3.849
239.23,3.845
239.35,3.836
239.47,3.826
239.59,3.819
239.71,3.802
239.83,3.788
239.95,3.775
240.07,3.775
240.19,3.751
240.31,3.741
240.43,3.732
240.55,3.720
240.67,3.703
240.79,3.690
240.91,3.681
241.03,3.681
241.15,3.666
241.27,3.654
241.39,3.641
241.64,3.618
241.76,3.607
241.88,3.596
242.00,3.592
242.12,3.567
242.25,3.556
242.37,3.545
242.49,3.545
242.61,3.522
242.73,3.511
242.86,3.503
242.98,3.488
243.10,3.473
243.22,3.462
243.35,3.460
243.47,3.456
243.59,3.433
243.72,3.422
243.84,3.411
243.96,3.399
244.09,3.388
244.21,3.373
244.34,3.363
244.46,3.360
244.58,3.346
244.71,3.335
244.83,3.320
244.96,3.318
245.08,3.299
245.21,3.288
245.33,3.278
245.46,3.256
245.58,3.252
245.71,3.250
245.83,3.246
245.96,3.233
246.09,3.227
246.21,3.210
246.34,3.197
246.46,3.186
246.59,3.178
246.72,3.161
246.84,3.146
246.97,3.135
247.22,3.106
247.35,3.093
247.48,3.084
247.60,3.076
247.73,3.057
247.86,3.044
247.99,3.044
248.11,3.031
248.24,3.012
248.37,2.999
248.50,2.995
248.63,2.974
248.76,2.965
248.88,2.955
249.01,2.950
249.14,2.950
249.27,2.933
249.40,2.925
249.53,2.921
249.66,2.912
249.79,2.908
249.92,2.902
250.05,2.902
250.31,2.882
250.57,2.872
250.70,2.870
250.83,2.861
250.96,2.859
251.09,2.855
251.22,2.857
251.49,2.842
251.62,2.840
251.75,2.838
251.88,2.831
252.01,2.831
252.14,2.829
252.28,2.827
252.41,2.827
252.54,2.825
252.67,2.823
252.81,2.821
252.94,2.821
253.07,2.821
253.74,2.817
253.87,2.817
254.01,2.814
254.14,2.812
254.28,2.812
254.41,2.812
254.55,2.812
254.68,2.812
254.82,2.812
254.95,2.812
255.09,2.812
255.22,2.812
255.36,2.812
255.49,2.812
255.63,2.812
255.76,2.812
255.90,2.812
256.58,2.819
256.72,2.819
256.86,2.819
256.99,2.819
257.13,2.819
257.27,2.821
257.40,2.821
257.54,2.821
257.68,2.821
257.82,2.821
258.09,2.827
258.23,2.827
258.37,2.827
258.51,2.829
259.07,2.834
259.21,2.831
259.35,2.834
259.49,2.836
259.63,2.838
259.77,2.840
259.91,2.840
260.05,2.840
260.19,2.842
260.33,2.842
260.47,2.846
260.61,2.848
260.75,2.851
260.89,2.851
261.03,2.851
261.60,2.863
261.74,2.863
261.89,2.863
262.03,2.865
262.17,2.872
262.32,2.872
262.46,2.874
262.60,2.874
262.74,2.878
262.89,2.882
263.03,2.882
263.18,2.885
263.61,2.895
263.75,2.895
263.90,2.895
264.04,2.902
264.19,2.904
264.33,2.904
264.48,2.908
264.62,2.912
264.77,2.914
264.91,2.914
265.06,2.919
265.21,2.923
265.65,2.933
265.79,2.936
265.94,2.936
266.09,2.942
266.23,2.944
266.38,2.946
266.53,2.948
266.68,2.955
266.82,2.955
266.97,2.961
267.27,2.974
267.42,2.972
267.57,2.974
267.71,2.976
267.86,2.982
268.01,2.984
268.16,2.987
268.31,2.993
268.46,2.995
268.61,2.999
269.06,3.014
269.21,3.016
269.36,3.018
269.51,3.025
269.66,3.027
269.82,3.029
269.97,3.035
270.12,3.038
270.42,3.057
270.57,3.057
270.73,3.059
270.88,3.065
271.03,3.067
271.18,3.067
271.34,3.078
271.49,3.080
271.64,3.084
271.80,3.089
271.95,3.099
272.10,3.099
272.26,3.103
272.41,3.110
272.57,3.118
272.72,3.120
272.88,3.127
273.03,3.129
273.19,3.146
273.34,3.142
273.50,3.146
273.65,3.150
273.81,3.152
273.96,3.159
274.12,3.163
274.28,3.169
274.43,3.171
274.74,3.188
274.90,3.188
275.06,3.191
275.22,3.197
275.37,3.201
275.53,3.208
275.69,3.210
275.85,3.218
276.01,3.231
276.16,3.231
276.32,3.233
276.48,3.239
276.64,3.244
276.80,3.246
276.96,3.252
277.12,3.271
277.28,3.271
277.44,3.275
277.60,3.282
277.76,3.286
277.92,3.292
278.08,3.295
278.24,3.301
278.40,3.316
278.56,3.316
278.72,3.316
278.88,3.324
279.05,3.331
279.21,3.335
279.37,3.343
279.69,3.356
279.86,3.356
280.02,3.363
280.18,3.367
280.35,3.371
281.00,3.397
281.17,3.399
281.33,3.407
281.49,3.409
281.66,3.418
281.82,3.420
281.99,3.428
282.15,3.441
282.32,3.439
282.49,3.441
282.65,3.448
282.82,3.450
282.98,3.458
283.15,3.460
283.32,3.471
283.65,3.488
283.82,3.488
283.99,3.490
284.15,3.499
284.32,3.501
284.49,3.507
284.66,3.511
284.83,3.516
285.00,3.520
285.33,3.539
285.50,3.537
285.67,3.541
285.84,3.543
286.01,3.550
286.18,3.556
286.35,3.564
286.52,3.569
286.69,3.573
286.86,3.575
287.03,3.577
287.21,3.586
287.38,3.586
287.55,3.590
287.72,3.594
287.89,3.596
288.07,3.603
288.24,3.605
288.41,3.613
288.58,3.615
289.10,3.635
289.28,3.635
289.45,3.639
289.63,3.645
289.80,3.645
289.98,3.652
290.15,3.656
290.33,3.658
290.50,3.664
290.68,3.679
290.85,3.679
291.03,3.677
291.20,3.686
291.38,3.688
291.56,3.694
291.73,3.696
291.91,3.698
292.09,3.705
292.26,3.707
292.80,3.726
292.98,3.728
293.15,3.730
293.33,3.734
293.51,3.739
293.69,3.741
293.87,3.747
294.05,3.751
294.59,3.764
294.77,3.764
294.95,3.771
295.13,3.773
295.31,3.777
295.49,3.781
295.68,3.783
295.86,3.790
296.04,3.792
296.40,3.805
296.59,3.805
296.77,3.805
296.95,3.811
297.14,3.813
297.32,3.815
297.50,3.822
297.69,3.824
297.87,3.826
298.06,3.832
298.24,3.834
298.80,3.845
298.98,3.847
299.17,3.851
299.35,3.856
299.54,3.856
299.73,3.862
299.91,3.864
300.10,3.866
300.29,3.868
300.48,3.873
300.66,3.875
301.23,3.890
301.42,3.887
301.61,3.892
301.80,3.896
301.98,3.898
302.17,3.902
302.36,3.904
302.55,3.907
302.74,3.909
302.93,3.913
303.13,3.915
303.32,3.919
303.51,3.926
303.70,3.926
303.89,3.928
304.08,3.928
304.47,3.938
304.66,3.938
304.85,3.938
305.05,3.938
305.24,3.945
305.43,3.947
305.63,3.947
305.82,3.949
306.02,3.953
306.21,3.955
306.41,3.958
306.60,3.958
306.80,3.960
306.99,3.962
307.19,3.966
307.39,3.966
308.37,3.970
308.57,3.970
308.77,3.970
308.96,3.972
309.16,3.975
309.36,3.975
309.56,3.977
309.76,3.977
309.96,3.977
310.16,3.977
310.36,3.977
310.56,3.977
310.76,3.977
310.96,3.975
311.16,3.975
311.36,3.975
311.56,3.972
311.77,3.972
312.58,3.968
312.78,3.964
312.98,3.962
313.19,3.960
313.39,3.960
313.59,3.958
313.80,3.953
314.00,3.951
314.21,3.949
314.41,3.949
314.62,3.947
314.83,3.941
315.03,3.941
315.24,3.938
316.07,3.928
316.27,3.926
316.48,3.921
316.69,3.919
316.90,3.917
317.11,3.915
317.32,3.911
317.53,3.909
317.74,3.907
317.95,3.900
318.16,3.900
319.21,3.887
319.42,3.881
319.63,3.879
319.85,3.877
320.06,3.870
320.27,3.868
320.49,3.864
320.70,3.858
320.91,3.856
321.13,3.853
321.77,3.836
321.99,3.830
322.20,3.826
322.42,3.819
322.63,3.813
322.85,3.807
323.07,3.807
323.28,3.805
323.72,3.788
323.94,3.783
324.16,3.775
324.37,3.771
324.59,3.764
324.81,3.758
325.03,3.758
325.25,3.743
325.47,3.737
325.69,3.730
325.91,3.722
326.13,3.713
326.35,3.709
326.58,3.705
326.80,3.692
327.02,3.681
327.24,3.681
327.46,3.675
327.69,3.669
327.91,3.658
328.13,3.656
328.36,3.639
328.58,3.628
328.81,3.618
329.03,3.609
329.26,3.590
329.48,3.579
329.71,3.567
329.93,3.543
330.16,3.524
330.39,3.511
330.61,3.473
330.84,3.469
331.07,3.462
331.30,3.431
331.53,3.411
331.75,3.390
331.98,3.365
332.21,3.341
332.44,3.320
332.67,3.292
332.90,3.269
333.13,3.265
333.36,3.246
333.59,3.220
333.82,3.199
334.06,3.176
334.29,3.150
334.52,3.127
334.75,3.140
334.99,3.084
335.22,3.082
335.45,3.046
335.69,3.044
335.92,3.023
336.16,3.014
336.39,2.976
336.63,2.963
336.86,2.931
337.10,2.914
337.33,2.882
337.57,2.863
337.81,2.840
338.05,2.834
338.28,2.819
338.76,2.770
339.00,2.759
339.24,2.723
339.48,2.710
339.72,2.676
339.96,2.659
340.20,2.627
340.44,2.621
340.68,2.608
340.92,2.591
341.16,2.581
341.40,2.572
##END=
