##TITLE=Ninhydrin
##JCAMP-DX=4.24
##DATA TYPE=UV/VIS SPECTRUM
##ORIGIN=INSTITUTE OF ENERGY PROBLEMS OF CHEMICAL PHYSICS, RAS
##OWNER=INEP CP RAS, NIST OSRD
Collection (C) 2007 copyright by the U.S. Secretary of Commerce
on behalf of the United States of America. All rights reserved.
##CAS REGISTRY NO=485-47-2
##MOLFORM=C9H6O4
##MP=241-3 dec
##SOURCE REFERENCE=RAS UV No. 9822
##$NIST SQUIB=1950CAR/MEB844
##$NIST SOURCE=TYUGLMTE
##SPECTROMETER/DATA SYSTEM=Beckman DU
##XUNITS=Wavelength (nm)
##YUNITS=Logarithm epsilon
##XFACTOR=1.0
##YFACTOR=1.0
##FIRSTX=210.02
##LASTX=396.24
##FIRSTY=3.811
##MAXX=396.24
##MINX=210.02
##MAXY=4.61
##MINY=1.085
##NPOINTS=110
##$REF AUTHOR=Carmack, M.; M.E.Balis.
##$REF JOURNAL=J. Am. Chem. Soc.
##$REF VOLUME=72
##$REF PAGE=844
##$REF DATE=1950
##XYPOINTS=(XY..XY)
210.02,3.811
212.21,3.848
213.78,3.891
215.03,3.941
215.95,3.994
216.91,4.058
217.84,4.133
218.64,4.183
219.72,4.238
220.97,4.288
222.23,4.337
223.17,4.393
224.10,4.442
225.36,4.492
227.09,4.544
229.43,4.591
230.65,4.605
232.24,4.610
232.97,4.603
234.10,4.567
235.37,4.511
236.31,4.455
237.25,4.399
238.19,4.343
239.44,4.288
240.38,4.232
241.32,4.182
242.88,4.120
244.76,4.077
247.27,4.046
250.08,4.040
252.90,4.052
255.73,4.050
258.53,4.027
260.41,3.990
262.29,3.947
263.85,3.903
265.42,3.854
266.67,3.804
267.92,3.742
268.55,3.687
269.49,3.631
270.43,3.575
271.68,3.526
271.99,3.470
273.56,3.414
274.49,3.358
275.43,3.309
276.37,3.253
277.94,3.203
278.88,3.154
280.75,3.111
282.32,3.067
284.20,3.024
286.70,2.999
289.20,2.974
291.76,2.967
294.21,2.974
297.03,2.974
299.22,2.943
300.76,2.900
302.66,2.857
304.50,2.833
307.36,2.813
309.86,2.788
311.12,2.763
312.06,2.712
312.69,2.662
313.50,2.605
314.87,2.516
315.56,2.468
316.37,2.408
317.31,2.344
318.00,2.293
318.62,2.237
319.25,2.181
319.88,2.126
320.82,2.070
321.44,2.014
322.69,1.964
324.26,1.915
326.14,1.872
328.33,1.841
330.83,1.822
333.65,1.822
336.46,1.816
339.28,1.810
342.72,1.791
345.23,1.772
348.67,1.754
351.80,1.735
354.30,1.704
357.12,1.673
359.31,1.642
362.44,1.605
364.95,1.574
367.45,1.549
369.62,1.526
372.46,1.494
374.65,1.463
377.15,1.432
379.34,1.395
381.85,1.364
384.04,1.326
386.23,1.289
388.11,1.252
390.61,1.209
392.49,1.165
394.37,1.122
396.24,1.085
##END=
