##TITLE=9-Fluorenone
##JCAMP-DX=4.24
##DATA TYPE=UV/VIS SPECTRUM
##ORIGIN=INSTITUTE OF ENERGY PROBLEMS OF CHEMICAL PHYSICS, RAS
##OWNER=INEP CP RAS, NIST OSRD
Collection (C) 2007 copyright by the U.S. Secretary of Commerce
on behalf of the United States of America. All rights reserved.
##CAS REGISTRY NO=486-25-9
##MOLFORM=C13H8O
##MP=84
##BP=341.5
##SOURCE REFERENCE=RAS UV No. 5655
##$NIST SQUIB=1951BER/FIS684-692
##$NIST SOURCE=TSGMTE
##SPECTROMETER/DATA SYSTEM=n.i.g.
##XUNITS=Wavelength (nm)
##YUNITS=Logarithm epsilon
##XFACTOR=1.000000
##YFACTOR=1.000000
##FIRSTX=223.9826
##LASTX=369.8851
##FIRSTY=4.50249
##MAXX=369.885
##MINX=223.983
##MAXY=4.55
##MINY=3.46121
##NPOINTS=140
##$REF AUTHOR=Bergmann, E.D.; Fischer, E.; Ginsburg, D.; Hirshberg, Y.; Lavie, D.; Mayot, M.; Pullman, A.; Pullman, B.
##$REF TITLE=Fulvenes et ethylenes thermochromes. 11^e partie. Les heptafulvenes
##$REF JOURNAL=Bull. Soc. Chim. Fr.
##$REF VOLUME=18
##$REF PAGE=684-692
##$REF DATE=1951
##XYPOINTS=(XY..XY)
223.9826,4.502494
225.1831,4.516181
226.2944,4.528458
227.3573,4.538642
228.4126,4.546048
229.5014,4.549996
230.6645,4.549803
231.9428,4.544784
233.3772,4.534259
235.0085,4.517546
235.0085,4.517546
235.9398,4.501821
236.8789,4.484664
237.8294,4.466813
238.7946,4.449002
239.7782,4.431967
240.7836,4.416444
241.8143,4.403169
242.8738,4.392877
243.9656,4.386305
245.0932,4.384187
246.2601,4.387261
247.4698,4.396260
248.7257,4.411922
248.7257,4.411922
250.1995,4.414713
251.6801,4.417506
253.1743,4.420301
253.1743,4.420301
254.5475,4.437825
255.9132,4.455646
257.3166,4.471831
258.8028,4.484443
260.4170,4.491550
260.4170,4.491550
261.5127,4.464670
262.6084,4.437791
263.7041,4.410911
264.7999,4.384032
264.7999,4.384032
264.8106,4.381635
264.8488,4.378429
264.9271,4.373583
265.0579,4.366265
265.2537,4.355645
265.5270,4.340891
265.8903,4.321172
266.3561,4.295656
266.9369,4.263513
267.6452,4.223912
268.4935,4.176020
269.4943,4.119008
270.6601,4.052043
272.0033,3.974295
272.0033,3.974295
273.2271,3.954563
274.4970,3.942665
275.7993,3.938185
277.1201,3.940705
278.4457,3.949809
279.7624,3.965080
281.0564,3.986100
281.0564,3.986100
282.4633,3.996248
283.9753,4.005735
285.5679,4.014475
287.2162,4.022380
288.8956,4.029363
290.5812,4.035337
292.2485,4.040215
293.8726,4.043910
295.4288,4.046335
295.4288,4.046335
296.1021,4.053325
296.7822,4.060316
297.4759,4.067310
297.4759,4.067310
297.9872,4.067030
299.1926,4.066568
300.8765,4.066555
302.8229,4.067616
304.8159,4.070381
306.6398,4.075478
308.0785,4.083533
308.9164,4.095176
308.9164,4.095176
310.4490,4.105723
311.9747,4.113669
313.4961,4.120155
315.0158,4.126318
316.5365,4.133300
318.0610,4.142240
319.5919,4.154276
321.1318,4.170548
321.1318,4.170548
322.6288,4.173622
324.1219,4.176194
325.6147,4.178175
327.1103,4.179477
328.6122,4.180010
330.1238,4.179684
331.6484,4.178413
333.1893,4.176105
334.7499,4.172672
336.3336,4.168025
336.3336,4.168025
337.7761,4.155039
339.1657,4.141998
340.5055,4.128802
341.7989,4.115351
343.0492,4.101543
344.2597,4.087279
345.4337,4.072457
346.5745,4.056977
347.6854,4.040739
348.7697,4.023641
349.8308,4.005584
350.8719,3.986467
351.8962,3.966188
352.9072,3.944648
353.9082,3.921745
354.9023,3.897380
355.8931,3.871451
356.8836,3.843859
356.8836,3.843859
358.6039,3.802500
360.0497,3.765862
361.2405,3.734467
362.1956,3.708840
362.9343,3.689503
363.4760,3.676979
363.4760,3.676979
364.1536,3.656053
364.9300,3.632277
365.7736,3.606211
366.6524,3.578418
367.5348,3.549459
368.3889,3.519896
369.1829,3.490292
369.8851,3.461207
##END=
