##TITLE=1,1'-Azonaphthalene
##JCAMP-DX=4.24
##DATA TYPE=UV/VIS SPECTRUM
##ORIGIN=INSTITUTE OF ENERGY PROBLEMS OF CHEMICAL PHYSICS, RAS
##OWNER=INEP CP RAS, NIST OSRD
Collection (C) 2007 copyright by the U.S. Secretary of Commerce
on behalf of the United States of America. All rights reserved.
##CAS REGISTRY NO=487-10-5
##MOLFORM=C20H14N2
##MP=190
##BP=sub.
##SOURCE REFERENCE=RAS UV No. 1889
##$NIST SQUIB=1961SCH/GER428-441
##$NIST SOURCE=TSGMTE
##SPECTROMETER/DATA SYSTEM=n.i.g.
##XUNITS=Wavelength (nm)
##YUNITS=Logarithm epsilon
##XFACTOR=1.000000
##YFACTOR=1.000000
##FIRSTX=166.5237
##LASTX=458.8085
##FIRSTY=4.90623
##MAXX=458.808
##MINX=166.524
##MAXY=4.92992
##MINY=2.80326
##NPOINTS=191
##$REF AUTHOR=Schulze, J.; Gerson, F.; Murrell, J.N.; Heilbronner, E.
##$REF TITLE=Elektronenstruktur und physikalisch-chemische eigenschaften von azo-verbindungen. Tiel IX): Die absorptionsspektren der benzologen des azobenzols, des benzalanilins und des stilbens
##$REF JOURNAL=Helv. Chim. Acta
##$REF VOLUME=44
##$REF PAGE=428-441
##$REF DATE=1961
##XYPOINTS=(XY..XY)
166.5237,4.906232
167.2494,4.911175
167.9724,4.916250
169.2429,4.921217
171.6108,4.925847
175.6263,4.929921
175.6263,4.929921
176.6061,4.929882
177.6042,4.929833
178.6387,4.929765
178.6387,4.929765
179.0777,4.929208
179.5531,4.928631
180.0468,4.928044
180.0468,4.928044
180.5793,4.923803
181.1011,4.919517
181.6146,4.915185
182.1220,4.910806
182.6254,4.906379
183.1272,4.901904
183.6296,4.897379
184.1349,4.892804
184.6452,4.888177
185.1629,4.883498
185.6902,4.878765
186.2293,4.873978
186.7825,4.869135
187.3519,4.864235
187.9400,4.859278
188.5488,4.854260
189.1808,4.849183
189.8380,4.844043
190.5227,4.838840
191.2372,4.833573
191.9838,4.828239
192.7647,4.822838
193.5820,4.817368
193.5820,4.817368
196.0215,4.810968
198.6985,4.804368
201.2704,4.797516
203.3944,4.790357
203.3944,4.790357
203.9500,4.784838
204.5082,4.779246
205.0689,4.773580
205.6322,4.767838
206.1979,4.762017
206.7660,4.756116
207.3364,4.750132
207.9092,4.744063
208.4841,4.737907
209.0613,4.731661
209.6407,4.725322
210.2223,4.718889
210.8059,4.712357
211.3916,4.705724
211.9792,4.698987
212.5688,4.692143
213.1603,4.685188
213.7537,4.678119
214.3488,4.670932
214.9457,4.663623
215.5444,4.656188
216.1447,4.648622
216.7467,4.640922
217.3502,4.633081
217.9552,4.625096
218.5618,4.616960
219.1697,4.608668
219.7791,4.600214
220.3899,4.591591
221.0020,4.582794
221.6153,4.573813
222.2298,4.564643
222.8455,4.555275
223.4624,4.545699
224.0803,4.535908
224.6993,4.525890
225.3192,4.515636
225.9401,4.505134
226.5620,4.494371
227.1846,4.483335
227.8081,4.472012
228.4323,4.460386
229.0573,4.448440
229.6829,4.436157
230.3091,4.423517
230.9360,4.410498
231.5633,4.397078
232.1912,4.383231
232.8196,4.368930
233.4482,4.354142
234.0773,4.338835
234.7067,4.322969
235.3363,4.306504
235.9662,4.289392
236.5962,4.271580
237.2264,4.253009
237.8567,4.233611
238.4869,4.213308
238.4869,4.213308
239.6982,4.194559
242.1056,4.180844
248.4294,4.176561
248.4294,4.176561
252.6748,4.197456
256.7033,4.220868
261.0814,4.242422
266.3753,4.258530
273.1514,4.266017
273.1514,4.266017
275.1371,4.259284
276.3775,4.253762
277.9358,4.244662
277.9358,4.244662
282.4516,4.228618
286.7712,4.211027
289.8863,4.190112
289.8863,4.190112
290.2210,4.164301
290.5558,4.136846
290.8906,4.107523
291.2254,4.076063
291.5603,4.042134
291.8952,4.005316
292.2301,3.965077
292.5650,3.920718
292.8999,3.871301
293.2348,3.815527
293.2348,3.815527
294.8225,3.757939
296.7179,3.692937
299.2964,3.622316
302.9339,3.549885
308.0056,3.482853
314.8874,3.432827
323.9547,3.414161
323.9547,3.414161
331.5761,3.493542
337.9333,3.577458
343.3582,3.656555
348.1827,3.726571
352.7389,3.785826
352.7389,3.785826
355.8780,3.835368
358.5227,3.881500
360.7885,3.924309
362.7905,3.963920
364.6441,4.000477
366.4645,4.034122
368.3670,4.064990
370.4668,4.093203
372.8791,4.118870
375.7193,4.142078
379.1027,4.162902
383.1444,4.181395
383.1444,4.181395
385.0286,4.185652
386.9491,4.189869
388.8875,4.194046
388.8875,4.194046
392.5926,4.207834
396.3668,4.215917
402.0184,4.212010
402.0184,4.212010
405.5761,4.199144
410.2625,4.182948
414.2590,4.167246
414.2590,4.167246
414.5935,4.162424
414.9039,4.157324
415.2261,4.150840
415.5956,4.141789
416.0482,4.128855
416.6196,4.110480
417.3455,4.084681
418.2617,4.048707
419.4037,3.998375
420.8074,3.926579
422.5084,3.819335
424.5424,3.641825
424.5424,3.641825
427.2354,3.538966
429.5673,3.402940
431.1468,3.299572
431.1468,3.299572
437.7327,3.227096
448.5059,3.070464
458.8085,2.803255
##END=
