##TITLE=Benzaldehyde, 2,4,6-trimethyl-
##JCAMP-DX=4.24
##DATA TYPE=UV/VIS SPECTRUM
##ORIGIN=INSTITUTE OF ENERGY PROBLEMS OF CHEMICAL PHYSICS, RAS
##OWNER=INEP CP RAS, NIST OSRD
Collection (C) 2007 copyright by the U.S. Secretary of Commerce
on behalf of the United States of America. All rights reserved.
##CAS REGISTRY NO=487-68-3
##MOLFORM=C10H12O
##MP=14
##BP=238.5
##SOURCE REFERENCE=RAS UV No. 12715
##$NIST SQUIB=1956SCH/BUR64
##$NIST SOURCE=TYUGLMTE
##SPECTROMETER/DATA SYSTEM=Beckman DU
##XUNITS=Wavelength (nm)
##YUNITS=Logarithm epsilon
##XFACTOR=1.0
##YFACTOR=1.0
##FIRSTX=250.9
##LASTX=327.79
##FIRSTY=3.41
##MAXX=327.79
##MINX=250.9
##MAXY=3.964
##MINY=3.41
##NPOINTS=102
##$REF AUTHOR=Schubert, W.M.; Burkett
##$REF JOURNAL=J. Am. Chem. Soc.
##$REF VOLUME=78
##$REF PAGE=64
##$REF DATE=1956
##XYPOINTS=(XY..XY)
250.90,3.410
251.69,3.432
252.48,3.450
253.16,3.473
253.95,3.495
254.52,3.516
255.19,3.533
255.87,3.553
256.66,3.579
257.34,3.596
257.90,3.615
258.58,3.629
259.48,3.655
260.05,3.672
260.61,3.688
261.18,3.704
261.74,3.717
262.31,3.731
262.87,3.745
263.44,3.759
264.00,3.771
264.56,3.784
265.24,3.796
265.58,3.808
266.26,3.819
266.82,3.832
267.39,3.843
267.95,3.854
268.63,3.863
269.19,3.873
269.76,3.882
270.32,3.891
270.89,3.901
271.56,3.909
272.13,3.918
272.81,3.924
273.48,3.932
274.16,3.940
274.84,3.947
275.63,3.952
276.53,3.958
277.89,3.961
278.79,3.964
280.37,3.964
281.73,3.963
282.74,3.963
283.76,3.960
284.77,3.959
285.79,3.956
286.69,3.952
287.60,3.947
288.61,3.944
289.63,3.940
290.65,3.937
291.77,3.935
292.68,3.930
293.69,3.928
294.71,3.924
295.73,3.922
297.19,3.919
298.21,3.915
299.23,3.913
300.24,3.912
301.26,3.908
302.50,3.907
303.52,3.906
304.53,3.905
305.55,3.902
306.56,3.900
307.47,3.895
308.60,3.889
309.39,3.881
310.29,3.875
311.08,3.868
311.76,3.860
312.44,3.852
313.11,3.843
313.68,3.833
314.35,3.823
314.92,3.813
315.48,3.801
316.05,3.788
316.61,3.777
317.06,3.764
317.63,3.752
318.19,3.739
318.76,3.726
319.32,3.713
319.89,3.700
320.34,3.684
320.90,3.670
321.47,3.655
322.03,3.640
322.71,3.625
323.39,3.608
323.95,3.591
324.63,3.576
325.19,3.555
325.76,3.536
326.44,3.519
327.00,3.498
327.79,3.479
##END=
