##TITLE=4(3H)-Quinazolinone
##JCAMP-DX=4.24
##DATA TYPE=UV/VIS SPECTRUM
##ORIGIN=INSTITUTE OF ENERGY PROBLEMS OF CHEMICAL PHYSICS, RAS
##OWNER=INEP CP RAS, NIST OSRD
Collection (C) 2007 copyright by the U.S. Secretary of Commerce
on behalf of the United States of America. All rights reserved.
##CAS REGISTRY NO=491-36-1
##MOLFORM=C8H6N2O
##MP=212
##SOURCE REFERENCE=RAS UV No. 22382
##$NIST SQUIB=1977NAK/3014
##$NIST SOURCE=TYUGLMTE
##SPECTROMETER/DATA SYSTEM=Hitachi EPS-3T
##XUNITS=Wavelength (nm)
##YUNITS=Logarithm epsilon
##XFACTOR=1.0
##YFACTOR=1.0
##FIRSTX=224.612
##LASTX=267.666
##FIRSTY=3.399
##MAXX=267.666
##MINX=224.612
##MAXY=4.354
##MINY=3.399
##NPOINTS=88
##$REF AUTHOR=Nakai, T.; et al.
##$REF JOURNAL=Bull. Chem. Soc. Japan
##$REF VOLUME=50
##$REF PAGE=3014
##$REF DATE=1977
##XYPOINTS=(XY..XY)
224.612,3.399
225.112,3.420
225.612,3.434
226.112,3.437
226.612,3.433
227.093,3.427
227.593,3.428
228.093,3.435
228.593,3.452
229.093,3.484
229.101,3.484
229.601,3.510
230.101,3.531
230.601,3.546
231.101,3.554
231.601,3.556
232.101,3.551
232.601,3.541
233.101,3.528
233.601,3.514
234.122,3.501
234.622,3.490
235.122,3.480
235.622,3.470
236.122,3.462
236.622,3.455
237.122,3.450
237.622,3.447
238.122,3.447
238.622,3.450
239.122,3.457
239.622,3.468
240.122,3.484
240.622,3.503
241.093,3.524
241.618,3.544
242.118,3.566
242.618,3.592
243.118,3.622
243.618,3.652
244.118,3.683
244.618,3.712
245.118,3.738
245.618,3.761
246.118,3.779
246.618,3.793
247.118,3.801
247.618,3.804
248.118,3.802
248.618,3.793
249.118,3.780
249.599,3.763
250.099,3.743
250.599,3.719
251.099,3.693
251.599,3.668
252.099,3.645
252.599,3.627
253.099,3.615
253.599,3.610
254.099,3.612
254.599,3.622
255.099,3.639
255.599,3.663
256.099,3.692
256.666,3.727
257.166,3.761
257.666,3.803
258.166,3.846
258.666,3.887
259.166,3.925
259.666,3.963
260.166,4.004
260.666,4.048
261.166,4.098
261.666,4.151
262.166,4.205
262.666,4.257
263.166,4.302
263.666,4.335
264.166,4.353
264.666,4.354
265.166,4.342
265.666,4.319
266.166,4.294
266.666,4.274
267.166,4.262
267.666,4.250
##END=
