##TITLE=Chlornaphazine
##JCAMP-DX=4.24
##DATA TYPE=UV/VIS SPECTRUM
##ORIGIN=INSTITUTE OF ENERGY PROBLEMS OF CHEMICAL PHYSICS, RAS
##OWNER=INEP CP RAS, NIST OSRD
Collection (C) 2007 copyright by the U.S. Secretary of Commerce
on behalf of the United States of America. All rights reserved.
##CAS REGISTRY NO=494-03-1
##MOLFORM=C14H15Cl2N
##MP=53-54
##SOURCE REFERENCE=RAS UV No. 19978
##$NIST SQUIB=1966LAN173
##$NIST SOURCE=TYUGLMTE
##SPECTROMETER/DATA SYSTEM=Unicam SP 500
##XUNITS=Wavelength (nm)
##YUNITS=Logarithm epsilon
##XFACTOR=1.0
##YFACTOR=1.0
##FIRSTX=208.7
##LASTX=394.53
##FIRSTY=4.483
##MAXX=394.53
##MINX=208.7
##MAXY=4.725
##MINY=1.002
##NPOINTS=227
##$REF AUTHOR=Lang (editor), L.
##$REF JOURNAL=Absorption Spectra in the Ultraviolet and Visible Region
##$REF VOLUME=7
##$REF PAGE=173
##$REF DATE=1966
##XYPOINTS=(XY..XY)
208.70,4.483
208.87,4.487
209.04,4.490
209.21,4.493
209.38,4.493
209.55,4.497
209.72,4.500
209.89,4.504
210.06,4.507
210.23,4.510
210.40,4.510
211.25,4.521
212.10,4.527
212.96,4.534
213.81,4.538
214.66,4.538
215.51,4.531
216.37,4.517
217.22,4.463
218.07,4.351
218.92,4.269
219.78,4.201
220.63,4.167
221.48,4.147
222.33,4.130
223.19,4.120
224.04,4.120
224.89,4.120
225.74,4.130
226.60,4.133
227.45,4.143
228.30,4.157
229.15,4.167
230.01,4.191
230.86,4.208
231.71,4.228
232.56,4.249
233.42,4.273
234.27,4.293
235.12,4.313
235.97,4.341
236.83,4.361
237.68,4.381
238.53,4.408
239.38,4.439
240.24,4.463
241.09,4.493
241.94,4.524
242.79,4.551
243.65,4.575
244.50,4.602
245.35,4.623
246.20,4.640
247.06,4.653
247.91,4.663
248.76,4.674
249.61,4.687
250.47,4.694
251.32,4.704
252.17,4.711
253.02,4.718
253.88,4.721
254.73,4.725
255.58,4.708
256.43,4.670
257.29,4.616
258.14,4.544
258.99,4.476
259.84,4.357
260.70,4.184
261.55,4.065
262.40,3.984
263.25,3.916
264.10,3.865
264.96,3.820
265.81,3.797
266.66,3.776
267.51,3.763
268.37,3.759
269.22,3.756
270.07,3.766
270.92,3.773
271.78,3.786
272.63,3.807
273.48,3.831
274.33,3.854
275.19,3.882
276.04,3.899
276.89,3.912
277.74,3.919
278.60,3.922
279.45,3.926
280.30,3.933
281.15,3.943
282.01,3.953
282.86,3.970
283.71,3.994
284.56,4.024
285.42,4.062
286.27,4.079
287.12,4.089
287.97,4.086
288.83,4.065
289.68,4.035
290.53,4.007
291.38,3.980
292.24,3.963
293.09,3.960
293.94,3.967
294.79,3.984
295.65,3.997
296.50,4.011
297.35,4.018
298.20,4.028
299.06,4.018
299.91,3.946
300.76,3.769
301.61,3.664
302.47,3.630
303.32,3.562
304.17,3.504
305.02,3.423
305.88,3.314
306.73,3.106
307.58,2.998
308.43,2.940
309.29,2.906
310.14,2.886
310.99,2.879
311.84,2.886
312.70,2.892
313.55,2.899
314.40,2.909
315.25,2.920
316.10,2.937
316.96,2.950
317.81,2.967
318.66,2.988
319.51,3.008
320.37,3.035
321.22,3.052
322.07,3.072
322.92,3.093
323.78,3.110
324.63,3.130
325.48,3.144
326.33,3.164
327.19,3.181
328.04,3.185
328.89,3.202
329.74,3.215
330.60,3.232
331.45,3.246
332.30,3.256
333.15,3.270
334.01,3.283
334.86,3.293
335.71,3.307
336.56,3.317
337.42,3.327
338.27,3.338
339.12,3.351
339.97,3.365
340.83,3.378
341.68,3.392
342.53,3.406
343.38,3.412
344.24,3.426
345.09,3.433
345.94,3.440
346.79,3.446
347.65,3.450
348.50,3.453
349.35,3.453
350.20,3.450
351.06,3.443
351.91,3.440
352.76,3.440
353.61,3.436
354.47,3.440
355.32,3.450
356.17,3.453
357.02,3.450
357.88,3.443
358.73,3.433
359.58,3.423
360.43,3.412
361.29,3.406
362.14,3.389
362.99,3.375
363.84,3.355
364.70,3.327
365.55,3.290
366.40,3.253
367.25,3.219
368.10,3.168
368.96,3.117
369.81,3.062
370.66,3.008
371.51,2.957
372.37,2.920
373.22,2.869
374.07,2.763
374.92,2.712
375.78,2.658
376.63,2.569
377.48,2.474
378.33,2.410
379.19,2.335
380.04,2.267
380.89,2.192
381.74,2.117
382.60,2.049
383.45,1.988
384.30,1.906
385.15,1.828
386.01,1.747
386.86,1.675
387.71,1.597
388.56,1.516
389.42,1.437
390.27,1.366
391.12,1.295
391.97,1.223
392.83,1.148
393.68,1.077
394.53,1.002
##END=
