##TITLE=5H-Dibenz[b,f]azepine, 10,11-dihydro-
##JCAMP-DX=4.24
##DATA TYPE=UV/VIS SPECTRUM
##ORIGIN=INSTITUTE OF ENERGY PROBLEMS OF CHEMICAL PHYSICS, RAS
##OWNER=INEP CP RAS, NIST OSRD
Collection (C) 2007 copyright by the U.S. Secretary of Commerce
on behalf of the United States of America. All rights reserved.
##CAS REGISTRY NO=494-19-9
##MOLFORM=C14H13N
##SOURCE REFERENCE=RAS UV No. 373
##$NIST SQUIB=1960TEU/SCH1257-1268
##$NIST SOURCE=TSGMTE
##SPECTROMETER/DATA SYSTEM=n.i.g.
##XUNITS=Wavelength (nm)
##YUNITS=Logarithm epsilon
##XFACTOR=1.000000
##YFACTOR=1.000000
##FIRSTX=229.7874
##LASTX=341.9116
##FIRSTY=3.63042
##MAXX=341.912
##MINX=229.787
##MAXY=4.29893
##MINY=2.18181
##NPOINTS=426
##$REF AUTHOR=Teuber, H.-J.; Schmidtke, W.
##$REF TITLE=Versuche mit o.o'-imino-dibenzyl
##$REF JOURNAL=Chem. Ber.
##$REF VOLUME=93
##$REF NUMBER=6
##$REF PAGE=1257-1268
##$REF DATE=1960
##XYPOINTS=(XY..XY)
229.7874,3.630416
230.1930,3.630396
231.0485,3.617875
231.0505,3.621868
231.4498,3.609369
231.4541,3.617855
231.8997,3.596868
231.9040,3.605353
232.3012,3.588861
232.3033,3.592855
232.7046,3.584349
232.7068,3.588841
233.1568,3.576340
233.1588,3.580333
233.5581,3.567835
233.5603,3.572327
233.9596,3.559828
233.9637,3.567815
234.4116,3.551320
234.4159,3.559806
234.8128,3.542815
234.8172,3.551300
235.2144,3.534808
235.2184,3.542795
235.6157,3.526303
235.6200,3.534788
236.0699,3.522287
236.0719,3.526280
236.4712,3.513782
236.4755,3.522267
236.8748,3.509768
236.8768,3.513762
237.3267,3.501260
237.3290,3.505753
237.7303,3.497247
237.7323,3.501240
238.1316,3.488742
238.1339,3.493234
238.5858,3.484726
238.5879,3.488719
239.3907,3.472207
239.3929,3.476700
239.7942,3.468194
239.7963,3.472187
240.2485,3.464178
240.2505,3.468172
240.6518,3.459666
240.6541,3.464158
241.9109,3.443132
241.9129,3.447125
242.3144,3.439119
242.3165,3.443112
243.1763,3.439076
243.5796,3.434564
247.3820,3.434377
247.7899,3.438849
248.6518,3.438807
248.6538,3.442800
249.0614,3.446773
249.5177,3.446751
249.5200,3.451243
249.9256,3.451223
250.7408,3.459169
250.7431,3.463662
251.1994,3.463639
251.2014,3.467633
251.6070,3.467613
251.6113,3.476098
252.0169,3.476078
252.0189,3.480071
252.4772,3.484042
252.4815,3.492528
252.8891,3.496501
252.8975,3.512973
253.7637,3.521416
253.7657,3.525409
254.5812,3.533855
254.5875,3.546334
255.0438,3.546311
255.0459,3.550305
255.4535,3.554278
255.4578,3.562763
255.8654,3.566737
255.8697,3.575222
256.2753,3.575202
256.2793,3.583189
256.7379,3.587658
256.7420,3.595645
257.1498,3.600117
257.1519,3.604111
257.5595,3.608084
257.5638,3.616569
258.0221,3.620540
258.0264,3.629026
258.4340,3.632999
258.4383,3.641484
258.8460,3.645458
258.8480,3.649451
259.3066,3.653921
259.3106,3.661907
259.7185,3.666380
259.7225,3.674366
260.1281,3.674346
260.1345,3.686825
260.5400,3.686805
260.5484,3.703277
261.0070,3.707747
261.0090,3.711740
261.4166,3.715713
261.4209,3.724199
261.8285,3.728172
261.8349,3.740651
262.2932,3.744622
262.2975,3.753107
262.7051,3.757080
262.7115,3.769559
263.1193,3.774032
263.1234,3.782018
263.5817,3.785989
263.5880,3.798468
263.9959,3.802940
264.0000,3.810926
264.4078,3.815399
264.4119,3.823385
264.8705,3.827855
264.8745,3.835841
265.2821,3.839815
265.2864,3.848300
265.6941,3.852274
265.6984,3.860759
266.1060,3.864732
266.1103,3.873218
266.5686,3.877189
266.5749,3.889667
266.9826,3.893641
266.9848,3.898133
267.3925,3.902106
267.3968,3.910592
267.8551,3.914563
267.8594,3.923048
268.2670,3.927021
268.2711,3.935008
268.6789,3.939480
268.6830,3.947467
269.1416,3.951937
269.1456,3.959923
269.5535,3.964395
269.5555,3.968389
269.9631,3.972362
269.9715,3.988834
270.4278,3.988811
270.4301,3.993304
270.8377,3.997277
270.8440,4.009756
271.2496,4.009736
271.2516,4.013729
271.6595,4.018201
271.6635,4.026188
272.1221,4.030658
272.1241,4.034651
272.5318,4.038624
272.5361,4.047110
272.9437,4.051083
272.9457,4.055076
273.4020,4.055054
273.4083,4.067532
273.8162,4.072005
273.8203,4.079991
274.2279,4.083965
274.2302,4.088457
274.6885,4.092428
274.6928,4.100913
275.1004,4.104886
275.1047,4.113372
275.5123,4.117345
275.5166,4.125831
275.9242,4.129804
275.9283,4.137791
276.3846,4.137768
276.3869,4.142260
276.7945,4.146234
276.7988,4.154719
277.2064,4.158692
277.2107,4.167178
277.6690,4.171149
277.6711,4.175142
278.0789,4.179614
278.0810,4.183608
278.4886,4.187581
278.4929,4.196066
278.9492,4.196044
278.9512,4.200037
279.3588,4.204010
279.3611,4.208503
279.7687,4.212476
279.7707,4.216469
280.2293,4.220939
280.2313,4.224932
280.6390,4.228906
280.6412,4.233398
281.0468,4.233378
281.0509,4.241364
281.4565,4.241344
281.4585,4.245338
281.9171,4.249808
281.9191,4.253801
282.3247,4.253781
282.3267,4.257774
283.1929,4.266217
283.1949,4.270210
283.6005,4.270190
283.6028,4.274683
284.0084,4.274663
284.0104,4.278656
284.4687,4.282627
284.8743,4.282607
285.7405,4.291050
286.1461,4.291030
286.5537,4.295003
287.4156,4.294961
287.8232,4.298934
288.2288,4.298914
288.6830,4.294898
291.6235,4.294754
292.0271,4.290740
292.8890,4.290698
293.6958,4.282173
294.5557,4.278137
294.5577,4.282130
294.9592,4.274124
295.8211,4.274081
296.2224,4.265576
296.2244,4.269569
296.6260,4.261563
296.6280,4.265556
297.4835,4.253035
297.8871,4.249021
297.8891,4.253015
299.6002,4.227972
299.6025,4.232465
299.9954,4.207487
300.0037,4.223959
300.4010,4.207467
300.8550,4.202952
301.6661,4.202912
302.5240,4.194883
302.9273,4.190371
302.9296,4.194863
304.1864,4.173837
304.1886,4.178329
304.5879,4.165830
304.5899,4.169824
305.0399,4.157322
305.0419,4.161316
305.4412,4.148817
305.4455,4.157302
305.8363,4.128332
305.8467,4.148797
306.2906,4.124316
306.6939,4.119804
306.6962,4.124296
307.0868,4.094826
307.0975,4.115790
307.4884,4.086820
307.4904,4.090813
307.9424,4.082305
308.3439,4.074298
308.3480,4.082285
308.7431,4.061800
308.7475,4.070285
309.1931,4.049298
309.1994,4.061777
309.5713,3.995370
309.5967,4.045285
309.9665,3.974885
309.9749,3.991357
310.4228,3.974863
310.8220,3.962364
310.8261,3.970350
311.2149,3.937386
311.2253,3.957851
312.0662,3.916379
312.0725,3.928858
312.4654,3.903881
312.4718,3.916360
312.8586,3.879402
312.8690,3.899868
313.2979,3.845937
313.3126,3.874888
313.6971,3.833438
313.7015,3.841924
314.0880,3.804467
314.1007,3.829425
314.5360,3.787973
314.5423,3.800452
314.9309,3.766989
314.9393,3.783461
315.3281,3.750497
315.3345,3.762975
315.7717,3.725517
315.7824,3.746481
316.1669,3.705031
316.1753,3.721503
316.5619,3.684047
316.5702,3.700519
316.9548,3.659070
316.9654,3.680034
317.3984,3.634090
317.4111,3.659047
317.7916,3.609611
317.8019,3.630076
318.1865,3.588627
318.1949,3.605099
318.6281,3.559654
318.6408,3.584611
319.0147,3.522197
319.0316,3.555640
319.4035,3.489233
319.4182,3.518184
319.8471,3.464253
319.8598,3.489211
320.2357,3.430790
320.2507,3.460240
320.6289,3.406312
320.6413,3.430770
321.0682,3.372846
321.0829,3.401797
321.4591,3.343875
321.4718,3.368833
321.8500,3.314905
321.8626,3.339862
322.2386,3.281442
322.2535,3.310892
322.6845,3.260954
322.6949,3.281419
323.0731,3.227491
323.0880,3.256941
323.4662,3.203013
323.4766,3.223478
323.9098,3.178032
323.9225,3.202990
324.2984,3.144569
324.3134,3.174019
324.6936,3.124084
324.7040,3.144549
325.1329,3.090619
325.1479,3.120069
325.5238,3.061648
325.5365,3.086605
325.9190,3.041163
325.9294,3.061628
326.3690,3.028661
326.3753,3.041140
326.7472,2.974733
326.7723,3.024149
327.1317,2.933284
327.1528,2.974713
327.5163,2.891834
327.5350,2.928771
327.9556,2.858369
327.9703,2.887319
328.3401,2.816919
328.3591,2.854355
328.7310,2.787948
328.7457,2.816899
329.1706,2.754982
329.1873,2.787926
329.5612,2.725512
329.5739,2.750470
329.9521,2.696541
329.9668,2.725492
330.3937,2.667568
330.4063,2.692526
330.7866,2.642590
330.7972,2.663555
331.1775,2.613620
331.1922,2.642570
331.5727,2.593135
331.5810,2.609607
332.0163,2.568155
332.0267,2.588620
332.4029,2.530698
332.4198,2.564141
333.2521,2.505698
333.2604,2.522170
333.6366,2.464249
333.6556,2.501685
334.0422,2.464229
334.4901,2.447734
334.4964,2.460213
334.8914,2.439229
334.8937,2.443721
335.2866,2.418744
335.2970,2.439209
335.7282,2.389770
335.7408,2.414728
336.1294,2.381265
336.1315,2.385258
336.5307,2.372759
336.5330,2.377252
336.9259,2.352274
336.9343,2.368746
337.3759,2.339773
337.3822,2.352252
337.7688,2.314795
337.7794,2.335760
338.1660,2.298303
338.1723,2.310782
338.6159,2.285802
338.6203,2.294288
339.0132,2.269310
339.0195,2.281789
339.4104,2.252818
339.4167,2.265297
339.8603,2.240317
339.8644,2.248303
340.2596,2.227818
340.2636,2.235805
340.6588,2.215319
340.6629,2.223306
341.1088,2.202818
341.1131,2.211304
341.5080,2.190320
341.5124,2.198805
341.9093,2.181814
341.9116,2.186306
##END=
