##TITLE=Benzhydroxamic acid
##JCAMP-DX=4.24
##DATA TYPE=UV/VIS SPECTRUM
##ORIGIN=INSTITUTE OF ENERGY PROBLEMS OF CHEMICAL PHYSICS, RAS
##OWNER=INEP CP RAS, NIST OSRD
Collection (C) 2007 copyright by the U.S. Secretary of Commerce
on behalf of the United States of America. All rights reserved.
##CAS REGISTRY NO=495-18-1
##MOLFORM=C7H7NO2
##SOURCE REFERENCE=RAS UV No. 4504
##$NIST SQUIB=1957USO/VOR120-123
##$NIST SOURCE=TSGMTE
##SPECTROMETER/DATA SYSTEM=Spectrograph ISP-22
##XUNITS=Wavelength (nm)
##YUNITS=Logarithm epsilon
##XFACTOR=1.000000
##YFACTOR=1.000000
##FIRSTX=231.9596
##LASTX=316.3973
##FIRSTY=4.0256
##MAXX=316.397
##MINX=231.96
##MAXY=4.0256
##MINY=1.61244
##NPOINTS=147
##$REF AUTHOR=Usova, E.M.; Voroshin, E.M.
##$REF TITLE=On the structure of the benzohydroxamic acids and some of its derivatives
##$REF JOURNAL=Dokl. Akad. Nauk SSSR
##$REF VOLUME=114
##$REF NUMBER=1
##$REF PAGE=120-123
##$REF DATE=1957
##XYPOINTS=(XY..XY)
231.9596,4.025601
231.9596,4.025601
232.2070,4.025601
232.2528,4.010226
232.4544,4.025601
232.5618,3.994772
232.7018,4.025601
232.7018,4.025601
232.7018,4.023100
232.7018,4.020599
232.7018,4.018099
232.8786,3.979159
234.1863,3.925573
234.7845,3.892972
235.1550,3.876724
235.2820,3.866271
236.6643,3.824434
236.7311,3.836620
236.7625,3.814154
237.4733,3.784820
237.4733,3.803397
237.7665,3.775784
238.0755,3.766588
238.3923,3.757313
242.9870,3.795895
243.3811,3.811759
243.6651,3.819446
244.0827,3.825546
245.1784,3.847695
245.2949,3.854019
245.4271,3.860185
245.5672,3.866271
249.4197,3.936648
251.6832,3.946242
254.0145,3.952355
256.4052,3.954421
258.8468,3.951875
261.3308,3.944150
267.2333,3.892350
268.0816,3.879476
268.9298,3.866523
269.7781,3.853411
273.8073,3.792322
275.3874,3.763187
276.0563,3.749295
276.3875,3.738736
277.8719,3.707299
278.6142,3.718374
278.6142,3.720861
278.6142,3.723269
278.6142,3.725518
279.3669,3.709641
279.7099,3.662644
279.9115,3.693168
280.0633,3.671932
280.1798,3.664060
280.6655,3.665396
281.1590,3.666574
281.1590,3.666574
281.2755,3.651821
281.4077,3.636909
281.5478,3.621919
281.9012,3.547970
282.0779,3.540097
282.2547,3.532145
282.4314,3.524035
283.7391,3.447942
283.7391,3.450443
283.7391,3.452944
283.7391,3.455444
284.0926,3.425793
284.1384,3.424007
284.1999,3.422221
284.2693,3.420435
285.5770,3.348272
285.5770,3.350760
285.5770,3.353168
285.5770,3.355417
286.3193,3.303617
286.3193,3.306118
286.3193,3.308618
286.3193,3.311119
287.4149,3.229668
287.8155,3.222682
288.1454,3.208790
288.6873,3.176082
289.9951,3.103919
290.3956,3.078449
290.7255,3.063538
291.2675,3.046404
292.1864,2.970668
292.2938,2.965667
292.4090,2.960666
292.5399,2.955664
294.7666,2.852065
295.0506,2.833118
295.3425,2.814091
295.6502,2.794906
296.6045,2.722743
296.7118,2.718456
296.8270,2.714170
296.9579,2.709883
297.3114,2.693092
297.3572,2.690129
297.4187,2.687006
297.4881,2.683804
298.7958,2.604139
299.2658,2.576989
299.7514,2.549839
300.2449,2.522688
301.3760,2.459814
302.2923,2.416482
302.7688,2.398236
303.2139,2.389438
304.6630,2.374791
304.7072,2.337236
304.7182,2.356164
304.7624,2.310739
305.0164,2.269405
305.7587,2.222963
306.1134,2.191063
306.4760,2.159004
306.8543,2.126866
307.2431,2.071136
307.6673,2.070673
308.0914,2.070051
308.5155,2.069350
308.5155,2.069350
308.7669,2.049437
309.1831,2.026984
309.7879,1.986113
310.9189,1.945387
311.3889,1.913487
311.8746,1.881428
312.3681,1.849290
312.7569,1.804634
313.1116,1.788810
313.4742,1.772827
313.8525,1.756764
314.5948,1.727113
314.5948,1.732102
314.5948,1.737010
314.5948,1.741760
315.3016,1.682458
315.6564,1.659224
316.0190,1.635911
316.3973,1.612438
##END=
