##TITLE=Phthalan
##JCAMP-DX=4.24
##DATA TYPE=UV/VIS SPECTRUM
##ORIGIN=INSTITUTE OF ENERGY PROBLEMS OF CHEMICAL PHYSICS, RAS
##OWNER=INEP CP RAS, NIST OSRD
Collection (C) 2007 copyright by the U.S. Secretary of Commerce
on behalf of the United States of America. All rights reserved.
##CAS REGISTRY NO=496-14-0
##MOLFORM=C8H8O
##SOURCE REFERENCE=RAS UV No. 438
##$NIST SQUIB=1952ENT/RUO441-444
##$NIST SOURCE=TSGMTE
##SPECTROMETER/DATA SYSTEM=n.i.g.
##XUNITS=Wavelength (nm)
##YUNITS=Logarithm epsilon
##XFACTOR=1.000000
##YFACTOR=1.000000
##FIRSTX=225.7356
##LASTX=280.1656
##FIRSTY=2.48846
##MAXX=280.166
##MINX=225.736
##MAXY=3.07878
##MINY=1.0325
##NPOINTS=194
##$REF AUTHOR=Entel, J.; Ruof, C.H.; Howard, H.C.
##$REF TITLE=The nature of oxygen in coal: preparation and properties of phthalan
##$REF JOURNAL=J. Am. Chem. Soc.
##$REF VOLUME=74
##$REF PAGE=441-444
##$REF DATE=1952
##XYPOINTS=(XY..XY)
225.7356,2.488458
225.8445,2.484521
225.9464,2.471021
226.1288,2.436384
226.1288,2.436384
226.4263,2.415538
226.7079,2.394862
226.9817,2.374518
226.9817,2.374518
227.4068,2.306695
227.7791,2.250143
228.1064,2.202486
228.3963,2.161344
228.6566,2.124341
228.8948,2.089097
229.1188,2.053234
229.1188,2.053234
229.3282,2.046709
229.5299,2.040517
229.7158,2.034494
229.7158,2.034494
229.8130,2.021875
229.9024,2.009422
229.9761,1.997305
229.9761,1.997305
230.1855,1.990780
230.3872,1.984588
230.5730,1.978565
230.5730,1.978565
230.7672,1.963881
230.9457,1.949532
231.1163,1.935351
231.1163,1.935351
231.4574,1.921611
231.7303,1.912675
232.1687,1.900884
232.1687,1.900884
232.2261,1.895671
232.2675,1.890462
232.3010,1.885257
232.3010,1.885257
232.5042,1.882995
232.6915,1.880903
232.8711,1.879143
233.4837,1.881921
233.9256,1.895144
234.3755,1.908364
234.8413,1.921578
234.8413,1.921578
236.1773,1.975474
237.3885,2.025917
238.4721,2.071733
239.4257,2.111747
240.2467,2.144783
240.2467,2.144783
241.4710,2.198610
242.6953,2.252602
243.9199,2.306924
243.9199,2.306924
244.3325,2.329282
244.7533,2.351966
245.1902,2.374811
245.1902,2.374811
247.2743,2.453943
248.7515,2.509224
249.7729,2.546875
250.4898,2.573117
251.0533,2.594170
251.6145,2.616255
251.6145,2.616255
251.6545,2.619981
251.7025,2.623869
251.7667,2.628082
251.7667,2.628082
252.0235,2.635424
252.2802,2.642767
252.5369,2.650109
252.5369,2.650109
253.3511,2.683282
254.1654,2.716620
254.9800,2.750288
254.9800,2.750288
255.9052,2.780650
256.5463,2.804504
257.4530,2.842294
257.4530,2.842294
257.7081,2.847410
257.9632,2.852526
258.2183,2.857642
258.2183,2.857642
258.9018,2.857431
259.5933,2.857216
260.3008,2.856997
260.3008,2.856997
261.0480,2.882219
261.8115,2.907766
262.5830,2.933476
262.5830,2.933476
262.6229,2.937202
262.6710,2.941090
262.7352,2.945304
262.7352,2.945304
262.9909,2.951189
263.2467,2.957240
263.5027,2.963620
263.5027,2.963620
263.8462,2.976873
264.2057,2.990121
264.5731,3.003366
264.5731,3.003366
264.9686,3.004013
265.3642,3.004825
265.7601,3.005967
265.7601,3.005967
265.7877,2.992599
265.8232,2.979229
265.8747,2.965854
265.8747,2.965854
266.0374,2.953430
266.2175,2.933911
266.5059,2.895014
266.9937,2.824457
267.7719,2.709956
267.7719,2.709956
267.9152,2.707685
269.0040,2.725159
269.0040,2.725159
269.2493,2.800538
269.4404,2.858721
269.5927,2.903853
269.7212,2.940077
269.8411,2.971537
269.9678,3.002378
270.1165,3.036743
270.3022,3.078777
270.3022,3.078777
270.6138,3.077416
270.9097,3.076390
271.1977,3.075531
271.1977,3.075531
271.6253,3.036090
272.0371,2.996819
272.4411,2.957881
272.4411,2.957881
272.6267,2.918515
272.8044,2.879317
272.9664,2.840453
272.9664,2.840453
273.0081,2.813126
273.0521,2.778562
273.0980,2.737938
273.1455,2.692429
273.1943,2.643210
273.2442,2.591458
273.2948,2.538347
273.3458,2.485055
273.3970,2.432756
273.4481,2.382626
273.4987,2.335841
273.5486,2.293577
273.5974,2.257009
273.6449,2.227313
273.6907,2.205665
273.6907,2.205665
273.9792,2.172397
274.2519,2.139464
274.5168,2.106699
274.5168,2.106699
274.6943,2.064348
274.8712,2.022014
275.0473,1.979695
275.2227,1.937390
275.3975,1.895099
275.5717,1.852820
275.7454,1.810552
275.9187,1.768294
276.0915,1.726045
276.2639,1.683803
276.4361,1.641568
276.6080,1.599338
276.7797,1.557114
276.9512,1.514892
277.1227,1.472673
277.2940,1.430454
277.2940,1.430454
277.5551,1.381945
277.8162,1.333437
278.0773,1.284929
278.3383,1.236421
278.3383,1.236421
279.2961,1.121898
279.8057,1.062480
280.0384,1.039053
280.1656,1.032498
##END=
