##TITLE=2,3-Dihydrobenzofuran
##JCAMP-DX=4.24
##DATA TYPE=UV/VIS SPECTRUM
##ORIGIN=INSTITUTE OF ENERGY PROBLEMS OF CHEMICAL PHYSICS, RAS
##OWNER=INEP CP RAS, NIST OSRD
Collection (C) 2007 copyright by the U.S. Secretary of Commerce
on behalf of the United States of America. All rights reserved.
##CAS REGISTRY NO=496-16-2
##MOLFORM=C8H8O
##MP=-21.5
##BP=188.5
##SOURCE REFERENCE=RAS UV No. 3467
##$NIST SQUIB=1954RAM1017-1028
##$NIST SOURCE=TSGMTE
##SPECTROMETER/DATA SYSTEM=n.i.g.
##XUNITS=Wavelength (nm)
##YUNITS=Logarithm epsilon
##XFACTOR=1.000000
##YFACTOR=1.000000
##FIRSTX=288.7709
##LASTX=231.8429
##FIRSTY=1.31195
##MAXX=288.771
##MINX=231.843
##MAXY=4.05391
##MINY=1.31195
##NPOINTS=210
##$REF AUTHOR=Ramart-Lucas, M.P.
##$REF TITLE=Sur la structure electronique du carbone dans le furanne, le pyrrole et le thiofene
##$REF JOURNAL=Bull. Soc. Chim. Fr.
##$REF VOLUME=21
##$REF PAGE=1017-1028
##$REF DATE=1954
##XYPOINTS=(XY..XY)
288.7709,1.311947
288.7154,1.358571
288.5776,1.383052
288.5421,1.465114
288.5272,1.438663
288.5252,1.435102
288.5232,1.431541
288.5212,1.427981
288.5064,1.401530
288.4721,1.495121
288.3957,1.525018
288.3066,1.554690
288.0843,1.718028
288.0706,1.693593
288.0568,1.669045
288.0429,1.644271
287.8466,1.802519
287.7780,1.834430
287.7030,1.866115
287.6153,1.897690
287.0667,1.982236
286.7935,2.025312
286.5756,2.166990
286.5756,2.166990
286.5209,2.068245
286.4565,2.199863
286.3759,2.162806
286.3592,2.232717
286.2801,2.265549
286.2487,2.111082
286.2158,2.298354
286.1763,2.158395
286.1627,2.331129
286.1173,2.363870
286.0763,2.396574
286.0360,2.429237
285.9931,2.461856
285.9769,2.153872
285.9769,2.153872
285.9441,2.494425
285.8855,2.526942
285.8139,2.559403
285.7258,2.591804
285.6178,2.624142
285.4865,2.656413
285.3284,2.688613
285.1663,2.768044
285.1645,2.764842
285.1626,2.761413
285.1607,2.757871
285.1403,2.720738
284.8854,2.815915
284.8153,2.842363
284.7389,2.868698
284.6500,2.894810
284.4208,2.984386
284.3436,3.010854
284.2542,3.037324
284.1586,3.063795
283.9274,3.148285
283.7366,3.211203
283.6345,3.256131
283.5749,3.288756
283.5118,3.314769
283.3991,3.339859
283.1911,3.369714
283.1911,3.369714
282.9810,3.375443
282.9169,3.422671
282.9100,3.389172
282.8009,3.462373
282.6678,3.470386
282.5348,3.478174
282.4019,3.485848
281.8106,3.454417
281.6019,3.421239
281.3934,3.387834
281.1852,3.354316
280.5682,3.264897
280.4720,3.238462
280.3699,3.212028
280.2559,3.185596
280.2197,3.117434
280.2178,3.113873
280.2159,3.110313
280.2140,3.106752
280.1916,3.064532
280.1889,3.059427
280.1862,3.054208
280.1833,3.048764
280.0221,2.998940
279.9904,3.005050
279.9467,3.011163
279.8971,3.017277
279.5760,2.969518
279.4843,2.950204
279.3867,2.930891
279.2772,2.911581
277.8920,2.914897
277.6402,2.942266
277.3828,2.969409
277.1141,2.996442
276.5992,3.070306
276.5277,3.086448
276.4503,3.102365
276.3612,3.118172
275.9922,3.215918
275.8698,3.234255
275.7418,3.252594
275.6022,3.270935
275.3686,3.323888
275.0895,3.364433
274.8259,3.389148
274.3528,3.419217
273.2546,3.387385
273.1381,3.361727
272.6930,3.338057
272.4246,3.313786
270.1820,3.280152
269.6269,3.286370
269.0630,3.292590
268.4959,3.298810
265.6963,3.288708
264.8386,3.272478
264.3510,3.260805
263.9212,3.254999
263.6809,3.252506
263.5137,3.252542
263.3468,3.252577
263.1801,3.252613
261.9287,3.210658
261.5261,3.207184
261.1194,3.203711
260.7037,3.200240
260.4703,3.200291
260.3072,3.200327
260.1444,3.200363
259.9817,3.200398
257.8537,3.232409
257.7816,3.239547
257.6994,3.246687
257.6122,3.253829
256.4658,3.330394
256.3302,3.345535
256.1847,3.360453
256.0343,3.375258
255.1682,3.419167
255.0942,3.381067
255.0614,3.453351
254.6832,3.512920
254.4812,3.560277
254.3110,3.564630
254.2494,3.568733
254.2436,3.576101
254.0401,3.618372
253.8261,3.637752
253.6076,3.657134
253.3796,3.676518
252.4928,3.761171
252.2644,3.797343
252.0964,3.815187
251.8450,3.829999
250.5344,3.909158
250.3877,3.919216
250.2412,3.929048
250.0947,3.938767
250.0947,3.938767
249.8796,3.939817
249.6601,3.940755
249.4313,3.941469
249.4313,3.941469
249.0243,3.921085
248.5488,3.902979
247.7519,3.886420
246.7819,3.928879
246.5094,3.942153
246.2282,3.955317
245.9429,3.968255
244.0278,4.026722
243.8226,4.026773
243.6132,4.026825
243.3952,4.026879
243.3952,4.026879
243.3706,4.031464
243.3370,4.036051
243.2989,4.040639
243.2989,4.040639
242.9899,4.045144
242.6727,4.049425
242.3517,4.053595
241.1068,4.053910
240.4074,4.046232
239.9010,4.038844
239.1538,4.025414
237.6002,3.996822
237.3674,3.996224
237.1350,3.995399
236.9029,3.994462
236.9029,3.994462
236.4774,3.974207
235.9486,3.957936
235.1972,3.939464
234.1856,3.865972
234.0538,3.866008
233.9221,3.866043
233.7905,3.866079
232.8219,3.877025
232.5002,3.863887
232.1752,3.850749
231.8429,3.837614
##END=
