##TITLE=(E,Z)-1,1'-(thiodi-2,1-ethenediyl)bis-benzene
##JCAMP-DX=4.24
##DATA TYPE=UV/VIS SPECTRUM
##ORIGIN=INSTITUTE OF ENERGY PROBLEMS OF CHEMICAL PHYSICS, RAS
##OWNER=INEP CP RAS, NIST OSRD
Collection (C) 2007 copyright by the U.S. Secretary of Commerce
on behalf of the United States of America. All rights reserved.
##CAS REGISTRY NO=4973-48-2
##MOLFORM=C16H14S
##MP=95
##SOURCE REFERENCE=RAS UV No. 23585
##$NIST SQUIB=1975AMO/2026
##$NIST SOURCE=TYUGLMTE
##SPECTROMETER/DATA SYSTEM=Pye Unicam SP 8000
##XUNITS=Wavelength (nm)
##YUNITS=Logarithm epsilon
##XFACTOR=1.0
##YFACTOR=1.0
##FIRSTX=192.113
##LASTX=351.98
##FIRSTY=4.388
##MAXX=351.98
##MINX=192.113
##MAXY=4.535
##MINY=3.412
##NPOINTS=83
##$REF AUTHOR=Amosova, S.V.; et al.
##$REF JOURNAL=Zhur. Organ. Khim.
##$REF VOLUME=11
##$REF PAGE=2026
##$REF DATE=1975
##XYPOINTS=(XY..XY)
192.113,4.388
194.113,4.450
196.113,4.495
198.113,4.524
200.113,4.535
202.113,4.530
204.113,4.508
206.113,4.469
208.113,4.413
209.136,4.373
211.136,4.288
213.136,4.203
215.136,4.153
217.136,4.143
219.136,4.163
221.136,4.194
223.110,4.226
225.110,4.251
227.110,4.277
229.110,4.296
231.110,4.301
233.110,4.291
235.110,4.262
237.110,4.218
238.354,4.186
239.370,4.148
241.370,4.078
243.370,4.015
245.370,3.958
247.370,3.907
249.370,3.861
251.370,3.822
253.370,3.790
255.370,3.764
257.370,3.745
259.370,3.733
261.370,3.728
263.370,3.731
265.370,3.742
267.370,3.760
269.370,3.784
271.636,3.820
273.636,3.873
275.636,3.919
277.636,3.959
279.636,3.994
281.636,4.026
283.636,4.055
285.636,4.082
287.636,4.108
289.636,4.133
291.636,4.158
293.636,4.183
295.636,4.209
297.636,4.235
299.636,4.261
301.636,4.288
303.636,4.314
305.636,4.341
307.681,4.369
309.681,4.393
311.681,4.414
313.681,4.432
315.681,4.448
317.681,4.460
319.681,4.469
321.681,4.474
323.681,4.474
325.681,4.468
327.681,4.454
329.681,4.432
331.681,4.402
333.681,4.361
335.681,4.309
337.681,4.246
338.998,4.201
339.980,4.160
341.980,4.081
343.980,3.981
345.980,3.861
347.980,3.725
349.980,3.574
351.980,3.412
##END=
