##TITLE=4-Phenylcyclohexene
##JCAMP-DX=4.24
##DATA TYPE=UV/VIS SPECTRUM
##ORIGIN=INSTITUTE OF ENERGY PROBLEMS OF CHEMICAL PHYSICS, RAS
##OWNER=INEP CP RAS, NIST OSRD
Collection (C) 2007 copyright by the U.S. Secretary of Commerce
on behalf of the United States of America. All rights reserved.
##CAS REGISTRY NO=4994-16-5
##MOLFORM=C12H14
##SOURCE REFERENCE=RAS UV No. 6213
##$NIST SQUIB=1958EGO/KAP3284-3287
##$NIST SOURCE=TSGMTE
##SPECTROMETER/DATA SYSTEM=Spectrophotometer SF-4
##XUNITS=Wavelength (nm)
##YUNITS=Logarithm epsilon
##XFACTOR=1.000000
##YFACTOR=1.000000
##FIRSTX=223.3020
##LASTX=274.2301
##FIRSTY=3.33415
##MAXX=274.23
##MINX=223.302
##MAXY=3.52872
##MINY=3.06948
##NPOINTS=100
##$REF AUTHOR=Egorov, Iu.P.; Kaplan, E.P.; Letina, Z.I.; Shliapochnikov, V.A.; Petrov, A.D.
##$REF TITLE=On the order of addition of lithium to biphenyl
##$REF JOURNAL=Zh. Obshch. Khim.
##$REF VOLUME=28
##$REF PAGE=3284-3287
##$REF DATE=1958
##XYPOINTS=(XY..XY)
223.3020,3.334151
223.3912,3.325346
223.4984,3.316355
223.6146,3.307173
224.5582,3.276498
225.0016,3.257735
225.4640,3.240738
225.9439,3.225644
226.4401,3.212576
226.9513,3.201622
227.4761,3.192844
228.0131,3.186264
228.5612,3.181869
229.1189,3.179608
229.6849,3.179399
230.2578,3.181126
230.8364,3.184651
231.4194,3.189817
232.0053,3.196450
232.5929,3.204373
233.1809,3.213408
233.7678,3.223376
234.3525,3.234106
234.9334,3.245437
235.5095,3.257218
236.0792,3.269310
236.6413,3.281587
237.1945,3.293932
237.7373,3.306244
238.2686,3.318430
238.7870,3.330410
239.2910,3.342107
239.7795,3.353460
240.2510,3.364408
240.7044,3.374899
241.1381,3.384887
241.5509,3.394328
241.9415,3.403183
242.3086,3.411413
242.6507,3.418984
242.6507,3.418984
244.5016,3.432372
245.8065,3.441785
246.7474,3.448917
247.5066,3.455306
248.2662,3.462389
249.2084,3.471506
249.2084,3.471506
250.2824,3.475229
251.3020,3.478772
252.2755,3.482444
253.2114,3.486543
254.1182,3.491356
255.0043,3.497153
255.8783,3.504184
256.7484,3.512674
257.6233,3.522814
257.6233,3.522814
259.1266,3.525471
260.3934,3.527494
261.4498,3.528717
263.0348,3.528082
263.6151,3.525867
264.0885,3.522130
264.4809,3.516649
264.8181,3.509175
265.1259,3.499418
265.4305,3.487032
265.7574,3.471589
266.1327,3.452558
266.1327,3.452558
267.2167,3.454781
267.9275,3.460896
268.3928,3.469607
268.7404,3.479645
269.0980,3.489834
269.5936,3.499094
270.3547,3.506434
270.3547,3.506434
270.5997,3.501919
270.8427,3.495054
271.0830,3.485955
271.3200,3.474716
271.5530,3.461416
271.7815,3.446120
272.0048,3.428887
272.2223,3.409775
272.4332,3.388844
272.6371,3.366165
272.8333,3.341829
273.0210,3.315957
273.1998,3.288707
273.3690,3.260298
273.5278,3.231029
273.6758,3.201294
273.8123,3.171616
273.9366,3.142668
274.0481,3.115292
274.1461,3.090506
274.2301,3.069477
##END=
