##TITLE=3-Pyridinecarboxaldehyde
##JCAMP-DX=4.24
##DATA TYPE=UV/VIS SPECTRUM
##ORIGIN=INSTITUTE OF ENERGY PROBLEMS OF CHEMICAL PHYSICS, RAS
##OWNER=INEP CP RAS, NIST OSRD
Collection (C) 2007 copyright by the U.S. Secretary of Commerce
on behalf of the United States of America. All rights reserved.
##CAS REGISTRY NO=500-22-1
##MOLFORM=C6H5NO
##BP=89.5(14)
##SOURCE REFERENCE=RAS UV No. 86
##$NIST SQUIB=1961LAV2325-2349
##$NIST SOURCE=TSGMTE
##SPECTROMETER/DATA SYSTEM=Spectrophotometer Jobin ""Maroc
##XUNITS=Wavelength (nm)
##YUNITS=Logarithm epsilon
##XFACTOR=1.000000
##YFACTOR=1.000000
##FIRSTX=220.8231
##LASTX=358.2932
##FIRSTY=3.32608
##MAXX=358.293
##MINX=220.823
##MAXY=3.93957
##MINY=0.465636
##NPOINTS=683
##$REF AUTHOR=Laviron, E.
##$REF TITLE=Plarographie et etude physico-chimique des derives carbonyles et halogenes de la pyridine et de bases heterocycliques I
##$REF JOURNAL=Bull. Soc. Chim. Fr.
##$REF PAGE=2325-2349
##$REF DATE=1961
##XYPOINTS=(XY..XY)
220.8231,3.326077
221.1011,3.325995
221.3524,3.331444
221.5995,3.331371
221.6069,3.341190
221.8849,3.341108
221.8886,3.346017
222.3907,3.356303
222.3944,3.361213
222.6766,3.366654
222.6840,3.376473
222.9311,3.376400
222.9390,3.386833
223.1898,3.391669
223.1940,3.397193
223.4720,3.397110
223.4794,3.406929
223.7303,3.411766
223.7381,3.422199
223.9853,3.422125
223.9968,3.437468
224.2477,3.442304
224.2518,3.447828
224.5335,3.452655
224.5451,3.467998
224.7960,3.472834
224.8038,3.483267
225.0547,3.488104
225.0778,3.518790
225.3595,3.523617
225.3943,3.569646
225.6451,3.574482
225.6720,3.610078
225.9191,3.610005
225.9576,3.660944
226.2398,3.666384
226.2745,3.712414
226.5253,3.717250
226.5369,3.732593
226.7877,3.737429
226.8072,3.763205
227.0580,3.768042
227.0733,3.788294
227.3550,3.793121
227.3629,3.803555
227.6137,3.808391
227.6179,3.813914
227.8687,3.818751
227.8840,3.839003
228.1620,3.838921
228.1736,3.854264
228.4244,3.859100
228.4286,3.864623
228.6757,3.864550
228.6831,3.874369
228.9653,3.879810
228.9690,3.884720
229.2198,3.889556
229.2240,3.895079
229.4748,3.899916
229.4786,3.904825
229.7566,3.904742
230.0074,3.909579
230.0116,3.915102
230.2587,3.915028
230.2624,3.919938
230.5095,3.919865
230.5132,3.924774
231.0383,3.924618
231.0425,3.930141
231.5676,3.929985
231.5713,3.934895
232.0656,3.934747
232.3473,3.939574
233.3666,3.939271
233.6101,3.934287
234.3786,3.929147
234.3823,3.934057
234.6215,3.923550
234.6257,3.929073
234.8995,3.923467
235.3864,3.913500
235.6602,3.907894
235.6644,3.913417
235.9036,3.902910
235.9073,3.907820
236.1470,3.897927
236.1507,3.902837
236.3941,3.897853
236.9077,3.882354
236.9114,3.887263
237.1511,3.877370
237.1548,3.882280
237.4249,3.871764
237.4291,3.877287
237.6720,3.871690
237.9117,3.861797
237.9155,3.866707
238.1819,3.851281
238.1856,3.856191
238.4253,3.846297
238.4290,3.851207
238.6724,3.846224
238.9425,3.835707
238.9462,3.840617
239.6686,3.815234
239.6723,3.820143
239.9387,3.804717
239.9429,3.810241
240.1821,3.799734
240.1858,3.804644
240.4214,3.789227
240.4255,3.794751
240.6920,3.779325
240.6957,3.784234
240.9312,3.768818
240.9349,3.773727
241.1709,3.758924
241.1746,3.763834
241.4410,3.748408
241.4447,3.753318
241.9200,3.728008
241.9274,3.737828
242.1938,3.722402
242.1980,3.727925
242.6728,3.702001
242.6806,3.712435
242.9125,3.692108
242.9162,3.697018
243.1826,3.681592
243.1863,3.686502
243.6652,3.666102
243.6690,3.671011
243.9317,3.650676
243.9396,3.661109
244.4106,3.630275
244.4185,3.640709
244.6849,3.625283
244.6886,3.630193
244.9204,3.609866
244.9279,3.619686
245.1634,3.604269
245.1676,3.609792
245.4340,3.594366
245.4377,3.599276
245.6732,3.583859
245.6811,3.594293
245.9129,3.573966
245.9203,3.583786
246.1522,3.563459
246.1559,3.568369
246.4265,3.558467
246.4302,3.563376
246.6578,3.537526
246.6694,3.552869
246.8975,3.527633
246.9012,3.532543
247.1755,3.527550
247.6582,3.512060
247.6619,3.516970
247.9283,3.501544
247.9362,3.511977
248.1754,3.501470
248.9324,3.480987
248.9361,3.485897
249.1758,3.476004
249.1795,3.480913
249.4229,3.475930
250.1757,3.449923
250.1836,3.460357
250.6934,3.439947
251.2185,3.439791
251.4615,3.434193
251.9557,3.434046
252.2300,3.429054
253.0023,3.428823
253.2531,3.433660
254.5505,3.433273
254.8017,3.438723
255.0489,3.438649
255.2997,3.443485
256.5971,3.443099
256.6008,3.448008
256.8479,3.447935
257.1301,3.453375
257.8714,3.453154
257.8751,3.458064
258.1531,3.457981
258.1568,3.462891
258.9291,3.462661
259.1799,3.467497
259.4270,3.467423
259.7092,3.472864
259.9563,3.472790
259.9600,3.477700
260.4851,3.477544
260.4889,3.482453
260.9831,3.482306
261.2344,3.487756
261.7595,3.487600
262.0103,3.492436
262.2883,3.492353
262.5392,3.497189
262.7863,3.497115
262.7904,3.502639
263.8407,3.502326
263.8444,3.507236
264.0915,3.507162
264.3423,3.511998
265.8868,3.511538
266.1377,3.516374
268.2073,3.515757
268.4507,3.510774
269.2229,3.510543
269.4663,3.505560
269.9915,3.505403
270.2349,3.500420
270.4820,3.500346
270.7558,3.494740
271.0029,3.494666
271.5206,3.484690
272.0149,3.484543
272.2850,3.474027
272.2887,3.478937
272.7755,3.468970
272.7792,3.473879
273.0494,3.463363
273.2928,3.458380
273.2965,3.463290
273.5399,3.458306
274.8141,3.427233
274.8183,3.432757
275.2968,3.411743
275.3009,3.417266
275.5711,3.406750
275.5748,3.411660
275.8103,3.396243
275.8182,3.406677
276.0574,3.396170
276.3280,3.386267
276.3317,3.391177
276.5672,3.375760
276.5714,3.381284
277.0499,3.360270
277.0541,3.365793
277.3205,3.350367
277.3279,3.360187
277.8031,3.334877
277.8068,3.339787
278.0733,3.324361
278.0770,3.329271
278.3130,3.314468
278.3167,3.319377
278.5485,3.299051
278.5559,3.308870
279.0579,3.278028
279.0658,3.288461
279.2939,3.263225
279.3013,3.273044
279.5640,3.252708
279.5719,3.263142
279.8032,3.242202
279.8074,3.247725
280.0388,3.226785
280.0467,3.237218
280.2785,3.216892
280.2822,3.221801
280.5449,3.201466
280.5523,3.211285
280.7767,3.181139
280.7883,3.196482
281.2861,3.160116
281.2940,3.170549
281.5179,3.139789
281.5295,3.155132
281.7535,3.124373
281.7650,3.139716
282.0162,3.104037
282.0315,3.124290
282.2517,3.088620
282.2596,3.099053
282.4835,3.068293
282.4951,3.083637
282.7191,3.052877
282.7269,3.063310
282.9818,3.032541
282.9934,3.047884
283.2094,3.006691
283.2247,3.026944
283.4491,2.996798
283.4528,3.001707
283.7077,2.970938
283.7230,2.991191
283.9358,2.945702
283.9511,2.965955
284.1635,2.919852
284.1787,2.940105
284.4183,2.889083
284.4378,2.914859
284.6501,2.868756
284.6654,2.889009
284.8935,2.863773
284.8972,2.868683
285.1447,2.828094
285.1674,2.858167
285.3723,2.802244
285.3876,2.822497
285.5963,2.771484
285.6157,2.797261
285.8281,2.751158
285.8434,2.771410
286.0908,2.730822
286.1024,2.746165
286.3222,2.709882
286.3338,2.725225
286.5540,2.689555
286.5656,2.704898
286.8167,2.669219
286.8283,2.684562
287.0522,2.653802
287.0638,2.669146
287.2804,2.628566
287.2957,2.648819
287.5426,2.607617
287.5542,2.622960
287.7744,2.587290
287.7860,2.602633
288.0026,2.562054
288.0179,2.582307
288.2648,2.541104
288.2764,2.556447
288.5045,2.531211
288.5119,2.541031
288.7322,2.505361
288.7475,2.525614
288.9677,2.489944
288.9756,2.500378
289.2304,2.469608
289.2420,2.484952
289.4623,2.449282
289.4738,2.464625
289.6941,2.428955
289.7094,2.449208
289.9605,2.413529
289.9721,2.428872
290.1919,2.392589
290.2076,2.413456
290.4279,2.377786
290.4353,2.387606
290.6943,2.362360
290.7059,2.377703
290.9256,2.341420
290.9372,2.356763
291.1616,2.326617
291.1691,2.336436
291.3972,2.311200
291.4088,2.326543
291.6636,2.295774
291.6710,2.305594
291.8991,2.280357
291.9065,2.290177
292.1347,2.264941
292.1421,2.274760
292.3974,2.244605
292.4090,2.259948
292.6329,2.229188
292.6403,2.239008
292.8684,2.213771
292.8800,2.229114
293.1386,2.203255
293.1423,2.208165
293.3704,2.182929
293.3820,2.198272
293.5981,2.157079
293.6138,2.177945
293.8649,2.142266
293.8724,2.152086
294.0963,2.121326
294.1079,2.136669
294.3281,2.100999
294.3397,2.116342
294.5637,2.085583
294.5752,2.100926
294.8301,2.070157
294.8417,2.085500
295.3053,2.044847
295.3169,2.060190
295.5717,2.029421
295.5792,2.039240
295.8073,2.014004
295.8189,2.029347
296.0465,2.003497
296.0507,2.009021
296.3171,1.993594
296.3208,1.998504
296.5564,1.983087
296.5642,1.993521
296.7882,1.962761
296.7998,1.978104
297.0546,1.947335
297.0620,1.957155
297.5335,1.926935
297.5410,1.936754
297.7728,1.916428
297.7807,1.926861
298.0392,1.901002
298.0471,1.911435
298.2789,1.891109
298.2863,1.900928
298.5144,1.875692
298.5219,1.885512
298.7846,1.865176
298.7925,1.875609
299.0238,1.854669
299.0280,1.860192
299.2635,1.844775
299.2709,1.854595
299.5374,1.839169
299.5415,1.844693
299.7734,1.824366
299.7808,1.834186
300.0163,1.818769
300.0205,1.824292
300.2790,1.798433
300.2906,1.813776
300.7654,1.787853
301.0051,1.777959
301.0125,1.787779
301.5223,1.767370
301.7579,1.751953
301.7694,1.767296
302.0284,1.742050
302.0322,1.746960
302.2677,1.731544
302.2714,1.736453
302.5111,1.726560
302.5148,1.731469
302.7849,1.720954
302.7891,1.726477
303.2681,1.706077
303.2718,1.710987
303.5073,1.695570
303.5110,1.700480
303.7816,1.690577
303.7853,1.695487
304.2642,1.675087
304.2679,1.679996
304.5381,1.669481
304.5422,1.675004
305.0207,1.653990
305.0249,1.659514
305.2950,1.648998
305.2987,1.653907
305.5384,1.644014
305.5421,1.648924
305.7819,1.639031
305.7856,1.643940
306.0557,1.633424
306.0599,1.638947
306.5425,1.623457
306.7855,1.617860
306.7896,1.623384
307.0598,1.612868
307.0635,1.617777
307.3069,1.612793
307.5461,1.602287
307.5503,1.607811
307.8204,1.597295
307.8241,1.602204
308.0675,1.597220
308.3109,1.592237
308.5848,1.586631
308.5889,1.592155
308.8282,1.581647
308.8319,1.586557
309.0716,1.576664
309.3496,1.576581
309.5930,1.571597
310.0831,1.565927
310.0873,1.571450
310.3611,1.565844
310.6045,1.560860
310.8516,1.560786
311.1217,1.550271
311.1259,1.555794
311.6160,1.550123
311.8903,1.545130
312.3808,1.540074
312.3845,1.544983
312.6279,1.540000
312.9018,1.534393
313.9211,1.534090
314.4388,1.524113
315.7053,1.523736
316.4660,1.508163
317.4853,1.507859
317.7596,1.502867
318.0068,1.502793
318.2497,1.497195
318.7748,1.497039
319.0182,1.492056
319.5397,1.486990
319.5434,1.491899
319.7868,1.486916
320.0297,1.481318
320.5548,1.481162
321.0726,1.471186
321.5668,1.471038
321.8406,1.465432
322.0877,1.465359
322.3312,1.460375
322.8563,1.460218
323.0997,1.455235
323.3468,1.455162
323.6169,1.444646
323.6211,1.450169
324.1075,1.439588
324.1112,1.444498
324.6326,1.439432
325.1189,1.428850
325.3970,1.428768
325.6404,1.423785
325.8838,1.418802
325.8875,1.423711
326.1618,1.418719
326.4047,1.413122
326.6518,1.413048
327.1696,1.403071
327.6947,1.402914
327.9339,1.392409
327.9376,1.397318
328.4244,1.387351
328.4282,1.392261
328.6988,1.382357
328.7025,1.387269
329.1888,1.376688
329.1930,1.382212
329.4668,1.376604
329.7065,1.366711
329.7102,1.371622
329.9495,1.361114
329.9536,1.366638
330.4709,1.356049
330.4746,1.360959
330.7180,1.355974
331.9959,1.329811
332.2430,1.329737
333.5214,1.304189
333.7648,1.299204
333.7685,1.304116
334.0119,1.299130
334.2512,1.288625
334.2549,1.293535
334.5292,1.288542
335.7725,1.257477
335.7767,1.263001
336.0505,1.257395
336.8074,1.236912
336.8111,1.241820
337.0509,1.231928
337.0546,1.236837
337.2938,1.226332
337.8152,1.221266
337.8189,1.226174
338.2979,1.205775
338.3016,1.210685
338.5722,1.200782
338.8156,1.195797
338.8193,1.200708
340.3327,1.159128
340.3369,1.164650
340.5761,1.154144
340.5798,1.159056
340.8195,1.149161
341.0934,1.143555
341.0976,1.149077
341.3331,1.133660
341.3368,1.138571
341.5765,1.128677
341.5802,1.133587
341.8503,1.123071
342.0937,1.118089
342.0975,1.122999
342.3330,1.107583
342.3372,1.113104
342.8465,1.092082
342.8507,1.097604
343.0899,1.087100
343.0936,1.092008
343.3601,1.076582
343.3642,1.082106
343.6035,1.071599
343.6072,1.076509
343.8469,1.066617
343.8506,1.071525
344.0861,1.056108
344.0903,1.061633
344.6038,1.046132
344.8468,1.040535
344.8510,1.046058
345.1174,1.030632
345.1211,1.035542
345.6000,1.015142
345.6037,1.020050
345.8743,1.010151
345.8780,1.015058
346.1173,1.004554
346.1214,1.010075
346.6041,0.994585
346.8821,0.994502
347.1213,0.983996
347.1251,0.988907
347.8741,0.957990
347.8820,0.968422
348.1175,0.953005
348.1212,0.957914
348.6311,0.937508
348.6352,0.943029
349.6273,0.906518
349.6314,0.912041
349.8670,0.896625
349.8707,0.901535
350.1297,0.876287
350.1408,0.891019
350.3726,0.870691
350.3768,0.876212
350.6198,0.870615
350.8903,0.860715
350.8941,0.865625
351.1259,0.845297
351.1333,0.855119
351.6357,0.824887
351.6431,0.834707
352.1184,0.809398
352.1221,0.814308
352.3885,0.798878
352.3964,0.809317
352.6277,0.788373
352.6319,0.793895
352.8674,0.778484
352.8748,0.788303
353.1030,0.763061
353.1146,0.778405
353.3731,0.752548
353.3773,0.758071
353.6128,0.742654
353.6165,0.747567
353.8483,0.727240
353.8557,0.737057
354.1185,0.716721
354.1263,0.727159
354.3540,0.701309
354.3619,0.711740
354.5937,0.691409
354.6011,0.701231
355.0994,0.665478
355.1109,0.680825
355.3386,0.654975
355.3428,0.660496
355.5704,0.634649
355.5820,0.649987
355.8410,0.624746
355.8447,0.629654
356.0766,0.609328
356.0881,0.624674
356.3121,0.593906
356.3195,0.603729
356.5785,0.578479
356.5859,0.588305
356.8140,0.563066
356.8219,0.573498
357.0496,0.547652
357.0575,0.558084
357.3160,0.532219
357.3276,0.547566
357.5478,0.511897
357.5594,0.527243
357.7871,0.501388
357.7912,0.506911
358.0498,0.481055
358.0614,0.496404
358.2853,0.465636
358.2932,0.476078
##END=
