##TITLE=Diphenylacetylene
##JCAMP-DX=4.24
##DATA TYPE=UV/VIS SPECTRUM
##ORIGIN=INSTITUTE OF ENERGY PROBLEMS OF CHEMICAL PHYSICS, RAS
##OWNER=INEP CP RAS, NIST OSRD
Collection (C) 2007 copyright by the U.S. Secretary of Commerce
on behalf of the United States of America. All rights reserved.
##CAS REGISTRY NO=501-65-5
##MOLFORM=C14H10
##MP=62.5
##BP=300
##SOURCE REFERENCE=RAS UV No. 9001
##$NIST SQUIB=1966KOBd10/23C
##$NIST SOURCE=TSGMTE
##SPECTROMETER/DATA SYSTEM=Perkin Elmer 350
##XUNITS=Wavelength (nm)
##YUNITS=Logarithm epsilon
##XFACTOR=1.000000
##YFACTOR=1.000000
##FIRSTX=300.3314
##LASTX=210.1160
##FIRSTY=3.56196
##MAXX=300.331
##MINX=210.116
##MAXY=4.52473
##MINY=3.56196
##NPOINTS=166
##$REF AUTHOR=Kobrich, G.
##$REF TITLE=Diphenylacetylene
##$REF BOOK TITLE=UV Atlas of Organic Compounds - Vol. 2
##$REF PAGE=D10/23
##$REF DATE=1966
##$REF PUBLISHER=Plenum Press
##$REF LOCATION=New York
##XYPOINTS=(XY..XY)
300.3314,3.561965
300.1538,3.608631
299.9900,3.651148
299.8386,3.689950
299.6979,3.725469
299.5666,3.758140
299.4430,3.788397
299.3257,3.816673
299.2131,3.843402
299.1039,3.869017
298.9965,3.893952
298.8894,3.918641
298.7812,3.943517
298.6703,3.969014
298.5554,3.995567
298.4350,4.023607
298.3075,4.053569
298.1717,4.085887
298.0259,4.120995
297.8689,4.159325
297.6991,4.201312
297.5151,4.247390
297.5151,4.247390
297.0001,4.333625
296.6697,4.387079
296.4545,4.417294
296.2862,4.433811
296.0970,4.446172
296.0970,4.446172
295.8630,4.448591
295.5744,4.449995
294.9853,4.451585
294.9853,4.451585
294.8668,4.449544
294.7386,4.447448
294.6056,4.445238
294.6056,4.445238
293.9526,4.404047
293.2200,4.362526
292.2540,4.321210
290.9056,4.280633
290.9056,4.280633
290.6035,4.280387
290.3021,4.280084
290.0012,4.279668
290.0012,4.279668
288.6347,4.304526
287.5446,4.332821
286.3252,4.354275
286.3252,4.354275
285.9900,4.354031
285.6511,4.353731
285.3036,4.353318
285.3036,4.353318
284.4534,4.334963
283.3726,4.319622
281.7031,4.322717
281.7031,4.322717
280.6269,4.357938
279.9547,4.393244
279.5592,4.428813
279.3169,4.464826
279.1057,4.501459
279.1057,4.501459
278.9099,4.508595
278.7144,4.515675
278.5190,4.522641
278.5190,4.522641
278.2813,4.523411
278.0396,4.524125
277.7895,4.524726
277.7895,4.524726
277.6060,4.522955
277.4139,4.521184
277.2177,4.519413
277.2177,4.519413
276.2876,4.477375
275.6275,4.450207
274.6719,4.414625
274.6719,4.414625
274.1787,4.408817
273.4454,4.402799
272.6026,4.397695
272.6026,4.397695
270.1968,4.384809
268.7231,4.362012
267.0083,4.333118
267.0083,4.333118
265.8142,4.337552
264.8677,4.349215
263.8730,4.362127
263.8730,4.362127
263.0507,4.355025
262.6339,4.342629
262.0272,4.329398
262.0272,4.329398
260.6345,4.287165
258.9266,4.248579
256.8366,4.210817
256.8366,4.210817
256.6645,4.204508
255.9188,4.184600
254.2634,4.136628
254.2634,4.136628
253.2304,4.123593
251.9497,4.109333
250.6587,4.100736
250.6587,4.100736
250.1158,4.090401
248.5505,4.064580
245.4671,4.011996
245.4671,4.011996
245.2165,4.005158
244.8783,3.999289
244.3754,3.995019
244.3754,3.995019
244.3750,3.993670
244.3746,3.992207
244.3741,3.990688
244.3741,3.990688
243.7807,3.982530
242.8062,3.966591
241.9196,3.952684
241.9196,3.952684
240.8354,3.944446
239.9779,3.941736
238.6036,3.943545
238.6036,3.943545
236.3623,3.949197
234.8411,3.938767
232.9391,3.918579
232.9391,3.918579
231.4472,3.922727
229.9215,3.931579
228.4246,3.940147
228.4246,3.940147
227.2196,3.958501
225.9913,3.984047
225.4341,4.009473
225.4341,4.009473
225.3305,4.011700
225.2241,4.013815
225.1121,4.015873
225.1121,4.015873
224.3994,4.051806
223.7458,4.087941
223.1710,4.124301
222.6946,4.160908
222.3358,4.197784
222.3358,4.197784
221.9817,4.223578
221.5463,4.242586
220.6367,4.260625
220.6367,4.260625
219.7669,4.263498
218.9587,4.268120
218.0869,4.274900
218.0869,4.274900
216.7254,4.301705
215.2921,4.309461
213.8327,4.312254
212.3908,4.324171
212.3908,4.324171
211.2612,4.327542
210.6731,4.330118
210.1160,4.334106
##END=
