##TITLE=Benzenepropanoic acid
##JCAMP-DX=4.24
##DATA TYPE=UV/VIS SPECTRUM
##ORIGIN=INSTITUTE OF ENERGY PROBLEMS OF CHEMICAL PHYSICS, RAS
##OWNER=INEP CP RAS, NIST OSRD
Collection (C) 2007 copyright by the U.S. Secretary of Commerce
on behalf of the United States of America. All rights reserved.
##CAS REGISTRY NO=501-52-0
##MOLFORM=C9H10O2
##MP=47.0-47.5
##SOURCE REFERENCE=RAS UV No. 19651
##$NIST SQUIB=1963LAN57
##$NIST SOURCE=TYUGLMTE
##SPECTROMETER/DATA SYSTEM=Beckman DU
##XUNITS=Wavelength (nm)
##YUNITS=Logarithm epsilon
##XFACTOR=1.0
##YFACTOR=1.0
##FIRSTX=221.72
##LASTX=276.03
##FIRSTY=2.998
##MAXX=276.03
##MINX=221.72
##MAXY=2.998
##MINY=0.876
##NPOINTS=167
##$REF AUTHOR=Lang (editor), L.
##$REF JOURNAL=Absorption Spectra in the Ultraviolet and Visible Region
##$REF VOLUME=4
##$REF PAGE=57
##$REF DATE=1963
##XYPOINTS=(XY..XY)
221.72,2.998
222.03,2.928
222.29,2.852
222.64,2.748
222.98,2.663
223.32,2.580
223.65,2.522
223.99,2.443
224.33,2.392
224.67,2.330
225.01,2.289
225.34,2.238
225.68,2.196
226.02,2.169
226.36,2.128
226.70,2.097
227.03,2.073
227.37,2.039
227.71,2.015
228.05,1.994
228.39,1.974
228.72,1.950
229.06,1.924
229.40,1.902
229.74,1.881
230.07,1.864
230.41,1.850
230.75,1.833
231.09,1.809
231.43,1.795
231.76,1.778
232.10,1.764
232.35,1.755
232.78,1.744
233.12,1.737
233.45,1.727
233.96,1.716
234.47,1.706
234.81,1.703
235.14,1.703
235.72,1.702
236.43,1.702
236.76,1.703
237.11,1.705
237.51,1.706
237.85,1.710
238.18,1.710
238.52,1.713
238.82,1.718
239.21,1.722
239.54,1.727
239.87,1.734
240.21,1.740
240.58,1.746
240.91,1.751
241.23,1.758
241.56,1.764
241.93,1.770
242.24,1.778
242.58,1.792
242.92,1.806
243.25,1.826
243.59,1.843
243.93,1.850
244.27,1.860
244.61,1.864
244.94,1.860
245.28,1.864
245.65,1.868
245.96,1.878
246.29,1.891
246.63,1.908
246.97,1.926
247.31,1.943
247.65,1.967
247.98,1.991
248.32,2.018
248.66,2.025
249.00,2.025
249.34,2.028
249.67,2.032
250.01,2.032
250.35,2.032
250.69,2.039
251.03,2.049
251.36,2.063
251.70,2.076
252.04,2.094
252.38,2.111
252.72,2.131
253.05,2.155
253.34,2.170
253.73,2.183
254.07,2.196
254.41,2.203
254.74,2.207
255.08,2.196
255.42,2.190
255.64,2.182
256.09,2.169
256.43,2.166
256.77,2.162
257.11,2.162
257.45,2.169
257.78,2.183
258.12,2.200
258.46,2.217
258.80,2.234
259.14,2.255
259.47,2.265
259.81,2.268
260.15,2.272
260.49,2.265
260.83,2.255
261.16,2.248
261.48,2.239
261.84,2.234
262.17,2.233
262.52,2.231
262.87,2.226
263.19,2.214
263.53,2.196
263.66,2.171
263.87,2.142
264.20,2.124
264.54,2.114
264.88,2.111
265.22,2.114
265.56,2.124
265.92,2.143
266.23,2.162
266.57,2.172
266.91,2.169
267.09,2.154
267.19,2.131
267.25,2.090
267.32,2.053
267.58,2.011
267.92,1.991
268.26,1.987
268.60,1.991
268.80,2.015
268.94,2.042
269.13,2.074
269.27,2.100
269.40,2.116
269.61,2.128
269.86,2.120
269.95,2.104
270.06,2.072
270.19,2.019
270.29,1.977
270.63,1.874
270.96,1.771
271.30,1.668
271.64,1.535
271.98,1.446
272.31,1.363
272.65,1.308
272.99,1.226
273.33,1.144
273.69,1.103
274.15,1.050
274.64,0.993
275.10,0.956
275.69,0.914
276.03,0.876
##END=
