##TITLE=Cyclooctanone
##JCAMP-DX=4.24
##DATA TYPE=UV/VIS SPECTRUM
##ORIGIN=INSTITUTE OF ENERGY PROBLEMS OF CHEMICAL PHYSICS, RAS
##OWNER=INEP CP RAS, NIST OSRD
Collection (C) 2007 copyright by the U.S. Secretary of Commerce
on behalf of the United States of America. All rights reserved.
##CAS REGISTRY NO=502-49-8
##MOLFORM=C8H14O
##MP=29
##BP=196
##SOURCE REFERENCE=RAS UV No. 2277
##$NIST SQUIB=1973OSU/TES1830-1833
##$NIST SOURCE=TSGMTE
##SPECTROMETER/DATA SYSTEM=Bausch and Lomb 505 or Beckman DU
##XUNITS=Wavelength (nm)
##YUNITS=Logarithm epsilon
##XFACTOR=1.000000
##YFACTOR=1.000000
##FIRSTX=223.1846
##LASTX=338.7436
##FIRSTY=4.60099
##MAXX=338.744
##MINX=223.185
##MAXY=4.89326
##MINY=3.82766
##NPOINTS=157
##$REF AUTHOR=O'Sullivan, M.; Testa, A.C.
##$REF TITLE=Fluorescence of cycloalkanones
##$REF JOURNAL=J. Phys. Chem.
##$REF VOLUME=77
##$REF NUMBER=15
##$REF PAGE=1830-1833
##$REF DATE=1973
##XYPOINTS=(XY..XY)
223.1846,4.600990
223.4972,4.599150
223.9913,4.594158
224.8626,4.586521
224.8626,4.586521
225.1970,4.582781
225.9579,4.575837
227.0480,4.566255
228.3700,4.554596
229.8264,4.541458
231.3200,4.527498
232.7533,4.513462
234.0291,4.500195
235.0499,4.488645
235.0499,4.488645
235.6450,4.484826
236.7707,4.476723
238.9034,4.463602
238.9034,4.463602
239.9102,4.455052
241.0542,4.450099
241.9788,4.434964
241.9788,4.434964
243.4305,4.433241
244.8821,4.431296
246.3336,4.429235
246.3336,4.429235
247.5941,4.433850
249.0733,4.440222
251.1234,4.447200
251.1234,4.447200
252.1723,4.456962
253.2116,4.468209
254.2402,4.480655
255.2568,4.494035
256.2605,4.508100
257.2502,4.522621
258.2246,4.537396
259.1827,4.552244
260.1233,4.567008
261.0455,4.581547
261.9480,4.595742
262.8297,4.609489
263.6896,4.622696
263.6896,4.622696
264.5474,4.638657
265.4052,4.654043
266.2629,4.668888
267.1207,4.683219
267.9784,4.697064
268.8361,4.710445
268.8361,4.710445
269.5764,4.723516
270.3321,4.735846
271.1026,4.747518
271.8868,4.758604
272.6842,4.769171
273.4938,4.779278
274.3150,4.788980
275.1469,4.798326
275.9888,4.807361
276.8398,4.816127
277.6992,4.824663
278.5662,4.833003
279.4401,4.841183
280.3200,4.849231
281.2051,4.857177
282.0948,4.865048
282.0948,4.865048
283.0749,4.869111
284.0602,4.873522
285.0528,4.878018
286.0548,4.882348
287.0684,4.886268
288.0958,4.889546
289.1392,4.891952
290.2007,4.893258
291.2824,4.893230
292.3866,4.891626
292.3866,4.891626
293.1542,4.885073
294.1028,4.878966
295.1844,4.873359
296.3512,4.868303
297.5554,4.863852
298.7491,4.860058
299.8845,4.856972
300.9136,4.854644
300.9136,4.854644
301.4504,4.850093
301.9330,4.844384
302.7754,4.832437
302.7754,4.832437
303.1851,4.823819
303.6477,4.813628
304.1603,4.802129
304.7203,4.789607
305.3249,4.776377
305.9715,4.762793
306.6574,4.749258
307.3797,4.736223
308.1359,4.724197
308.9232,4.713734
309.7389,4.705425
310.5803,4.699872
310.5803,4.699872
311.4366,4.689842
312.2526,4.678702
313.0322,4.666464
313.7788,4.653132
314.4961,4.638713
315.1878,4.623208
315.8574,4.606620
316.5085,4.588952
317.1449,4.570208
317.7702,4.550393
318.3879,4.529521
319.0017,4.507610
319.6152,4.484688
320.2321,4.460796
320.2321,4.460796
320.9832,4.446800
321.6113,4.426779
322.2448,4.401436
322.2448,4.401436
323.3162,4.385745
324.2952,4.361333
325.3129,4.337138
326.2217,4.344189
326.2376,4.340444
326.2572,4.336396
326.2842,4.332171
326.5005,4.324081
326.5005,4.324081
326.7746,4.308974
327.3756,4.283873
328.1605,4.246718
328.1605,4.246718
328.5886,4.237965
329.0680,4.225387
329.3459,4.203955
329.3459,4.203955
330.0829,4.181601
330.8237,4.157830
331.5719,4.132247
331.9232,4.119237
332.0792,4.115112
332.2426,4.110940
332.4099,4.106724
332.8943,4.084271
333.8153,4.046250
334.7401,4.004287
335.6722,3.957182
335.6722,3.957182
336.6609,3.933004
337.8158,3.889562
338.7436,3.827659
##END=
