##TITLE=4,4'-DDT
##JCAMP-DX=4.24
##DATA TYPE=UV/VIS SPECTRUM
##ORIGIN=INSTITUTE OF ENERGY PROBLEMS OF CHEMICAL PHYSICS, RAS
##OWNER=INEP CP RAS, NIST OSRD
Collection (C) 2007 copyright by the U.S. Secretary of Commerce
on behalf of the United States of America. All rights reserved.
##CAS REGISTRY NO=50-29-3
##MOLFORM=C14H9Cl5
##MP=108.5
##BP=260; 186(0.05)
##SOURCE REFERENCE=RAS UV No. 9035
##$NIST SQUIB=1965BAR/SZO84B
##$NIST SOURCE=TSGMTE
##SPECTROMETER/DATA SYSTEM=Zeiss VSU-1
##XUNITS=Wavelength (nm)
##YUNITS=Logarithm epsilon
##XFACTOR=1.000000
##YFACTOR=1.000000
##FIRSTX=204.9010
##LASTX=288.6463
##FIRSTY=4.142
##MAXX=288.646
##MINX=204.901
##MAXY=4.29923
##MINY=0.873373
##NPOINTS=603
##$REF AUTHOR=Bartecki, A.; Szoke, J.; Varasanyi, G.; Vizesy, M.
##$REF TITLE=Absorption spectra in the ultraviolet and visible region. Volume 6
##$REF PAGE=84
##$REF DATE=1965
##$REF PUBLISHER=Academic Press Inc.
##$REF LOCATION=New York
##XYPOINTS=(XY..XY)
204.9010,4.141997
205.2503,4.148407
205.4124,4.148358
205.5772,4.151972
205.7595,4.151917
205.9241,4.155125
206.0861,4.155076
206.4357,4.161892
206.5978,4.161844
206.6002,4.165100
206.9447,4.164996
207.1095,4.168611
207.4539,4.168507
207.4563,4.171764
207.6184,4.171715
207.7829,4.174922
207.9653,4.174868
208.1301,4.178482
208.4745,4.178378
208.6390,4.181586
208.8011,4.181537
208.9859,4.184739
209.3100,4.184641
209.4951,4.188250
209.6572,4.188201
209.8217,4.191408
210.0040,4.191353
210.1686,4.194561
210.6751,4.194408
210.8399,4.198023
211.5287,4.197816
211.6932,4.201023
212.1997,4.200870
212.2022,4.204127
212.7087,4.203974
212.8735,4.207589
214.0486,4.207235
214.2334,4.210436
217.4345,4.209472
217.5941,4.206166
218.4450,4.205910
218.6044,4.202197
218.9488,4.202094
219.1084,4.198788
219.6149,4.198636
219.7746,4.195330
220.1190,4.195226
220.2784,4.191514
220.6228,4.191410
220.7824,4.188105
221.1269,4.188001
221.4661,4.180977
221.7903,4.180879
221.9702,4.177568
222.1323,4.177519
222.2919,4.174214
222.6363,4.174110
222.7957,4.170398
223.3022,4.170245
223.4821,4.166934
224.4748,4.166634
224.4773,4.169891
225.4903,4.169585
225.6754,4.173194
225.9995,4.173096
226.1843,4.176298
226.5085,4.176200
226.6932,4.179402
226.8553,4.179353
226.8580,4.183016
227.0201,4.182968
227.2049,4.186169
227.3670,4.186120
227.5315,4.189328
227.7138,4.189273
230.0996,4.236191
230.2617,4.236142
230.2641,4.239398
230.4464,4.239343
230.4492,4.243007
230.6112,4.242958
230.6137,4.246215
230.7782,4.249422
230.9605,4.249367
230.9633,4.253031
231.1253,4.252982
231.1278,4.256239
231.2899,4.256190
231.4746,4.259391
231.6367,4.259342
231.6394,4.263006
231.8015,4.262957
231.9863,4.266159
232.1484,4.266110
232.1508,4.269366
232.3129,4.269317
232.4980,4.272926
232.6601,4.272877
232.6625,4.276134
233.0069,4.276030
233.0093,4.279286
233.1714,4.279237
233.3362,4.282852
233.5186,4.282797
233.6831,4.286005
234.0275,4.285901
234.0302,4.289565
234.3544,4.289467
234.3568,4.292723
234.8633,4.292571
235.0481,4.295772
235.5546,4.295620
235.7194,4.299234
236.3880,4.299033
236.5474,4.295320
236.8918,4.295217
237.0514,4.291911
237.2338,4.291856
237.3934,4.288551
237.5555,4.288502
237.7351,4.284784
237.8948,4.281478
237.8972,4.284735
238.2392,4.281374
238.3961,4.274406
238.3985,4.277662
238.5558,4.271100
238.5582,4.274357
238.7354,4.267382
238.7381,4.271045
238.8950,4.264076
239.0547,4.260771
239.0571,4.264028
239.2318,4.253796
239.2343,4.257053
239.3915,4.250491
239.3939,4.253747
239.5484,4.243522
239.5508,4.246778
239.7256,4.236547
239.7307,4.243467
239.8828,4.229985
239.8852,4.233241
240.0397,4.223016
240.0421,4.226273
240.2169,4.216041
240.2196,4.219705
240.3665,4.199303
240.3765,4.212736
240.5258,4.195590
240.5286,4.199254
240.6982,4.182102
240.7058,4.192279
240.8502,4.168620
240.8578,4.178797
241.0020,4.154731
241.0096,4.164908
241.1743,4.141243
241.1819,4.151420
241.3260,4.127355
241.3336,4.137531
241.4756,4.110616
241.4857,4.124049
241.6274,4.096727
241.6350,4.106904
241.7945,4.076319
241.8073,4.093416
241.9466,4.062837
241.9566,4.076270
242.0986,4.049355
242.1062,4.059532
242.2658,4.028947
242.2810,4.049300
242.4175,4.015058
242.4279,4.028899
242.5671,3.998320
242.5772,4.011753
242.7367,3.981169
242.7495,3.998265
242.8860,3.964023
242.8988,3.981120
243.0381,3.950541
243.0481,3.963974
243.2101,3.936646
243.2177,3.946823
243.3597,3.919908
243.3697,3.933341
243.5090,3.902762
243.5191,3.916195
243.6786,3.885611
243.6889,3.899451
243.8282,3.868872
243.8383,3.882306
243.9800,3.854984
243.9876,3.865160
244.1495,3.837832
244.1599,3.851672
244.2992,3.821094
244.3092,3.834527
244.4485,3.803948
244.4585,3.817381
244.6208,3.790460
244.6284,3.800637
244.7701,3.773315
244.7801,3.786748
244.9194,3.756169
244.9298,3.770009
245.0917,3.742681
245.0993,3.752858
245.2411,3.725536
245.2514,3.739376
245.3907,3.708798
245.4007,3.722231
245.5603,3.691646
245.5703,3.705079
245.7120,3.677757
245.7196,3.687934
245.8641,3.664275
245.8717,3.674452
246.0336,3.647124
246.0440,3.660964
246.1833,3.630385
246.1933,3.643818
246.3326,3.613240
246.3426,3.626673
246.5021,3.596088
246.5125,3.609928
246.6518,3.579350
246.6618,3.592783
246.7986,3.558948
246.8111,3.575638
246.9504,3.545059
246.9580,3.555236
247.1200,3.527908
247.1303,3.541748
247.2696,3.511169
247.2796,3.524602
247.4189,3.494024
247.4289,3.507457
247.5912,3.480536
247.5988,3.490712
247.7405,3.463390
247.7506,3.476823
247.8899,3.446245
247.9002,3.460085
248.0570,3.425837
248.0698,3.442933
248.2115,3.415611
248.2166,3.422532
248.3584,3.395210
248.3711,3.412306
248.5179,3.364625
248.5383,3.391898
248.6748,3.357656
248.6776,3.361320
248.8244,3.340918
248.8369,3.357607
248.9965,3.327023
249.0068,3.340863
249.1433,3.306621
249.1561,3.323717
249.2930,3.289882
249.3054,3.306572
249.4625,3.272731
249.4726,3.286164
249.6094,3.252329
249.6246,3.272682
249.7587,3.235183
249.7688,3.248617
249.9283,3.218032
249.9386,3.231872
250.0752,3.197630
250.0880,3.214727
250.2221,3.177228
250.2348,3.194325
250.3920,3.160484
250.4020,3.173917
250.5361,3.136418
250.5540,3.160435
250.6806,3.112760
250.6982,3.136369
250.8477,3.092352
250.8629,3.112705
250.9970,3.075206
251.0071,3.088639
251.1463,3.058061
251.1567,3.071901
251.3135,3.037653
251.3263,3.054749
251.4655,3.024171
251.4756,3.037604
251.6149,3.007025
251.6276,3.024122
251.7872,2.993537
251.7972,3.006971
251.9417,2.983312
251.9493,2.993489
252.0961,2.973087
252.1013,2.980007
252.2479,2.959198
252.2555,2.969374
252.4254,2.952630
252.4302,2.959143
252.5798,2.942404
252.5847,2.948917
252.7368,2.935436
252.7419,2.942356
252.9139,2.928461
252.9167,2.932124
253.2305,2.918186
253.2332,2.921850
253.4080,2.911618
253.4104,2.914875
253.7218,2.897681
253.7270,2.904601
253.9017,2.894369
253.9041,2.897626
254.2183,2.884095
254.2207,2.887351
254.3982,2.880783
254.4006,2.884040
254.8944,2.866791
254.8971,2.870454
255.0540,2.863485
255.0564,2.866742
255.2161,2.863436
255.5553,2.856413
255.7150,2.853107
255.7174,2.856364
255.8949,2.849796
255.8973,2.853052
256.2163,2.846035
256.2191,2.849698
256.3987,2.845980
256.5583,2.842674
256.9027,2.842570
257.0624,2.839265
257.2245,2.839216
257.4041,2.835498
257.5662,2.835449
257.7258,2.832144
258.2323,2.831991
258.3920,2.828686
260.6003,2.828020
260.7597,2.824308
261.4282,2.824106
261.6082,2.820795
261.7702,2.820746
261.9296,2.817033
262.2740,2.816930
262.4337,2.813624
262.7781,2.813520
262.9377,2.810215
263.9507,2.809910
263.9532,2.813166
264.2976,2.813062
264.4621,2.816270
264.4648,2.819934
264.6269,2.819885
264.6294,2.823141
264.8117,2.823086
264.9765,2.826701
264.9789,2.829957
265.1410,2.829909
265.1435,2.833165
265.3258,2.833110
265.3285,2.836774
265.6527,2.836676
265.8375,2.839878
265.9995,2.839829
266.1641,2.843036
267.6836,2.842578
268.0231,2.835962
268.3648,2.832194
268.3676,2.835858
268.5269,2.832145
269.1855,2.818511
269.3424,2.811542
269.3475,2.818462
269.5223,2.808230
269.5247,2.811487
269.8388,2.797956
269.8413,2.801213
270.0160,2.790981
270.0212,2.797901
270.1729,2.784012
270.1757,2.787676
270.3301,2.777451
270.3350,2.783964
270.5073,2.770475
270.5125,2.777396
270.6642,2.763507
270.6694,2.770427
270.8215,2.756945
270.8239,2.760201
270.9986,2.749970
271.0011,2.753226
271.1555,2.743001
271.1583,2.746664
271.4899,2.729464
271.4951,2.736384
271.6468,2.722495
271.6496,2.726159
271.8041,2.715933
271.8065,2.719190
271.9812,2.708958
271.9864,2.715878
272.2954,2.695428
272.3002,2.701941
272.4750,2.691709
272.4777,2.695373
272.6295,2.681484
272.6346,2.688404
272.7891,2.678178
272.7915,2.681435
272.9663,2.671203
272.9690,2.674867
273.1208,2.660978
273.1259,2.667898
273.2804,2.657673
273.2829,2.660929
273.4576,2.650698
273.4600,2.653954
273.6145,2.643729
273.6197,2.650649
273.7742,2.640423
273.7766,2.643680
273.9513,2.633448
273.9541,2.637112
274.1086,2.626887
274.1134,2.633399
274.2706,2.626838
274.4478,2.619863
274.4502,2.623119
274.6075,2.616557
274.6099,2.619814
274.7668,2.612845
274.9265,2.609540
274.9289,2.612796
275.4330,2.609387
275.6129,2.606076
276.1194,2.605923
276.4359,2.595649
276.4384,2.598905
276.6107,2.585417
276.6155,2.591930
276.7652,2.575192
276.7700,2.581705
276.9145,2.558046
276.9245,2.571479
277.0892,2.547815
277.0968,2.557991
277.2413,2.534333
277.2489,2.544509
277.3906,2.517187
277.4006,2.530620
277.5626,2.503292
277.5729,2.517133
277.7146,2.489811
277.7247,2.503244
277.8667,2.476329
277.8767,2.489762
278.0363,2.459177
278.0490,2.476274
278.1856,2.442032
278.1984,2.459128
278.3376,2.428550
278.3477,2.441983
278.5048,2.408142
278.5176,2.425238
278.6568,2.394660
278.6669,2.408093
278.8034,2.373851
278.8162,2.390947
278.9706,2.353443
278.9833,2.370540
279.1202,2.336704
279.1326,2.353394
279.2719,2.322816
279.2823,2.336656
279.4418,2.306071
279.4518,2.319504
279.5887,2.285669
279.6012,2.302359
279.7380,2.268524
279.7480,2.281957
279.9027,2.244859
279.9179,2.265212
280.0520,2.227714
280.0648,2.244810
280.2014,2.210568
280.2114,2.224001
280.3507,2.193423
280.3610,2.207263
280.5154,2.169758
280.5306,2.190111
280.6647,2.152613
280.6750,2.166453
280.8092,2.128954
280.8244,2.149308
280.9763,2.108546
280.9891,2.125643
281.1256,2.091401
281.1360,2.105241
281.2825,2.084432
281.2853,2.088096
281.4321,2.040414
281.4624,2.081121
281.5814,2.023269
281.5941,2.040366
281.7283,2.002867
281.7410,2.019964
281.8954,1.982459
281.9082,1.999556
282.0423,1.962057
282.0550,1.979154
282.1892,1.941656
282.2019,1.958752
282.3563,1.921247
282.3715,1.941600
282.5008,1.897589
282.5160,1.917942
282.6477,1.877187
282.6628,1.897540
282.8148,1.856779
282.8273,1.873468
282.9589,1.832713
282.9741,1.853066
283.1058,1.812312
283.1186,1.829408
283.2705,1.788647
283.2857,1.809000
283.4174,1.768245
283.4299,1.784935
283.5643,1.747844
283.5768,1.764533
283.7287,1.723772
283.7439,1.744125
283.8707,1.696857
283.8884,1.720466
284.0176,1.676455
284.0301,1.693145
284.1796,1.649126
284.1972,1.672736
284.3265,1.628725
284.3390,1.645414
284.4734,1.608323
284.4858,1.625012
284.6354,1.580995
284.6530,1.604604
284.7822,1.560593
284.7950,1.577689
284.9240,1.533271
284.9419,1.557287
285.0887,1.509606
285.1039,1.529959
285.2356,1.489204
285.2483,1.506301
285.3773,1.461883
285.3949,1.485491
285.5217,1.438224
285.5369,1.458577
285.6861,1.414152
285.7013,1.434505
285.8306,1.390494
285.8458,1.410846
285.9775,1.370093
285.9902,1.387189
286.1343,1.335845
286.1574,1.366781
286.2763,1.308929
286.2939,1.332539
286.4205,1.284864
286.4357,1.305216
286.5800,1.254280
286.6004,1.281551
286.7193,1.223701
286.7397,1.250973
286.8637,1.200043
286.8789,1.220396
287.0233,1.169457
287.0434,1.196323
287.1598,1.135215
287.1826,1.165746
287.3095,1.118476
287.3195,1.131910
287.4638,1.080973
287.4891,1.114758
287.6132,1.063829
287.6235,1.077666
287.7524,1.033247
287.7728,1.060520
287.9096,0.999409
287.9324,1.029935
288.0489,0.968828
288.0689,0.995697
288.1830,0.931331
288.2082,0.965117
288.3398,0.897083
288.3629,0.928017
288.4867,0.876680
288.4994,0.893778
288.6463,0.873373
##END=
