##TITLE=1-methyl-2-phenyl-1H-perimidine
##JCAMP-DX=4.24
##DATA TYPE=UV/VIS SPECTRUM
##ORIGIN=INSTITUTE OF ENERGY PROBLEMS OF CHEMICAL PHYSICS, RAS
##OWNER=INEP CP RAS, NIST OSRD
Collection (C) 2007 copyright by the U.S. Secretary of Commerce
on behalf of the United States of America. All rights reserved.
##CAS REGISTRY NO=50339-38-3
##MOLFORM=C18H14N2
##MP=173-174
##SOURCE REFERENCE=RAS UV No. 22310
##$NIST SQUIB=1978POZ/1125
##$NIST SOURCE=TYUGLMTE
##SPECTROMETER/DATA SYSTEM=Spectromom 203
##XUNITS=Wavelength (nm)
##YUNITS=Logarithm epsilon
##XFACTOR=1.0
##YFACTOR=1.0
##FIRSTX=220.457
##LASTX=455.883
##FIRSTY=4.51
##MAXX=455.883
##MINX=220.457
##MAXY=4.536
##MINY=2.915
##NPOINTS=238
##$REF AUTHOR=Pozharskii, A.F.; et al.
##$REF JOURNAL=Khim. Geterosikl. Soedin.
##$REF PAGE=1125
##$REF DATE=1978
##XYPOINTS=(XY..XY)
220.457,4.510
220.768,4.510
221.768,4.509
222.768,4.510
223.768,4.513
224.768,4.517
225.768,4.522
226.768,4.527
227.768,4.532
228.768,4.535
229.768,4.536
230.768,4.535
231.768,4.530
232.768,4.521
233.768,4.509
234.768,4.493
235.768,4.473
236.768,4.450
237.768,4.424
238.768,4.396
239.768,4.366
240.768,4.335
241.768,4.304
242.768,4.272
243.768,4.242
244.768,4.212
245.768,4.184
246.768,4.158
247.768,4.134
248.768,4.111
249.768,4.090
250.768,4.069
251.768,4.050
252.768,4.030
253.768,4.010
254.768,3.990
255.768,3.968
256.768,3.946
257.768,3.923
258.109,3.916
259.109,3.895
260.109,3.878
261.109,3.863
262.109,3.850
263.109,3.836
264.109,3.823
265.109,3.809
266.109,3.794
267.109,3.778
268.109,3.762
269.109,3.744
270.109,3.727
271.109,3.710
272.109,3.693
273.109,3.676
274.109,3.661
275.109,3.648
276.109,3.636
277.109,3.626
278.109,3.618
279.109,3.613
280.109,3.609
281.109,3.608
282.109,3.609
283.109,3.612
284.109,3.616
285.109,3.622
286.109,3.629
287.109,3.637
288.109,3.645
289.109,3.654
290.109,3.663
291.109,3.673
292.407,3.686
293.635,3.698
294.635,3.709
295.635,3.721
296.635,3.736
297.635,3.751
298.635,3.767
299.635,3.784
300.635,3.801
301.635,3.818
302.635,3.836
303.635,3.853
304.635,3.870
305.635,3.887
306.635,3.904
307.635,3.920
308.635,3.936
309.635,3.951
310.635,3.966
311.635,3.981
312.635,3.995
313.635,4.009
314.635,4.022
315.635,4.036
316.635,4.049
317.635,4.061
318.635,4.074
319.635,4.086
320.635,4.097
321.635,4.109
322.635,4.120
323.635,4.130
324.635,4.140
325.635,4.150
326.635,4.159
327.635,4.167
328.635,4.174
329.635,4.181
330.635,4.186
331.635,4.191
332.635,4.194
333.635,4.196
334.635,4.196
335.635,4.195
336.635,4.192
337.635,4.187
338.635,4.180
339.635,4.171
340.635,4.160
341.635,4.147
342.635,4.132
343.635,4.115
344.635,4.095
345.635,4.074
346.635,4.050
347.635,4.025
348.635,3.999
349.635,3.971
350.635,3.943
351.635,3.914
352.635,3.886
353.635,3.859
354.635,3.834
354.898,3.829
355.898,3.799
356.898,3.769
357.898,3.738
358.898,3.707
359.898,3.677
360.898,3.646
361.898,3.616
362.898,3.587
363.898,3.558
364.898,3.531
365.898,3.505
366.898,3.480
367.898,3.456
368.898,3.434
369.898,3.414
370.898,3.395
371.898,3.377
372.898,3.361
373.898,3.347
374.898,3.334
375.898,3.323
376.898,3.314
377.898,3.305
378.898,3.298
379.898,3.293
380.898,3.288
381.898,3.285
382.898,3.282
383.898,3.280
384.898,3.279
385.898,3.278
386.898,3.277
387.883,3.278
388.883,3.276
389.883,3.273
390.883,3.270
391.883,3.267
392.883,3.264
393.883,3.261
394.883,3.258
395.883,3.254
396.883,3.251
397.883,3.247
398.883,3.244
399.883,3.240
400.883,3.237
401.883,3.233
402.883,3.230
403.883,3.226
404.883,3.222
405.883,3.219
406.883,3.215
407.883,3.212
408.883,3.208
409.883,3.204
410.883,3.201
411.883,3.197
412.883,3.193
413.883,3.190
414.883,3.186
415.883,3.182
416.883,3.178
417.883,3.174
418.883,3.170
419.883,3.166
420.883,3.162
421.883,3.158
422.883,3.154
423.883,3.150
424.883,3.145
425.883,3.141
426.883,3.136
427.883,3.131
428.883,3.126
429.883,3.121
430.883,3.116
431.883,3.110
432.883,3.105
433.883,3.099
434.883,3.093
435.883,3.087
436.883,3.080
437.883,3.074
438.883,3.067
439.883,3.060
440.883,3.052
441.883,3.045
442.883,3.037
443.883,3.029
444.883,3.021
445.883,3.012
446.883,3.003
447.883,2.994
448.883,2.985
449.883,2.976
450.883,2.966
451.883,2.956
452.883,2.946
453.883,2.936
454.883,2.926
455.883,2.915
##END=
