##TITLE=Trimethylene oxide
##JCAMP-DX=4.24
##DATA TYPE=UV/VIS SPECTRUM
##ORIGIN=INSTITUTE OF ENERGY PROBLEMS OF CHEMICAL PHYSICS, RAS
##OWNER=INEP CP RAS, NIST OSRD
Collection (C) 2007 copyright by the U.S. Secretary of Commerce
on behalf of the United States of America. All rights reserved.
##CAS REGISTRY NO=503-30-0
##MOLFORM=C3H6O
##MP=-97
##BP=47.6
##SOURCE REFERENCE=RAS UV No. 5778
##$NIST SQUIB=1959FLE/AND351-354
##$NIST SOURCE=TSGMTE
##SPECTROMETER/DATA SYSTEM=Hilger fluorite prism vacuum spectrograph
##XUNITS=Wavelength (nm)
##YUNITS=Logarithm epsilon
##XFACTOR=1.000000
##YFACTOR=1.000000
##FIRSTX=199.7013
##LASTX=155.0919
##FIRSTY=1.98676
##MAXX=199.701
##MINX=155.092
##MAXY=3.71561
##MINY=1.98676
##NPOINTS=344
##$REF AUTHOR=Fleming, G.; Anderson, M.M.; Harrison, A.J.; Pickett, L.W.
##$REF TITLE=Effect of ring size on the far ultraviolet absorption and photolysis of cyclic ethers
##$REF JOURNAL=J. Chem. Phys.
##$REF VOLUME=30
##$REF NUMBER=2
##$REF PAGE=351-354
##$REF DATE=1959
##XYPOINTS=(XY..XY)
199.7013,1.986764
199.5700,2.011236
199.4335,2.035584
199.2925,2.059819
199.1473,2.083952
198.9984,2.107995
198.8462,2.131960
198.6911,2.155857
198.5337,2.179698
198.3744,2.203494
198.2135,2.227257
198.0515,2.250998
197.8889,2.274729
197.7261,2.298461
197.5634,2.322204
197.4014,2.345972
197.2404,2.369774
197.0809,2.393623
197.0809,2.393623
196.9455,2.418028
196.8103,2.442409
196.6751,2.466769
196.5399,2.491109
196.4047,2.515433
196.2694,2.539744
196.1340,2.564044
195.9985,2.588336
195.8627,2.612623
195.7266,2.636907
195.7266,2.636907
195.4530,2.661712
195.1799,2.686517
194.9070,2.711322
194.6343,2.736128
194.3613,2.760934
194.0880,2.785742
194.0880,2.785742
193.8009,2.804247
193.5129,2.822590
193.2244,2.840802
192.9358,2.858911
192.6477,2.876949
192.3604,2.894946
192.0744,2.912930
191.7900,2.930933
191.5077,2.948985
191.2279,2.967115
190.9511,2.985355
190.6775,3.003733
190.4077,3.022280
190.1420,3.041026
189.8808,3.060001
189.6244,3.079235
189.3733,3.098759
189.1279,3.118602
189.1279,3.118602
188.9264,3.144309
188.7376,3.169893
188.5607,3.195414
188.3954,3.220931
188.2411,3.246502
188.0972,3.272187
187.9634,3.298045
187.8392,3.324135
187.8392,3.324135
187.7608,3.324203
187.6825,3.324271
187.6043,3.324340
187.6043,3.324340
187.5056,3.306612
187.3964,3.286497
187.2742,3.264675
187.1366,3.241822
186.9814,3.218618
186.8061,3.195742
186.6085,3.173872
186.3863,3.153688
186.1374,3.135867
185.8595,3.121088
185.5505,3.110032
185.2084,3.103375
185.2084,3.103375
184.8018,3.113182
184.4175,3.124691
183.9889,3.132701
183.9889,3.132701
183.7476,3.107233
183.5443,3.079896
183.3636,3.051257
183.1900,3.021888
183.1900,3.021888
182.9990,3.004596
182.7950,2.987315
182.5785,2.970201
182.3501,2.953408
182.1103,2.937091
181.8596,2.921408
181.5987,2.906511
181.3279,2.892557
181.0479,2.879701
180.7592,2.868098
180.4624,2.857905
180.1578,2.849274
179.8461,2.842363
179.5277,2.837326
179.2033,2.834320
178.8732,2.833497
178.5380,2.835016
178.1981,2.839030
177.8541,2.845694
177.5064,2.855166
177.5064,2.855166
177.3617,2.864851
177.2173,2.874435
177.0730,2.883816
177.0730,2.883816
176.9373,2.906591
176.8137,2.929503
176.7011,2.952537
176.5983,2.975683
176.5045,2.998926
176.4186,3.022254
176.3396,3.045654
176.2665,3.069114
176.1982,3.092620
176.1339,3.116159
176.0725,3.139719
176.0131,3.163288
175.9546,3.186851
175.8960,3.210396
175.8365,3.233911
175.7750,3.257383
175.7106,3.280798
175.6422,3.304144
175.5690,3.327408
175.4899,3.350577
175.4041,3.373639
175.3105,3.396580
175.2082,3.419387
175.0963,3.442049
174.9738,3.464551
174.9738,3.464551
174.8930,3.469169
174.8107,3.473686
174.7254,3.478004
174.7254,3.478004
174.6617,3.474881
174.5950,3.471762
174.5268,3.468644
174.5268,3.468644
174.4721,3.455809
174.4130,3.439115
174.3491,3.419146
174.2798,3.396481
174.2049,3.371702
174.1239,3.345388
174.0365,3.318121
173.9422,3.290483
173.8406,3.263053
173.7314,3.236412
173.6142,3.211142
173.4886,3.187824
173.3542,3.167037
173.2107,3.149364
173.0576,3.135386
172.8947,3.125682
172.7216,3.120834
172.7216,3.120834
172.5275,3.142292
172.3483,3.164519
172.1800,3.187290
172.0182,3.210380
171.8588,3.233566
171.6976,3.256622
171.5305,3.279325
171.3534,3.301451
171.1623,3.322775
171.1623,3.322775
171.0826,3.324208
171.0000,3.325542
170.9161,3.326676
170.9161,3.326676
170.8630,3.322499
170.8085,3.318122
170.7511,3.313647
170.7511,3.313647
170.6728,3.296450
170.5792,3.275869
170.4709,3.252628
170.3485,3.227447
170.2125,3.201048
170.0634,3.174154
169.9018,3.147486
169.7282,3.121767
169.5433,3.097717
169.3476,3.076058
169.1416,3.057514
168.9258,3.042805
168.7009,3.032653
168.7009,3.032653
168.3273,3.041800
168.0315,3.058590
167.7586,3.073563
167.4546,3.077260
167.4546,3.077260
167.2603,3.057002
167.0730,3.034806
166.8879,3.011380
166.7005,2.987428
166.5063,2.963657
166.3008,2.940771
166.0797,2.919477
165.8386,2.900482
165.5731,2.884489
165.5731,2.884489
165.3298,2.880074
165.1606,2.872643
164.9364,2.856978
164.9364,2.856978
164.6786,2.861705
164.4996,2.870483
164.3673,2.880356
164.2500,2.888365
164.1161,2.891551
163.9342,2.886955
163.6734,2.871619
163.6734,2.871619
163.3668,2.875006
163.0297,2.883894
162.7667,2.897250
162.7667,2.897250
162.7417,2.922599
162.7167,2.947948
162.6918,2.973297
162.6668,2.998647
162.6419,3.023996
162.6170,3.049345
162.5920,3.074694
162.5671,3.100043
162.5422,3.125392
162.5173,3.150742
162.4924,3.176091
162.4675,3.201440
162.4427,3.226789
162.4427,3.226789
162.4116,3.226825
162.3780,3.226865
162.3445,3.234188
162.3440,3.231895
162.3436,3.229502
162.3431,3.226905
162.3431,3.226905
162.2962,3.226960
162.2873,3.199057
162.2780,3.171066
162.2682,3.143011
162.2576,3.114913
162.2458,3.086794
162.2458,3.086794
162.1498,3.078695
162.0612,3.074431
161.9780,3.091205
161.9773,3.087547
161.9766,3.083788
161.9758,3.079826
161.9040,3.070349
161.9040,3.070349
161.8276,3.044160
161.7466,3.017868
161.6477,2.991487
161.5181,2.965033
161.3447,2.938522
161.2750,2.936784
161.1346,2.938450
161.0662,2.940538
161.0141,2.979737
161.0111,2.944836
161.0111,2.944836
160.9872,3.012548
160.8628,3.043351
160.8090,3.032033
160.7840,3.021456
160.7590,3.010678
160.7339,2.999798
160.6418,2.998086
160.5196,3.019630
160.3963,3.041175
160.2706,3.062723
160.2706,3.062723
160.0610,3.085209
159.8945,3.107549
159.7644,3.129994
159.6641,3.152799
159.5871,3.176215
159.5270,3.200498
159.4773,3.225898
159.4317,3.252670
159.4317,3.252670
159.3301,3.252793
159.2286,3.252916
159.1273,3.253039
159.1273,3.253039
159.1054,3.256253
159.0835,3.259466
159.0616,3.262680
159.0616,3.262680
159.0164,3.262735
158.9700,3.262791
158.9211,3.262850
158.9211,3.262850
158.6910,3.243959
158.4393,3.235869
158.1705,3.236452
157.8891,3.243577
157.5993,3.255114
157.3056,3.268934
157.3056,3.268934
157.1828,3.289894
157.0589,3.310654
156.9328,3.331315
156.9328,3.331315
156.7483,3.391220
156.5895,3.442536
156.4543,3.485984
156.3408,3.522287
156.2469,3.552167
156.1707,3.576347
156.1103,3.595549
156.0637,3.610494
156.0291,3.621905
156.0045,3.630506
155.9880,3.637017
155.9779,3.642161
155.9721,3.646660
155.9201,3.627605
155.8328,3.606806
155.7491,3.592276
155.5974,3.571559
155.5329,3.571641
155.5089,3.573693
155.4739,3.582206
155.4067,3.604090
155.2864,3.646256
155.0919,3.715614
##END=
