##TITLE=Imipramine hydrochloride
##JCAMP-DX=4.24
##DATA TYPE=UV/VIS SPECTRUM
##ORIGIN=INSTITUTE OF ENERGY PROBLEMS OF CHEMICAL PHYSICS, RAS
##OWNER=INEP CP RAS, NIST OSRD
Collection (C) 2007 copyright by the U.S. Secretary of Commerce
on behalf of the United States of America. All rights reserved.
##CAS REGISTRY NO=50-49-7
##MOLFORM=C19H24N2
##MP=172-173
##SOURCE REFERENCE=RAS UV No. 19647
##$NIST SQUIB=1965LAN349
##$NIST SOURCE=TYUGLMTE
##SPECTROMETER/DATA SYSTEM=Hilger Uvispek
##XUNITS=Wavelength (nm)
##YUNITS=Logarithm epsilon
##XFACTOR=1.0
##YFACTOR=1.0
##FIRSTX=212.34
##LASTX=338.68
##FIRSTY=4.358
##MAXX=338.68
##MINX=212.34
##MAXY=4.358
##MINY=0.626
##NPOINTS=127
##$REF AUTHOR=Lang (editor), L.
##$REF JOURNAL=Absorption Spectra in the Ultraviolet and Visible Region
##$REF VOLUME=5
##$REF PAGE=349
##$REF DATE=1965
##XYPOINTS=(XY..XY)
212.34,4.358
213.27,4.352
214.40,4.341
215.41,4.325
216.37,4.308
217.47,4.283
218.38,4.257
219.38,4.223
220.38,4.165
221.39,4.104
222.39,4.063
223.39,3.992
224.39,3.928
225.40,3.880
226.40,3.833
227.40,3.795
228.40,3.768
229.41,3.751
230.41,3.738
231.24,3.729
232.26,3.721
233.25,3.717
234.42,3.715
235.51,3.720
236.42,3.727
237.43,3.738
238.42,3.749
239.37,3.759
240.43,3.772
241.44,3.789
242.44,3.802
243.49,3.817
244.44,3.829
245.45,3.843
246.43,3.852
247.34,3.860
248.45,3.870
249.42,3.878
250.47,3.884
251.46,3.887
252.46,3.890
253.47,3.890
254.47,3.890
255.65,3.886
256.63,3.880
257.48,3.873
258.48,3.863
259.27,3.855
260.48,3.843
261.49,3.836
262.49,3.829
263.47,3.825
264.49,3.823
265.50,3.819
266.50,3.819
267.50,3.819
268.50,3.819
269.51,3.816
270.47,3.812
271.51,3.802
272.51,3.799
273.52,3.795
274.52,3.789
275.52,3.782
276.52,3.768
277.53,3.761
278.53,3.748
279.40,3.738
280.53,3.724
281.54,3.704
282.54,3.687
283.54,3.670
284.54,3.649
285.55,3.629
286.55,3.609
287.55,3.588
288.55,3.568
289.56,3.541
290.56,3.524
291.56,3.493
292.56,3.470
293.57,3.442
294.57,3.419
295.57,3.388
296.57,3.364
297.58,3.334
298.58,3.303
299.58,3.273
300.58,3.242
301.59,3.212
302.59,3.171
303.59,3.137
304.59,3.120
305.60,3.090
306.60,3.049
307.60,3.005
308.60,2.964
309.61,2.916
310.61,2.866
311.61,2.808
312.61,2.740
313.62,2.676
314.62,2.604
315.62,2.526
316.62,2.448
317.63,2.357
318.63,2.265
319.63,2.163
320.63,2.058
321.64,1.956
322.64,1.851
323.64,1.749
324.64,1.644
325.65,1.512
326.65,1.389
327.65,1.257
328.65,1.145
329.66,1.060
330.66,0.979
331.66,0.911
332.66,0.853
333.67,0.809
334.67,0.762
335.67,0.724
336.68,0.684
337.68,0.653
338.68,0.626
##END=
