##TITLE=2-Aminopyridine
##JCAMP-DX=4.24
##DATA TYPE=UV/VIS SPECTRUM
##ORIGIN=INSTITUTE OF ENERGY PROBLEMS OF CHEMICAL PHYSICS, RAS
##OWNER=INEP CP RAS, NIST OSRD
Collection (C) 2007 copyright by the U.S. Secretary of Commerce
on behalf of the United States of America. All rights reserved.
##CAS REGISTRY NO=504-29-0
##MOLFORM=C5H6N2
##MP=57.5
##BP=105(20)
##SOURCE REFERENCE=RAS UV No. 43
##$NIST SQUIB=1948STE/EWI3397-3406
##$NIST SOURCE=TSGMTE
##SPECTROMETER/DATA SYSTEM=n.i.g.
##XUNITS=Wavelength (nm)
##YUNITS=Logarithm epsilon
##XFACTOR=1.000000
##YFACTOR=1.000000
##FIRSTX=223.7792
##LASTX=338.4906
##FIRSTY=3.88977
##MAXX=338.491
##MINX=223.779
##MAXY=3.94006
##MINY=2.17014
##NPOINTS=408
##$REF AUTHOR=Steck, E.A.; Ewing, G.W.
##$REF TITLE=Absorption spectra of heterocyclic compounds. II. Amino-derivatives of pyridine, quinoline and isoquinoline
##$REF JOURNAL=J. Am. Chem. Soc.
##$REF VOLUME=70
##$REF PAGE=3397-3406
##$REF DATE=1948
##XYPOINTS=(XY..XY)
223.7792,3.889771
223.8240,3.894340
223.8776,3.898976
223.9490,3.903746
223.9490,3.903746
224.3176,3.904427
224.7041,3.905241
225.0993,3.906123
225.0993,3.906123
225.2642,3.912285
225.4380,3.918581
225.6295,3.924944
225.6295,3.924944
226.0976,3.928885
226.3983,3.932495
226.7893,3.938871
226.7893,3.938871
226.9992,3.939177
227.2269,3.939548
227.4635,3.940055
230.7441,3.932298
231.1164,3.926663
231.5342,3.922781
232.3555,3.917326
232.3555,3.917326
232.4640,3.906378
232.5636,3.895430
232.6456,3.884482
233.9692,3.856453
234.3175,3.842847
234.6094,3.835662
235.0925,3.811185
235.0951,3.828737
235.0951,3.828737
235.1659,3.800385
235.3780,3.787079
235.3780,3.787079
235.6024,3.785255
235.6639,3.749068
235.7546,3.759601
235.8092,3.783500
235.9147,3.768915
236.0074,3.781881
236.0074,3.781881
236.1529,3.717430
236.2654,3.711436
236.3692,3.705576
236.4554,3.699785
236.9677,3.664353
236.9710,3.668293
237.0917,3.654462
237.1041,3.669660
237.3818,3.621619
237.4935,3.614712
237.5965,3.607941
237.6820,3.601238
238.0158,3.573560
238.1263,3.565054
238.2279,3.556617
238.3121,3.548315
238.6064,3.520639
238.7196,3.513732
238.8329,3.506961
238.9214,3.469860
238.9462,3.500256
239.0339,3.463865
239.1377,3.458006
239.2239,3.452215
239.5120,3.416939
239.6231,3.409335
239.7255,3.401730
239.8102,3.394127
240.1275,3.346083
240.1330,3.352782
240.1385,3.359548
240.1441,3.366449
240.3993,3.290746
240.4053,3.298131
240.4114,3.305652
240.4176,3.313240
240.6893,3.257903
240.8020,3.250298
240.9146,3.242693
240.9985,3.199828
241.0272,3.235088
241.1102,3.192921
241.2132,3.186150
241.2987,3.179447
241.5910,3.149339
241.6533,3.142953
241.6979,3.136567
241.7338,3.130182
241.9060,3.098560
242.0179,3.091867
242.1210,3.085175
242.2065,3.078483
242.4802,3.025578
242.4863,3.032963
242.4924,3.040483
242.4986,3.048071
242.8015,2.982398
242.8063,2.988263
242.8112,2.994263
242.8161,3.000332
243.3858,2.921878
243.3913,2.928576
243.3968,2.935342
243.4024,2.942244
243.8941,2.881368
243.8978,2.885939
244.0180,2.871387
244.0323,2.889017
244.3038,2.833376
244.4157,2.826684
244.5188,2.819991
244.5857,2.790502
244.6043,2.813300
244.6473,2.783294
244.6914,2.776221
244.7268,2.769217
244.8600,2.689568
244.8867,2.722397
244.8921,2.729084
244.8976,2.735771
244.9030,2.742458
244.9243,2.685704
244.9711,2.681975
245.0092,2.678314
245.0966,2.591068
245.1253,2.626328
245.1307,2.633027
245.1362,2.639793
245.1419,2.646694
245.2090,2.585073
245.3128,2.579214
245.3579,2.522965
245.3634,2.529652
245.3688,2.536339
245.3743,2.543026
245.3990,2.573423
246.3294,2.500120
246.4460,2.497468
246.5628,2.494952
246.6796,2.492504
246.6796,2.492504
246.9549,2.491972
247.2215,2.491577
247.4706,2.491250
247.9864,2.492441
248.4225,2.493118
248.8588,2.493930
249.2951,2.494810
250.7799,2.518753
251.0629,2.525821
251.3459,2.533024
251.6291,2.540295
252.4884,2.574299
252.6512,2.579763
252.8141,2.585226
252.9770,2.590690
253.9917,2.621039
254.1165,2.628419
254.2414,2.635933
254.3664,2.643516
254.8530,2.657475
254.8585,2.664174
254.8640,2.670940
254.8696,2.677841
254.8696,2.677841
255.3288,2.685204
255.5484,2.690080
255.7165,2.696647
256.7323,2.728212
256.9368,2.734372
257.1501,2.740666
257.3812,2.747027
258.0831,2.782255
258.1788,2.788037
258.2921,2.793886
258.4143,2.799870
259.4310,2.832651
259.5281,2.840246
259.6429,2.847839
259.7664,2.855433
260.4621,2.883062
260.6780,2.890651
260.9115,2.898239
261.1539,2.905827
262.1748,2.943775
262.2725,2.952068
262.3879,2.960495
262.5121,2.968989
263.3319,3.002995
263.3869,3.007563
263.4596,3.012198
263.5412,3.016968
264.3610,3.050974
264.5258,3.057136
264.6996,3.063432
264.8911,3.069795
265.3901,3.098953
265.5556,3.105948
265.7300,3.113010
265.9222,3.120206
266.6140,3.142971
266.7103,3.149654
266.8243,3.156336
266.9471,3.163018
267.9618,3.193367
268.0575,3.199149
268.1708,3.204998
268.2930,3.210982
269.3097,3.243763
269.4047,3.248712
269.5174,3.253795
269.6389,3.258946
270.4982,3.292950
270.7804,3.299106
271.0628,3.305397
271.3452,3.311756
272.0055,3.344554
272.1278,3.348804
272.2500,3.353053
272.3723,3.357303
272.3866,3.374933
272.3886,3.377376
272.3907,3.379887
272.3928,3.382532
273.7058,3.390069
274.0882,3.418343
274.3982,3.433381
274.9015,3.448071
274.9015,3.448071
275.1807,3.450501
275.4599,3.452998
275.7393,3.455630
275.7393,3.455630
275.9041,3.463537
276.0690,3.471511
276.2340,3.479621
276.2340,3.479621
277.0802,3.497526
277.9265,3.515499
278.7729,3.533607
280.0963,3.553910
280.4207,3.561494
280.7540,3.569078
281.1048,3.576660
282.4423,3.614289
282.5367,3.618540
282.6487,3.622791
282.7695,3.627041
282.7695,3.627041
282.9805,3.628562
283.2091,3.630149
283.4467,3.631872
285.0970,3.664622
285.5408,3.672898
285.9935,3.681309
286.4639,3.689787
288.4261,3.716443
288.8676,3.721893
289.3179,3.727343
289.7859,3.732792
293.5724,3.762704
294.1706,3.766019
294.7775,3.769334
295.4021,3.772648
298.3825,3.785272
299.1628,3.785234
299.9255,3.785198
300.6793,3.785162
300.6793,3.785162
300.9037,3.783338
301.1106,3.781583
301.3087,3.779964
303.9498,3.764942
304.4490,3.760145
304.9307,3.755483
305.4036,3.750889
308.1937,3.724310
308.5342,3.719137
308.8571,3.714032
309.1713,3.709064
310.7744,3.683757
311.0063,3.678589
311.2295,3.673490
311.4352,3.668526
313.0301,3.633188
313.1447,3.628026
313.2593,3.622932
313.3741,3.617973
314.6561,3.587514
314.8101,3.582035
314.9640,3.576556
315.1180,3.571077
316.2387,3.536977
316.4709,3.532193
316.6945,3.527543
316.9005,3.522963
317.8628,3.488871
317.9759,3.483709
318.0803,3.478615
318.1672,3.473657
319.1304,3.440782
319.3617,3.434781
319.5843,3.428916
319.7893,3.423119
320.7526,3.390244
320.8644,3.383551
320.9675,3.376858
321.0530,3.370167
321.6995,3.337306
321.9205,3.331306
322.1240,3.325442
322.3187,3.319646
322.9692,3.291648
323.0803,3.284055
323.1827,3.276529
323.2677,3.269140
323.9203,3.243878
324.0320,3.236971
324.1351,3.230200
324.2205,3.223497
324.8650,3.188205
324.9775,3.182210
325.0812,3.176351
325.1675,3.170560
325.8159,3.140131
325.8789,3.134656
325.9243,3.129183
325.9609,3.123709
326.7606,3.084458
326.8728,3.078080
326.9762,3.071770
327.0621,3.065597
327.3531,3.033969
327.4650,3.027276
327.5681,3.020584
327.6536,3.013892
327.9872,2.985910
328.0997,2.979915
328.2035,2.974056
328.2897,2.968265
328.5758,2.930558
328.5791,2.934600
328.5825,2.938776
328.5859,2.943021
329.2057,2.877332
329.2104,2.883118
329.2151,2.888972
329.2200,2.894962
329.5019,2.852087
329.6145,2.844483
329.7271,2.836878
329.8398,2.829273
330.1321,2.799165
330.2417,2.789748
330.3427,2.780398
330.4261,2.771185
330.7434,2.723141
330.7488,2.729840
330.7543,2.736606
330.7600,2.743507
331.0357,2.693033
331.1468,2.685429
331.2492,2.677824
331.3339,2.670221
331.6138,2.624915
331.6185,2.630701
331.6233,2.636555
331.6282,2.642545
331.9289,2.574135
331.9337,2.580001
331.9386,2.586001
331.9435,2.592069
332.5214,2.523647
332.5254,2.528600
332.5296,2.533689
332.5338,2.538845
332.8491,2.488369
332.9622,2.483208
333.0666,2.478114
333.1535,2.473156
333.7856,2.422665
333.7904,2.428452
333.7951,2.434306
333.8000,2.440295
334.3782,2.372177
334.3829,2.377963
334.3876,2.383817
334.3925,2.389807
335.0266,2.341748
335.1385,2.335055
335.2416,2.328362
335.3271,2.321671
335.9735,2.288810
336.0860,2.282815
336.1898,2.276956
336.2760,2.271165
336.9244,2.240736
337.1459,2.235254
337.3497,2.229773
337.5447,2.224292
337.8733,2.190231
338.0938,2.183532
338.2966,2.176835
338.4906,2.170138
##END=
