##TITLE=Orcinol
##JCAMP-DX=4.24
##DATA TYPE=UV/VIS SPECTRUM
##ORIGIN=INSTITUTE OF ENERGY PROBLEMS OF CHEMICAL PHYSICS, RAS
##OWNER=INEP CP RAS, NIST OSRD
Collection (C) 2007 copyright by the U.S. Secretary of Commerce
on behalf of the United States of America. All rights reserved.
##CAS REGISTRY NO=504-15-4
##MOLFORM=C7H8O2
##MP=108-110
##SOURCE REFERENCE=RAS UV No. 19010
##$NIST SQUIB=1975LAN113
##$NIST SOURCE=TYUGLMTE
##SPECTROMETER/DATA SYSTEM=Unicam SP 800
##XUNITS=Wavelength (nm)
##YUNITS=Logarithm epsilon
##XFACTOR=1.0
##YFACTOR=1.0
##FIRSTX=201.86
##LASTX=293.75
##FIRSTY=4.547
##MAXX=293.75
##MINX=201.86
##MAXY=4.595
##MINY=0.851
##NPOINTS=135
##$REF AUTHOR=Lang (edtor), L.
##$REF JOURNAL=Absorption Spectra in the Ultraviolet and Visible Region
##$REF VOLUME=20
##$REF PAGE=113
##$REF DATE=1975
##XYPOINTS=(XY..XY)
201.86,4.547
202.70,4.574
203.72,4.595
205.24,4.588
206.25,4.564
206.93,4.537
207.60,4.510
208.28,4.482
208.78,4.455
209.29,4.428
209.82,4.396
210.41,4.354
211.23,4.291
212.16,4.211
213.18,4.138
213.85,4.094
214.53,4.053
215.20,4.009
215.88,3.978
216.55,3.954
217.23,3.934
217.91,3.917
218.58,3.900
219.26,3.886
219.93,3.873
220.62,3.859
221.28,3.849
221.96,3.845
222.64,3.842
223.31,3.835
223.99,3.828
224.66,3.822
225.34,3.815
226.01,3.804
226.69,3.794
227.36,3.781
228.04,3.760
228.72,3.736
229.39,3.719
230.07,3.696
230.74,3.672
231.42,3.634
231.99,3.607
232.58,3.567
233.26,3.519
233.99,3.474
234.80,3.416
235.47,3.348
236.15,3.273
236.82,3.174
237.50,3.099
238.18,3.025
238.85,2.950
239.53,2.851
240.20,2.738
240.88,2.636
241.55,2.537
242.23,2.452
242.91,2.374
243.58,2.289
244.26,2.193
244.85,2.120
245.61,2.101
246.28,2.119
246.96,2.139
247.64,2.166
248.31,2.197
249.05,2.229
249.72,2.257
250.46,2.285
251.01,2.309
251.67,2.333
252.34,2.352
253.04,2.374
253.72,2.405
254.39,2.435
255.07,2.466
255.74,2.490
256.42,2.524
257.09,2.561
257.77,2.595
258.45,2.629
259.12,2.657
259.80,2.681
260.47,2.715
261.15,2.749
261.82,2.783
262.50,2.813
263.18,2.841
263.85,2.864
264.53,2.892
265.20,2.922
265.88,2.953
266.55,2.980
267.23,3.007
267.91,3.028
268.58,3.052
269.26,3.079
269.93,3.106
270.61,3.130
271.28,3.151
271.96,3.161
272.64,3.178
273.31,3.191
273.99,3.198
274.66,3.205
275.34,3.198
276.01,3.191
276.69,3.185
277.36,3.174
278.04,3.174
278.72,3.181
279.39,3.185
280.07,3.191
280.74,3.191
281.42,3.178
282.09,3.110
282.77,2.984
283.45,2.875
284.12,2.772
284.80,2.660
285.47,2.524
286.15,2.377
286.82,2.224
287.50,2.088
288.18,1.969
288.75,1.858
289.26,1.759
290.01,1.640
290.88,1.485
291.55,1.356
292.23,1.219
292.91,1.042
293.58,0.858
293.75,0.851
##END=
