##TITLE=Aminopyrazine
##JCAMP-DX=4.24
##DATA TYPE=UV/VIS SPECTRUM
##ORIGIN=INSTITUTE OF ENERGY PROBLEMS OF CHEMICAL PHYSICS, RAS
##OWNER=INEP CP RAS, NIST OSRD
Collection (C) 2007 copyright by the U.S. Secretary of Commerce
on behalf of the United States of America. All rights reserved.
##CAS REGISTRY NO=5049-61-6
##MOLFORM=C4H5N3
##MP=125-6
##SOURCE REFERENCE=RAS UV No. 18
##$NIST SQUIB=1957PRO/SKO1360-1363
##$NIST SOURCE=TSGMTE
##SPECTROMETER/DATA SYSTEM=Spectrophotometer SF-16
##XUNITS=Wavelength (nm)
##YUNITS=Logarithm epsilon
##XFACTOR=1.000000
##YFACTOR=1.000000
##FIRSTX=210.0000
##LASTX=319.0000
##FIRSTY=3.65
##MAXX=319
##MINX=210
##MAXY=4.22
##MINY=2.65
##NPOINTS=110
##$REF AUTHOR=Protopopova, T.V.; Skoldinov, A.P.
##$REF TITLE=Synthesis with 1,1,3,3-tetraalkoxypropanes. Preparation of the simpler heterocyclic compounds
##$REF JOURNAL=Zh. Obshch. Khim.
##$REF VOLUME=27
##$REF PAGE=1360-1363
##$REF DATE=1957
##XYPOINTS=(XY..XY)
210.0000,3.649997
211.0000,3.690000
212.0000,3.730000
213.0000,3.770000
214.0000,3.780000
215.0000,3.820000
216.0000,3.870000
217.0000,3.920000
218.0000,3.970000
219.0000,4.010000
220.0000,4.060018
221.0000,4.100000
222.0000,4.120000
223.0000,4.140000
224.0000,4.160000
225.0000,4.190000
226.0000,4.210000
227.0000,4.210000
228.0000,4.210000
229.0000,4.220000
230.0000,4.189995
231.0000,4.160000
232.0000,4.110000
233.0000,4.060000
234.0000,4.010000
235.0000,3.960000
236.0000,3.910000
237.0000,3.860000
238.0000,3.800000
239.0000,3.750000
240.0000,3.700002
241.0000,3.650000
242.0000,3.540000
243.0000,3.410000
244.0000,3.270000
245.0000,3.140000
246.0000,3.010000
247.0000,2.880000
248.0000,2.750000
249.0000,2.710000
250.0000,2.670005
251.0000,2.660000
252.0000,2.650000
253.0000,2.660000
254.0000,2.680000
255.0000,2.700000
256.0000,2.710000
257.0000,2.730000
258.0000,2.750000
259.0000,2.780000
260.0000,2.809997
261.0000,2.840000
262.0000,2.870000
263.0000,2.900000
264.0000,2.930000
265.0000,2.960000
266.0000,2.990000
267.0000,3.020000
268.0000,3.050000
269.0000,3.070000
270.0000,3.090011
271.0000,3.110000
272.0000,3.130000
273.0000,3.150000
274.0000,3.170000
275.0000,3.190000
276.0000,3.200000
277.0000,3.220000
278.0000,3.240000
279.0000,3.260000
280.0000,3.280009
281.0000,3.300000
282.0000,3.320000
283.0000,3.340000
284.0000,3.360000
285.0000,3.380000
286.0000,3.400000
287.0000,3.420000
288.0000,3.440000
289.0000,3.460000
290.0000,3.480007
291.0000,3.500000
292.0000,3.520000
293.0000,3.530000
294.0000,3.540000
295.0000,3.550000
296.0000,3.540000
297.0000,3.550000
298.0000,3.550000
299.0000,3.540000
300.0000,3.540004
301.0000,3.530000
302.0000,3.530000
303.0000,3.530000
304.0000,3.510000
305.0000,3.500000
306.0000,3.490000
307.0000,3.470000
308.0000,3.450000
309.0000,3.440000
310.0000,3.420005
311.0000,3.400000
312.0000,3.370000
313.0000,3.330000
314.0000,3.310000
315.0000,3.290000
316.0000,3.240000
317.0000,3.200000
318.0000,3.150000
319.0000,3.120000
##END=
