##TITLE=1,4-Dithiane
##JCAMP-DX=4.24
##DATA TYPE=UV/VIS SPECTRUM
##ORIGIN=INSTITUTE OF ENERGY PROBLEMS OF CHEMICAL PHYSICS, RAS
##OWNER=INEP CP RAS, NIST OSRD
Collection (C) 2007 copyright by the U.S. Secretary of Commerce
on behalf of the United States of America. All rights reserved.
##CAS REGISTRY NO=505-29-3
##MOLFORM=C4H8S2
##MP=112.3
##BP=199.5
##SOURCE REFERENCE=RAS UV No. 6378
##$NIST SQUIB=1969BAR/HIT407-415
##$NIST SOURCE=TSGMTE
##SPECTROMETER/DATA SYSTEM=n.i.g.
##XUNITS=Wavelength (nm)
##YUNITS=Logarithm epsilon
##XFACTOR=1.000000
##YFACTOR=1.000000
##FIRSTX=184.8595
##LASTX=246.0265
##FIRSTY=3.50251
##MAXX=246.027
##MINX=184.86
##MAXY=3.82376
##MINY=2.20523
##NPOINTS=198
##$REF AUTHOR=Barrett, J.; Hitch, M.J.
##$REF TITLE=The electronic spectra of some mercaptals
##$REF JOURNAL=Spectrochim. Acta, Part A
##$REF VOLUME=25
##$REF PAGE=407-415
##$REF DATE=1969
##XYPOINTS=(XY..XY)
184.8595,3.502505
185.5847,3.508219
186.1852,3.515086
186.6758,3.522759
187.0713,3.530905
187.3864,3.539214
187.6359,3.547396
187.8345,3.555185
187.9970,3.562330
188.1382,3.568597
188.2728,3.573761
188.2728,3.573761
188.3562,3.580388
188.5298,3.593337
188.6199,3.599664
188.7122,3.605898
188.9031,3.618094
189.0016,3.624062
189.1020,3.629946
189.2043,3.635748
189.3085,3.641471
189.4144,3.647116
189.5221,3.652687
189.6316,3.658184
189.7426,3.663610
189.8553,3.668967
189.9695,3.674256
190.0853,3.679478
190.2024,3.684636
190.3210,3.689731
190.4409,3.694764
190.5621,3.699737
190.6845,3.704652
190.8082,3.709510
190.9330,3.714311
191.0589,3.719057
191.1858,3.723750
191.3137,3.728391
191.4427,3.732980
191.5724,3.737520
191.7030,3.742010
191.8344,3.746452
191.9666,3.750847
192.0994,3.755196
192.2329,3.759500
192.3669,3.763759
192.5015,3.767976
192.6366,3.772150
192.7722,3.776282
192.9080,3.780373
193.0443,3.784424
193.1808,3.788436
193.3177,3.792410
193.4546,3.796345
193.5917,3.800244
193.7289,3.804106
193.8661,3.807932
194.0033,3.811723
194.1405,3.815480
194.1405,3.815480
194.6677,3.820134
195.3280,3.822530
196.7843,3.823758
196.7843,3.823758
197.1536,3.821189
197.4876,3.818209
197.7882,3.814852
198.0573,3.811152
198.2968,3.807142
198.5088,3.802858
198.6951,3.798335
198.8576,3.793611
198.9984,3.788724
199.1193,3.783714
199.2223,3.778624
199.3092,3.773498
199.3822,3.768382
199.4431,3.763324
199.4937,3.758375
199.5361,3.753588
199.5723,3.749018
199.6040,3.744722
199.6333,3.740759
199.6622,3.737188
199.6925,3.734071
199.7262,3.731467
199.7262,3.731467
199.8210,3.726947
199.9140,3.722373
200.0054,3.717743
200.0952,3.713058
200.1835,3.708315
200.2705,3.703513
200.3562,3.698653
200.4408,3.693731
200.5244,3.688746
200.6070,3.683699
200.6888,3.678587
200.7700,3.673408
200.8504,3.668162
200.9304,3.662847
201.0100,3.657461
201.0893,3.652003
201.1683,3.646471
201.2474,3.640863
201.3264,3.635178
201.4056,3.629413
201.4850,3.623566
201.5647,3.617637
201.6450,3.611622
201.7257,3.605519
201.8070,3.599326
201.8892,3.593040
201.9723,3.586660
202.0563,3.580182
202.1414,3.573603
202.2277,3.566922
202.3152,3.560134
202.4042,3.553237
202.4947,3.546228
202.5868,3.539102
202.6806,3.531857
202.7762,3.524489
202.8737,3.516993
202.9733,3.509366
203.0751,3.501603
203.1790,3.493699
203.2853,3.485650
203.3941,3.477451
203.5055,3.469095
203.6195,3.460578
203.7363,3.451893
203.8559,3.443034
203.9786,3.433994
204.1043,3.424765
204.2333,3.415341
204.3655,3.405712
204.5012,3.395870
204.6403,3.385806
204.7831,3.375509
204.9296,3.364969
205.0800,3.354175
205.2343,3.343113
205.3926,3.331772
205.5551,3.320136
205.7219,3.308190
205.8929,3.295917
206.0685,3.283299
206.2486,3.270316
206.4335,3.256947
206.6230,3.243169
206.8175,3.228954
206.8175,3.228954
207.0840,3.219329
207.3674,3.208429
207.6679,3.196266
207.9857,3.182846
208.3212,3.168172
208.6747,3.152240
209.0465,3.135046
209.4368,3.116586
209.8459,3.096853
210.2741,3.075840
210.7218,3.053545
211.1892,3.029969
211.6766,3.005123
212.1842,2.979027
212.7124,2.951722
213.2614,2.923269
213.8317,2.893760
214.4233,2.863332
215.0366,2.832177
215.6720,2.800555
216.3297,2.768820
217.0100,2.737427
217.7131,2.706967
218.4394,2.678163
219.1891,2.651884
219.9626,2.629115
219.9626,2.629115
221.2905,2.630399
222.5769,2.630785
223.8269,2.630139
225.0450,2.628320
226.2361,2.625172
227.4050,2.620528
228.5565,2.614200
229.6952,2.605965
230.8260,2.595567
231.9537,2.582701
233.0830,2.566985
234.2188,2.547953
235.3658,2.525001
236.5286,2.497333
237.7123,2.463877
242.7160,2.300737
244.4654,2.259556
246.0265,2.205226
##END=
