##TITLE=1,3-Dithiane
##JCAMP-DX=4.24
##DATA TYPE=UV/VIS SPECTRUM
##ORIGIN=INSTITUTE OF ENERGY PROBLEMS OF CHEMICAL PHYSICS, RAS
##OWNER=INEP CP RAS, NIST OSRD
Collection (C) 2007 copyright by the U.S. Secretary of Commerce
on behalf of the United States of America. All rights reserved.
##CAS REGISTRY NO=505-23-7
##MOLFORM=C4H8S2
##MP=54
##BP=89(14)
##SOURCE REFERENCE=RAS UV No. 23
##$NIST SQUIB=1962BER/CLA1159-1174
##$NIST SOURCE=TSGMTE
##SPECTROMETER/DATA SYSTEM=n.i.g.
##XUNITS=Wavelength (nm)
##YUNITS=Logarithm epsilon
##XFACTOR=1.000000
##YFACTOR=1.000000
##FIRSTX=204.5476
##LASTX=280.5165
##FIRSTY=3.11157
##MAXX=280.517
##MINX=204.548
##MAXY=3.11483
##MINY=0.181043
##NPOINTS=114
##$REF AUTHOR=Bergson, G.; Claeson, G.; Schotte, L.
##$REF TITLE=Ultraviolet absorption spectra of saturated disulphides and diselenides
##$REF JOURNAL=Acta Chem. Scand.
##$REF VOLUME=16
##$REF PAGE=1159-1174
##$REF DATE=1962
##XYPOINTS=(XY..XY)
204.5476,3.111570
206.4516,3.114834
210.2195,3.101302
211.3038,3.088097
212.1300,3.071663
213.4061,3.037917
213.7314,2.988246
213.9663,2.959773
214.1828,2.946922
214.5665,2.938678
215.3553,2.883956
215.5593,2.866825
215.7636,2.849568
215.9683,2.832057
216.9973,2.770523
217.1922,2.757985
217.3871,2.745447
217.5821,2.732910
218.6212,2.666233
218.9023,2.638827
219.1836,2.611295
219.4655,2.583509
221.8113,2.486797
222.5077,2.465891
223.6471,2.450283
225.6642,2.430406
229.7007,2.424360
231.8959,2.429990
233.0479,2.434521
234.1440,2.441835
237.5628,2.489974
239.5611,2.510281
240.5870,2.519084
241.5200,2.523930
246.6296,2.548400
249.3460,2.543231
251.3033,2.533336
253.7870,2.512113
253.7870,2.512113
253.7930,2.509086
253.7995,2.505806
253.8062,2.502398
256.2234,2.455436
256.5642,2.434924
256.9303,2.414418
257.3090,2.393914
258.3663,2.346678
258.5304,2.329539
258.7200,2.312279
258.9227,2.294767
259.9233,2.247519
260.0150,2.230959
260.1192,2.214401
260.2486,2.197848
260.6407,2.143046
260.9635,2.124225
261.2992,2.105279
261.6606,2.086084
262.2929,2.024470
262.3846,2.007910
262.4888,1.991352
262.6182,1.974799
262.9627,1.915414
263.3127,1.890310
263.6881,1.865083
264.0767,1.839605
264.1889,1.783031
264.7877,1.740446
265.2563,1.719049
265.8785,1.645597
265.9701,1.629037
265.9963,1.700502
266.0743,1.612479
266.2037,1.595927
266.5573,1.531969
266.8960,1.505147
267.2476,1.478201
267.6248,1.451006
268.2572,1.389393
268.4281,1.368846
268.6242,1.348305
268.8329,1.327767
269.3983,1.271284
269.7498,1.245461
270.1269,1.219388
270.5168,1.193189
271.1073,1.124136
271.3331,1.095999
271.5595,1.067610
271.7861,1.039093
272.3720,0.972323
272.7231,0.946649
273.0997,0.920848
273.4893,0.894798
274.0707,0.830319
274.2566,0.802171
274.4683,0.773779
274.6928,0.745262
275.2878,0.673924
275.5012,0.652072
275.7151,0.629970
275.9292,0.607734
276.9491,0.550779
277.1815,0.519355
277.4141,0.487817
277.6472,0.456017
278.2229,0.394399
278.5039,0.366983
278.7853,0.339451
279.0671,0.311669
279.9408,0.242666
280.1117,0.222118
280.3078,0.201588
280.5165,0.181043
##END=
