##TITLE=10H-Phenothiazine, 10-[2-(1-methyl-2-piperidyl)ethyl]-2-methylthio-
##JCAMP-DX=4.24
##DATA TYPE=UV/VIS SPECTRUM
##ORIGIN=INSTITUTE OF ENERGY PROBLEMS OF CHEMICAL PHYSICS, RAS
##OWNER=INEP CP RAS, NIST OSRD
Collection (C) 2007 copyright by the U.S. Secretary of Commerce
on behalf of the United States of America. All rights reserved.
##CAS REGISTRY NO=50-52-2
##MOLFORM=C21H26N2S2
##MP=159
##SOURCE REFERENCE=RAS UV No. 19017
##$NIST SQUIB=1972LAN375
##$NIST SOURCE=TYUGLMTE
##SPECTROMETER/DATA SYSTEM=Unicam SP 800
##XUNITS=Wavelength (nm)
##YUNITS=Logarithm epsilon
##XFACTOR=1.0
##YFACTOR=1.0
##FIRSTX=201.17
##LASTX=398.16
##FIRSTY=4.194
##MAXX=398.16
##MINX=201.17
##MAXY=4.573
##MINY=0.894
##NPOINTS=178
##$REF AUTHOR=Lang (editor), L.
##$REF JOURNAL=Absorption Spectra in the Ultraviolet and Visible Region
##$REF VOLUME=17
##$REF PAGE=375
##$REF DATE=1972
##XYPOINTS=(XY..XY)
201.17,4.194
201.34,4.197
201.51,4.201
201.68,4.204
201.84,4.204
202.01,4.207
202.18,4.211
202.35,4.214
202.51,4.217
202.68,4.221
202.85,4.221
203.52,4.228
204.69,4.245
205.86,4.261
207.04,4.272
208.21,4.272
209.38,4.265
210.55,4.258
211.73,4.245
212.90,4.231
214.07,4.221
215.24,4.207
216.42,4.194
217.59,4.184
218.76,4.177
219.93,4.173
221.11,4.170
222.28,4.170
223.45,4.170
224.62,4.173
225.80,4.177
226.97,4.187
228.14,4.194
229.31,4.197
230.49,4.204
231.66,4.204
232.83,4.207
234.00,4.207
235.18,4.201
236.35,4.201
237.52,4.197
238.69,4.194
239.87,4.194
241.04,4.204
242.21,4.207
243.38,4.217
244.56,4.224
245.73,4.238
246.90,4.251
248.07,4.261
249.25,4.278
250.42,4.292
251.59,4.316
252.76,4.333
253.94,4.353
255.11,4.380
256.28,4.400
257.45,4.431
258.63,4.458
259.80,4.482
260.97,4.512
262.14,4.539
263.32,4.556
264.49,4.566
265.66,4.573
266.83,4.573
268.01,4.560
269.18,4.553
270.35,4.529
271.52,4.499
272.70,4.461
273.87,4.411
275.04,4.350
276.21,4.272
277.39,4.180
278.56,4.075
279.73,3.946
280.90,3.824
282.08,3.723
283.25,3.638
284.42,3.581
285.59,3.533
286.77,3.492
287.94,3.469
289.11,3.452
290.28,3.438
291.46,3.438
292.63,3.438
293.80,3.442
294.97,3.455
296.15,3.469
297.32,3.486
298.49,3.503
299.66,3.520
300.84,3.537
302.01,3.550
303.18,3.567
304.36,3.581
305.53,3.587
306.70,3.601
307.87,3.614
309.05,3.618
310.22,3.625
311.39,3.631
312.56,3.631
313.74,3.635
314.91,3.635
316.08,3.635
317.25,3.631
318.43,3.628
319.60,3.625
320.77,3.614
321.94,3.614
323.12,3.601
324.29,3.598
325.46,3.584
326.63,3.574
327.81,3.560
328.98,3.547
330.15,3.530
331.32,3.509
332.50,3.486
333.67,3.465
334.84,3.445
336.01,3.418
337.19,3.394
338.36,3.364
339.53,3.333
340.70,3.296
341.88,3.255
343.05,3.218
344.22,3.171
345.39,3.133
346.57,3.086
347.74,3.039
348.91,2.988
350.08,2.937
351.26,2.883
352.43,2.832
353.60,2.784
354.77,2.744
355.95,2.700
357.12,2.673
358.29,2.642
359.46,2.581
360.64,2.530
361.81,2.480
362.98,2.425
364.15,2.364
365.33,2.307
366.50,2.242
367.67,2.175
368.84,2.117
370.02,2.049
371.19,1.978
372.36,1.900
373.53,1.839
374.71,1.772
375.88,1.714
377.05,1.653
378.22,1.595
379.40,1.545
380.57,1.490
381.74,1.440
382.91,1.389
384.09,1.338
385.26,1.287
386.43,1.236
387.60,1.199
388.78,1.158
389.95,1.118
391.12,1.080
392.29,1.047
393.47,1.013
394.64,0.979
395.81,0.948
396.98,0.918
398.16,0.894
##END=
