##TITLE=7-methoxy-2-naphthalenol
##JCAMP-DX=4.24
##DATA TYPE=UV/VIS SPECTRUM
##ORIGIN=INSTITUTE OF ENERGY PROBLEMS OF CHEMICAL PHYSICS, RAS
##OWNER=INEP CP RAS, NIST OSRD
Collection (C) 2007 copyright by the U.S. Secretary of Commerce
on behalf of the United States of America. All rights reserved.
##CAS REGISTRY NO=5060-82-2
##MOLFORM=C11H10O2
##MP=118-119
##SOURCE REFERENCE=RAS UV No. 22651
##$NIST SQUIB=1977DUD/2185
##$NIST SOURCE=TYUGLMTE
##SPECTROMETER/DATA SYSTEM=SF-16
##XUNITS=Wavelength (nm)
##YUNITS=Logarithm epsilon
##XFACTOR=1.0
##YFACTOR=1.0
##FIRSTX=221.075
##LASTX=334.981
##FIRSTY=4.526
##MAXX=334.981
##MINX=221.075
##MAXY=4.844
##MINY=3.216
##NPOINTS=120
##$REF AUTHOR=Dudenas, G.; et al.
##$REF JOURNAL=Zhur. Organ. Khim.
##$REF VOLUME=13
##$REF PAGE=2185
##$REF DATE=1977
##XYPOINTS=(XY..XY)
221.075,4.526
222.075,4.550
223.075,4.580
224.075,4.614
225.075,4.650
226.075,4.688
227.075,4.725
228.075,4.760
229.075,4.791
230.075,4.817
231.075,4.835
232.075,4.844
233.075,4.842
234.075,4.826
235.075,4.795
236.143,4.747
237.143,4.670
238.143,4.599
239.143,4.533
240.143,4.470
241.143,4.408
242.143,4.347
243.143,4.286
244.143,4.223
245.143,4.158
246.143,4.091
247.143,4.022
248.143,3.951
249.143,3.878
250.143,3.805
251.143,3.733
252.143,3.662
253.143,3.595
254.143,3.535
255.143,3.483
255.999,3.444
256.999,3.415
257.999,3.399
258.999,3.392
259.999,3.393
260.999,3.398
261.999,3.407
262.999,3.417
263.999,3.428
264.999,3.439
265.999,3.448
266.999,3.457
267.999,3.464
268.999,3.471
269.999,3.476
270.999,3.480
271.999,3.484
272.999,3.488
273.999,3.492
274.999,3.496
275.854,3.500
276.854,3.504
277.854,3.510
278.854,3.516
279.854,3.521
280.854,3.523
281.854,3.521
282.854,3.516
283.671,3.514
284.729,3.509
285.787,3.500
286.845,3.491
287.854,3.479
289.059,3.471
290.059,3.463
291.059,3.455
292.059,3.445
293.059,3.434
294.059,3.422
295.059,3.409
296.059,3.395
297.059,3.381
298.059,3.367
299.059,3.353
300.059,3.339
301.059,3.326
302.059,3.315
303.059,3.304
304.059,3.296
305.059,3.289
306.059,3.284
307.059,3.282
308.097,3.280
309.097,3.283
310.097,3.291
311.097,3.299
312.097,3.304
313.097,3.305
314.097,3.299
315.097,3.288
316.097,3.272
317.097,3.253
317.878,3.238
318.955,3.223
319.955,3.216
320.955,3.218
321.877,3.233
322.877,3.251
323.877,3.284
324.848,3.307
325.813,3.316
326.877,3.302
326.883,3.302
327.883,3.265
328.659,3.230
329.515,3.220
330.239,3.234
330.567,3.266
330.750,3.298
331.171,3.325
331.600,3.353
332.337,3.376
333.463,3.385
334.451,3.368
334.981,3.335
##END=
