##TITLE=7-amino-1,5-dihydro-1,3-dimethyl-2,4,6(3H)-pteridinetrione
##JCAMP-DX=4.24
##DATA TYPE=UV/VIS SPECTRUM
##ORIGIN=INSTITUTE OF ENERGY PROBLEMS OF CHEMICAL PHYSICS, RAS
##OWNER=INEP CP RAS, NIST OSRD
Collection (C) 2007 copyright by the U.S. Secretary of Commerce
on behalf of the United States of America. All rights reserved.
##CAS REGISTRY NO=50787-03-6
##MOLFORM=C8H9N5O3
##MP=>360
##SOURCE REFERENCE=RAS UV No. 23698
##$NIST SQUIB=1974PFL1299
##$NIST SOURCE=TYUGLMTE
##SPECTROMETER/DATA SYSTEM=unknown
##XUNITS=Wavelength (nm)
##YUNITS=Logarithm epsilon
##XFACTOR=1.0
##YFACTOR=1.0
##FIRSTX=200
##LASTX=387.741
##FIRSTY=4.076
##MAXX=387.741
##MINX=200
##MAXY=4.188
##MINY=3.439
##NPOINTS=127
##$REF AUTHOR=Pfleiderer, W.
##$REF JOURNAL=Khim. Geterosikl. Soedin.
##$REF PAGE=1299
##$REF DATE=1974
##XYPOINTS=(XY..XY)
200.000,4.076
201.500,4.099
203.000,4.115
204.500,4.137
206.000,4.155
207.500,4.150
209.000,4.113
210.479,4.065
211.979,4.002
213.479,3.971
214.979,3.962
216.479,3.966
217.979,3.978
219.479,3.996
220.979,4.017
222.479,4.039
223.979,4.061
224.252,4.064
225.752,4.083
226.947,4.101
228.447,4.125
229.947,4.141
231.447,4.153
232.947,4.162
234.447,4.167
235.947,4.170
237.447,4.172
238.947,4.181
240.432,4.187
241.932,4.188
243.432,4.184
244.932,4.174
246.432,4.162
247.932,4.149
249.402,4.141
250.902,4.132
252.402,4.128
253.902,4.108
255.402,4.061
256.902,3.984
258.402,3.888
260.480,3.783
261.980,3.753
263.480,3.742
264.980,3.743
266.480,3.751
267.980,3.763
269.480,3.777
270.980,3.791
272.480,3.805
273.980,3.818
275.480,3.831
276.980,3.841
278.480,3.847
279.643,3.851
281.143,3.854
282.643,3.850
284.143,3.840
285.643,3.829
287.143,3.819
288.643,3.812
290.143,3.810
291.643,3.804
293.116,3.781
294.616,3.667
296.116,3.560
297.616,3.492
299.116,3.464
300.616,3.465
302.116,3.477
303.616,3.488
305.092,3.506
306.592,3.535
308.092,3.562
309.592,3.587
311.092,3.611
312.592,3.635
314.092,3.659
315.592,3.682
317.092,3.707
318.592,3.731
320.092,3.756
321.592,3.782
323.092,3.808
324.592,3.834
326.092,3.861
327.592,3.887
329.092,3.914
330.592,3.940
332.092,3.966
333.592,3.992
335.092,4.017
336.833,4.044
338.333,4.064
339.833,4.078
341.333,4.088
342.833,4.093
344.333,4.096
345.833,4.097
347.333,4.100
348.806,4.103
350.306,4.112
351.806,4.119
353.306,4.125
354.806,4.130
356.306,4.133
357.806,4.133
359.306,4.128
360.806,4.119
362.306,4.103
363.806,4.081
365.306,4.054
366.770,4.020
368.270,3.992
369.770,3.973
371.270,3.958
372.770,3.945
374.270,3.931
375.770,3.914
377.270,3.892
378.770,3.863
380.270,3.824
381.741,3.770
383.241,3.710
384.741,3.630
386.241,3.539
387.741,3.439
##END=
