##TITLE=1,3-dimethyl-2,4,7-(1H,3H,8H)-pteridinetrione-5-oxide
##JCAMP-DX=4.24
##DATA TYPE=UV/VIS SPECTRUM
##ORIGIN=INSTITUTE OF ENERGY PROBLEMS OF CHEMICAL PHYSICS, RAS
##OWNER=INEP CP RAS, NIST OSRD
Collection (C) 2007 copyright by the U.S. Secretary of Commerce
on behalf of the United States of America. All rights reserved.
##CAS REGISTRY NO=50786-97-5
##MOLFORM=C8H8N4O4
##MP=227-228(dec.)
##SOURCE REFERENCE=RAS UV No. 23697
##$NIST SQUIB=1974PFL1299
##$NIST SOURCE=TYUGLMTE
##SPECTROMETER/DATA SYSTEM=unknown.
##XUNITS=Wavelength (nm)
##YUNITS=Logarithm epsilon
##XFACTOR=1.0
##YFACTOR=1.0
##FIRSTX=220.692
##LASTX=365.234
##FIRSTY=4.406
##MAXX=365.234
##MINX=220.692
##MAXY=4.467
##MINY=3.557
##NPOINTS=147
##$REF AUTHOR=Pfleiderer, W.
##$REF JOURNAL=Khim. Geterosikl. Soedin.
##$REF PAGE=1299
##$REF DATE=1974
##XYPOINTS=(XY..XY)
220.692,4.406
221.014,4.408
222.014,4.412
223.014,4.421
224.014,4.432
225.014,4.443
226.014,4.453
227.014,4.461
228.014,4.466
229.014,4.467
230.014,4.463
231.014,4.456
232.014,4.445
233.014,4.430
234.014,4.412
235.014,4.392
236.014,4.371
237.014,4.348
238.014,4.326
239.014,4.304
240.014,4.284
241.014,4.267
242.014,4.253
243.014,4.242
244.014,4.235
245.014,4.232
246.014,4.233
247.014,4.237
248.014,4.245
249.014,4.255
250.014,4.265
251.014,4.274
252.014,4.280
252.973,4.287
253.973,4.290
254.973,4.292
255.973,4.292
256.973,4.291
257.973,4.288
258.973,4.281
259.973,4.272
260.973,4.259
261.973,4.242
262.973,4.223
263.973,4.200
264.973,4.175
265.973,4.147
266.973,4.118
267.973,4.087
268.973,4.056
269.973,4.026
271.127,3.982
272.127,3.941
273.127,3.906
274.127,3.878
275.127,3.856
276.127,3.840
277.127,3.828
278.127,3.821
279.127,3.816
280.127,3.813
281.127,3.810
282.127,3.808
283.127,3.806
284.127,3.802
285.127,3.797
286.127,3.790
287.127,3.781
288.127,3.771
289.127,3.760
290.127,3.747
291.127,3.732
291.276,3.729
292.276,3.718
293.276,3.698
294.276,3.673
295.276,3.647
296.276,3.621
297.276,3.598
298.276,3.579
299.276,3.566
300.276,3.559
301.276,3.557
302.276,3.562
303.276,3.572
304.276,3.587
305.276,3.605
306.276,3.625
307.276,3.647
308.276,3.669
309.276,3.690
310.276,3.708
311.251,3.723
312.251,3.738
313.251,3.757
314.251,3.778
315.251,3.800
316.251,3.824
317.251,3.848
318.251,3.872
319.251,3.896
320.251,3.920
321.251,3.943
322.251,3.964
323.251,3.985
324.251,4.005
325.251,4.023
326.251,4.040
327.251,4.057
328.251,4.072
329.251,4.086
330.251,4.100
331.251,4.112
332.234,4.125
333.234,4.136
334.234,4.146
335.234,4.153
336.234,4.160
337.234,4.165
338.234,4.170
339.234,4.173
340.234,4.175
341.234,4.177
342.234,4.177
343.234,4.177
344.234,4.175
345.234,4.173
346.234,4.169
347.234,4.163
348.234,4.157
349.234,4.149
350.234,4.139
351.234,4.127
352.234,4.113
353.234,4.097
354.234,4.079
355.234,4.059
356.234,4.036
357.234,4.010
358.234,3.981
359.234,3.948
360.234,3.913
361.234,3.873
362.234,3.830
363.234,3.782
364.234,3.730
365.234,3.673
##END=
