##TITLE=Benzoic acid, 2,4-dichloro-
##JCAMP-DX=4.24
##DATA TYPE=UV/VIS SPECTRUM
##ORIGIN=INSTITUTE OF ENERGY PROBLEMS OF CHEMICAL PHYSICS, RAS
##OWNER=INEP CP RAS, NIST OSRD
Collection (C) 2007 copyright by the U.S. Secretary of Commerce
on behalf of the United States of America. All rights reserved.
##CAS REGISTRY NO=50-84-0
##MOLFORM=C7H4Cl2O2
##MP=164.2
##BP=sub
##SOURCE REFERENCE=RAS UV No. 199
##$NIST SQUIB=1952VEL15-32
##$NIST SOURCE=TSGMTE
##SPECTROMETER/DATA SYSTEM=n.i.g.
##XUNITS=Wavelength (nm)
##YUNITS=Logarithm epsilon
##XFACTOR=1.000000
##YFACTOR=1.000000
##FIRSTX=237.6504
##LASTX=290.4017
##FIRSTY=3.85001
##MAXX=290.402
##MINX=237.65
##MAXY=3.85039
##MINY=2.0301
##NPOINTS=1244
##$REF AUTHOR=Veldstra, H.
##$REF TITLE=Researches on plant growth regulators XXI. Structure/activity VI. Halogenated benzoic acids and related compounds
##$REF JOURNAL=Recl. Trav. Chim. Pays-Bas
##$REF VOLUME=71
##$REF PAGE=15-32
##$REF DATE=1952
##XYPOINTS=(XY..XY)
237.6504,3.850013
237.6556,3.845691
237.7111,3.850392
237.7173,3.845313
237.7235,3.840135
237.7851,3.839752
237.7885,3.836924
237.8562,3.836538
237.8629,3.830820
237.9241,3.830823
237.9322,3.823829
238.0000,3.823431
238.0047,3.819241
238.0659,3.819244
238.0740,3.812059
238.1357,3.811650
238.1409,3.806928
238.2087,3.806473
238.2163,3.799496
238.2780,3.799075
238.2842,3.793312
238.3520,3.792885
238.3596,3.785684
238.4212,3.785250
238.4288,3.777921
238.4905,3.777434
238.4996,3.768562
238.5674,3.768111
238.5759,3.759509
238.6376,3.759048
238.6442,3.752251
238.7059,3.751735
238.7116,3.745830
238.7794,3.745354
238.7846,3.739848
238.8463,3.739317
238.8540,3.731162
238.9217,3.730670
238.9331,3.718129
238.9948,3.717621
239.0038,3.707424
239.0655,3.706851
239.0712,3.700299
239.1390,3.699770
239.1428,3.695323
239.2045,3.694734
239.2083,3.690235
239.2761,3.689694
239.2794,3.685748
239.3411,3.685146
239.3444,3.681159
239.4061,3.680550
239.4089,3.677082
239.4763,3.677086
239.4786,3.674156
239.5403,3.673594
239.5427,3.670640
239.6043,3.670074
239.6072,3.666463
239.6750,3.665892
239.6783,3.661664
239.7400,3.661086
239.7428,3.657458
239.8106,3.656875
239.8135,3.653152
239.8747,3.653157
239.8775,3.649461
239.9387,3.649466
239.9411,3.646342
240.0089,3.645744
240.0113,3.642593
240.0729,3.641989
240.0749,3.639424
240.1426,3.638816
240.1450,3.635615
240.2067,3.635001
240.2081,3.633079
240.2698,3.632399
240.2722,3.629150
240.3399,3.628527
240.3423,3.625249
240.4040,3.624620
240.4054,3.622651
240.4671,3.621955
240.4695,3.618626
240.5373,3.617989
240.5387,3.615989
240.6003,3.615347
240.6027,3.611967
240.6700,3.611973
240.6720,3.609223
240.7336,3.608571
240.7350,3.606528
240.7967,3.605805
240.7986,3.603083
240.8659,3.603089
240.8669,3.601688
240.9285,3.601024
240.9319,3.596112
240.9992,3.596117
241.0011,3.593334
241.0628,3.592589
241.0647,3.589782
241.1263,3.589100
241.1277,3.586963
241.1950,3.586969
241.1974,3.583359
241.2591,3.582597
241.2610,3.579725
241.3222,3.579731
241.3251,3.575351
241.3924,3.575357
241.3938,3.573151
241.4555,3.572371
241.4579,3.568638
241.5252,3.568644
241.5271,3.565678
241.5887,3.564957
241.5911,3.561159
241.6528,3.560357
241.6537,3.558885
241.7215,3.558079
241.7230,3.555783
241.7846,3.555045
241.7856,3.553480
241.8533,3.552739
241.8548,3.550415
241.9165,3.549592
241.9174,3.548008
241.9791,3.547257
241.9805,3.544902
242.0483,3.544147
242.0492,3.542542
242.1109,3.541781
242.1128,3.538548
242.1740,3.538554
242.1754,3.536152
242.2427,3.536158
242.2442,3.533743
242.3059,3.532889
242.3073,3.530455
242.3751,3.529674
242.3760,3.528014
242.4372,3.528020
242.4386,3.525559
242.5003,3.524768
242.5012,3.523090
242.5690,3.522295
242.5704,3.519801
242.6321,3.518919
242.6340,3.515592
242.6952,3.515598
242.6966,3.513065
242.7645,3.512170
242.7649,3.511348
242.8266,3.510531
242.8280,3.507885
242.8958,3.507062
242.8968,3.505314
242.9584,3.504485
242.9594,3.502726
243.0210,3.501893
243.0225,3.499279
243.0903,3.498354
243.0917,3.495719
243.1529,3.495725
243.1548,3.492215
243.2221,3.492222
243.2235,3.489548
243.2852,3.488602
243.2861,3.486865
243.3478,3.485913
243.3492,3.483201
243.4166,3.483208
243.4180,3.480479
243.4792,3.480485
243.4811,3.476849
243.5422,3.476856
243.5432,3.474981
243.6110,3.474003
243.6119,3.472207
243.6736,3.471222
243.6741,3.470319
243.7419,3.469421
243.7424,3.468424
243.8040,3.467521
243.8050,3.465606
243.8666,3.464698
243.8671,3.463689
243.9349,3.462778
243.9354,3.461857
243.9971,3.460849
243.9980,3.458997
244.0653,3.459004
244.0663,3.457051
244.1279,3.456125
244.1289,3.454159
244.1901,3.454166
244.1910,3.452190
244.2588,3.451255
244.2593,3.450214
244.3205,3.450221
244.3219,3.447276
244.3836,3.446328
244.3841,3.445276
244.4519,3.444325
244.4523,3.443364
244.5140,3.442312
244.5149,3.440379
244.5827,3.439320
244.5832,3.438348
244.6449,3.437381
244.6454,3.436307
244.7070,3.435335
244.7080,3.433272
244.7758,3.432295
244.7767,3.430217
244.8384,3.429232
244.8389,3.428137
244.9066,3.427148
244.9076,3.425046
244.9693,3.424049
244.9698,3.422941
245.0314,3.421939
245.0324,3.419811
245.1001,3.418803
245.1006,3.417784
245.1623,3.416667
245.1628,3.415643
245.2245,3.414521
245.2254,3.412460
245.2927,3.412469
245.2937,3.410294
245.3548,3.410302
245.3558,3.408116
245.4231,3.408125
245.4245,3.404878
245.4857,3.404886
245.4867,3.402673
245.5484,3.401623
245.5488,3.400563
245.6166,3.399402
245.6175,3.397268
245.6792,3.396098
245.6797,3.395024
245.7475,3.393848
245.7480,3.392769
245.8096,3.391695
245.8106,3.389413
245.8722,3.388331
245.8728,3.387128
245.9405,3.386040
245.9410,3.384941
246.0027,3.383737
246.0036,3.381413
246.0653,3.380311
246.0658,3.379197
246.1336,3.377978
246.1345,3.375735
246.1962,3.374505
246.1966,3.373377
246.2645,3.372141
246.2654,3.369868
246.3266,3.369876
246.3275,3.367477
246.3887,3.367486
246.3897,3.365073
246.4575,3.363929
246.4579,3.362772
246.5196,3.361505
246.5201,3.360342
246.5879,3.359068
246.5888,3.356726
246.6500,3.356735
246.6510,3.354261
246.7122,3.354270
246.7126,3.353088
246.7804,3.351793
246.7809,3.350603
246.8426,3.349300
246.8435,3.346904
246.9052,3.345590
246.9057,3.344383
246.9730,3.344393
246.9739,3.341848
247.0351,3.341857
247.0361,3.339420
247.1034,3.339430
247.1043,3.336856
247.1655,3.336865
247.1665,3.334275
247.2281,3.333046
247.2291,3.330434
247.2964,3.330444
247.2969,3.329195
247.3581,3.329204
247.3595,3.325308
247.4268,3.325318
247.4278,3.322659
247.4895,3.321269
247.4899,3.319992
247.5511,3.320002
247.5516,3.318722
247.6194,3.317320
247.6198,3.316032
247.6815,3.314750
247.6825,3.312025
247.7437,3.312035
247.7442,3.310601
247.8119,3.309304
247.8129,3.306544
247.8741,3.306554
247.8750,3.303909
247.9423,3.303920
247.9428,3.302459
248.0661,3.299809
248.0666,3.298334
248.1339,3.298345
248.1344,3.297000
248.1961,3.295525
248.1966,3.294170
248.2639,3.294182
248.2643,3.292823
248.3255,3.292833
248.3260,3.291334
248.4555,3.288617
248.4560,3.287103
248.5793,3.284219
248.5798,3.282829
248.6471,3.282840
248.6475,3.281446
248.7087,3.281456
248.7092,3.279917
248.7770,3.278525
248.7775,3.277116
248.8387,3.277127
248.8392,3.275572
248.9004,3.275583
248.9008,3.274165
248.9681,3.274177
248.9686,3.272754
249.0298,3.272765
249.0303,3.271195
249.0919,3.269773
249.0924,3.268192
249.1597,3.268204
249.1602,3.266761
249.2219,3.265325
249.2224,3.263727
249.2897,3.263739
249.2901,3.262282
249.3513,3.262293
249.3518,3.260831
249.4130,3.260842
249.4135,3.259228
249.4808,3.259240
249.4813,3.257768
249.5424,3.257779
249.5429,3.256301
249.6102,3.256313
249.6107,3.254682
249.6719,3.254694
249.6724,3.253206
249.7336,3.253217
249.7341,3.251574
249.8014,3.251586
249.8018,3.250088
249.8630,3.250099
249.8635,3.248595
249.9247,3.248606
249.9252,3.246946
249.9925,3.246959
249.9930,3.245444
250.0542,3.245455
250.0546,3.243935
250.1219,3.243948
250.1224,3.242269
250.1836,3.242281
250.1841,3.240750
250.2453,3.240761
250.2458,3.239071
250.3131,3.239083
250.3747,3.237552
250.3752,3.236004
250.4425,3.236017
250.4430,3.234308
250.5042,3.234320
250.5047,3.232760
250.5659,3.232772
250.6953,3.229503
250.7565,3.229515
250.7570,3.227938
250.8243,3.227951
250.8248,3.226368
250.8859,3.226380
250.8865,3.224633
250.9538,3.224646
250.9542,3.223051
251.0154,3.223063
251.0159,3.221302
251.0771,3.221314
251.2065,3.218119
251.2738,3.218132
251.2744,3.216351
251.3355,3.216363
251.3972,3.214750
251.4645,3.214763
251.4650,3.213132
251.5267,3.211342
251.5879,3.211355
251.5883,3.209710
251.6556,3.209724
251.7173,3.207920
251.7846,3.207934
251.7851,3.206276
251.9075,3.206301
251.9079,3.204637
251.9753,3.204651
252.0369,3.202826
252.1655,3.202853
252.1659,3.201176
252.2944,3.201202
252.4178,3.197685
252.4851,3.197699
252.4855,3.196002
252.5467,3.196014
252.6145,3.194325
252.6757,3.194338
252.7374,3.192469
252.8047,3.192483
252.8664,3.190778
252.9949,3.190805
253.0566,3.188921
253.3136,3.188976
253.3752,3.187257
253.5649,3.187297
253.6327,3.185573
253.8219,3.187352
253.8224,3.185614
253.9504,3.187379
254.0112,3.189123
254.2682,3.189178
254.3289,3.191087
254.4569,3.192830
254.4574,3.191114
254.6466,3.192870
254.7073,3.194762
254.8970,3.194802
254.9638,3.196518
255.0250,3.196531
255.0919,3.198240
255.1531,3.198252
255.2138,3.200122
255.3423,3.200148
255.4030,3.201842
255.5984,3.203556
255.5988,3.201882
255.7202,3.205416
255.7207,3.203581
255.8487,3.205442
255.9156,3.207116
255.9768,3.207129
256.0375,3.208795
256.1043,3.210621
256.1048,3.208809
256.1655,3.210634
256.2263,3.212287
256.3548,3.212313
256.4823,3.215764
256.5435,3.215776
256.6104,3.217411
256.6715,3.217423
256.7384,3.219213
256.7991,3.220834
256.7995,3.219225
256.8603,3.220846
256.9271,3.222463
256.9883,3.222474
257.0490,3.224243
257.1159,3.225846
257.1163,3.224256
257.1766,3.227601
257.1771,3.225858
257.2439,3.227614
257.3046,3.229204
257.3653,3.230788
257.3658,3.229216
257.4933,3.232536
257.4938,3.230813
257.5606,3.232549
257.6214,3.234121
257.6821,3.235687
257.6826,3.234132
257.7489,3.237404
257.7494,3.235700
257.8101,3.237415
257.8708,3.238970
257.9382,3.238982
258.1264,3.243766
258.1871,3.245450
258.1876,3.243778
258.2540,3.246977
258.2544,3.245463
258.3147,3.248498
258.3152,3.246989
258.4427,3.250176
258.4432,3.248522
258.5034,3.251686
258.5039,3.250187
258.5707,3.251698
258.6922,3.254850
258.7590,3.256345
258.7595,3.254863
258.8197,3.257981
258.8202,3.256356
258.8866,3.259465
258.8870,3.257993
258.9478,3.259476
259.2029,3.265504
259.2636,3.267105
259.2641,3.265514
259.3243,3.268557
259.3248,3.267116
259.6397,3.277442
259.6401,3.276031
259.7065,3.279002
259.7070,3.277454
259.7672,3.280415
259.7677,3.279012
259.8279,3.281823
259.8284,3.280425
259.8943,3.284755
259.8947,3.283367
259.9550,3.286149
259.9555,3.284766
260.0218,3.287678
260.0223,3.286161
260.1428,3.291946
260.1432,3.290580
260.2096,3.293318
260.2101,3.291957
260.2703,3.294821
260.2708,3.293328
260.4581,3.300370
260.4586,3.299030
260.5847,3.305970
260.5857,3.303190
260.6455,3.307298
260.6459,3.305980
260.7123,3.308623
260.7128,3.307309
260.7725,3.311380
260.7735,3.308633
260.8394,3.312692
260.8398,3.311390
260.8996,3.315423
260.9006,3.312702
260.9603,3.316851
260.9608,3.315432
261.0272,3.318147
261.0276,3.316861
261.0874,3.320843
261.0879,3.319438
261.1477,3.323397
261.1481,3.322127
261.2145,3.324800
261.2150,3.323407
261.2752,3.326071
261.2757,3.324809
261.3420,3.327466
261.3425,3.326082
261.4023,3.329981
261.4027,3.328730
261.4630,3.331362
261.4635,3.329990
261.5294,3.333855
261.5298,3.332615
261.5901,3.335224
261.5906,3.333864
261.7171,3.339052
261.7176,3.337704
261.7779,3.340283
261.7783,3.339061
261.8447,3.341632
261.8452,3.340293
261.9050,3.344067
261.9054,3.342856
261.9652,3.346607
261.9656,3.345404
262.0320,3.347818
262.0325,3.346617
262.0927,3.349143
262.0932,3.347827
262.1591,3.351537
262.1596,3.350347
262.2198,3.352851
262.2203,3.351546
262.2800,3.355341
262.2805,3.354044
262.3469,3.356528
262.3473,3.355351
262.4076,3.357710
262.4081,3.356537
262.4678,3.360172
262.4683,3.359006
262.6617,3.365066
262.6622,3.363797
262.7220,3.367373
262.7225,3.366226
262.9098,3.372186
262.9103,3.370938
262.9766,3.373327
262.9771,3.372196
263.0374,3.374465
263.0378,3.373336
263.1644,3.378075
263.1649,3.376844
263.2247,3.380314
263.2251,3.379200
263.3518,3.383766
263.3522,3.382661
263.4124,3.384987
263.4130,3.383774
263.4788,3.387300
263.4793,3.386095
263.6666,3.391790
263.6671,3.390706
263.7268,3.394068
263.7273,3.392881
263.7937,3.395153
263.7942,3.394077
263.8539,3.397412
263.8544,3.396235
263.9147,3.398489
263.9151,3.397421
263.9815,3.399669
263.9820,3.398497
264.0417,3.401800
264.0422,3.400740
264.1024,3.402971
264.1029,3.401808
264.1688,3.405086
264.1697,3.402979
264.2295,3.406248
264.2300,3.405094
264.2959,3.408347
264.2968,3.406256
264.3566,3.409501
264.3571,3.408355
264.4837,3.412729
264.4841,3.411695
264.5444,3.413768
264.5449,3.412737
264.6108,3.415934
264.6112,3.414908
264.6710,3.418088
264.6719,3.415941
264.7317,3.419114
264.7322,3.418096
264.7985,3.420240
264.7990,3.419123
264.8588,3.422272
264.8593,3.421261
264.9195,3.423389
264.9200,3.422280
264.9859,3.425408
264.9868,3.423398
265.0466,3.426517
265.0471,3.425415
265.1134,3.427524
265.1139,3.426525
265.1736,3.429622
265.1746,3.427531
265.2344,3.430621
265.2348,3.429629
265.3007,3.432704
265.3012,3.431717
265.3615,3.433697
265.3619,3.432712
265.4278,3.435766
265.4288,3.433705
265.4885,3.436751
265.4890,3.435773
265.5488,3.438805
265.5492,3.437831
265.6156,3.439881
265.6161,3.438813
265.6763,3.440857
265.6768,3.439888
265.7365,3.442891
265.7370,3.441830
265.8034,3.443861
265.8039,3.442899
265.8641,3.444828
265.8646,3.443868
265.9305,3.446845
265.9309,3.445889
265.9912,3.447805
265.9917,3.446852
266.1790,3.451808
266.1794,3.450864
266.2453,3.453793
266.2458,3.452759
266.3061,3.454738
266.3065,3.453800
266.4331,3.457648
266.4336,3.456716
266.5541,3.460539
266.5546,3.459613
266.6812,3.463410
266.6817,3.462491
266.7480,3.464427
266.7485,3.463418
266.8690,3.467273
266.8695,3.466270
266.9960,3.470100
266.9965,3.469195
267.1231,3.472910
267.1236,3.472010
267.1834,3.474800
267.1839,3.473814
267.3104,3.477579
267.3109,3.476600
267.4983,3.481230
267.4987,3.480347
267.5651,3.482206
267.5656,3.481237
267.6253,3.483968
267.6258,3.483091
267.6860,3.484938
267.6865,3.483975
267.7524,3.486777
267.7529,3.485818
267.8126,3.488521
267.8131,3.487653
267.8733,3.489480
267.8738,3.488527
268.0004,3.492167
268.0009,3.491220
268.0673,3.493033
268.0677,3.492174
268.1280,3.493897
268.1285,3.493040
268.2550,3.496642
268.2555,3.495705
268.3821,3.499285
268.3826,3.498354
268.5031,3.501912
268.5036,3.500986
268.5694,3.503681
268.5699,3.502759
268.6302,3.504524
268.6306,3.503687
268.7572,3.507120
268.7577,3.506288
268.8180,3.507956
268.8184,3.507126
268.9451,3.510531
268.9455,3.509706
269.0053,3.512265
269.0057,3.511443
269.1992,3.515719
269.1997,3.514822
269.2599,3.516538
269.2604,3.515725
269.4477,3.519877
269.4482,3.519070
269.6355,3.523270
269.6360,3.522469
269.7018,3.524955
269.7023,3.524077
269.7626,3.525757
269.7630,3.524961
269.8228,3.527431
269.8233,3.526558
269.8897,3.528230
269.8901,3.527438
269.9499,3.529894
269.9503,3.529105
270.0167,3.530688
270.0172,3.529900
270.0774,3.531558
270.0779,3.530694
270.8974,3.542033
270.9581,3.542881
270.9586,3.542039
271.0254,3.542887
271.1468,3.544502
271.2137,3.545270
271.2141,3.544508
271.2744,3.546036
271.2748,3.545276
271.3417,3.546042
271.4024,3.546882
271.4636,3.546888
271.6580,3.549250
271.7187,3.550009
271.7192,3.549255
271.8468,3.550772
271.8472,3.550020
271.9079,3.550778
271.9686,3.551609
272.0355,3.552364
272.0359,3.551615
272.1635,3.553199
272.1640,3.552376
272.2247,3.553204
272.2854,3.553956
272.3523,3.554708
272.3527,3.553963
272.5420,3.554725
272.6027,3.555549
272.7919,3.556308
272.7923,3.555566
272.9877,3.556326
273.0484,3.557073
273.7460,3.557136
273.8138,3.556401
274.0647,3.556424
274.0652,3.555682
274.2549,3.555699
274.2554,3.554881
274.3839,3.554893
274.4455,3.554154
274.5740,3.554166
274.5745,3.553419
274.7030,3.553431
274.7035,3.552609
274.7647,3.552615
274.8324,3.551872
274.8936,3.551878
275.0231,3.550313
275.0843,3.550319
275.0848,3.549566
275.1521,3.549572
275.3432,3.547248
275.4044,3.547254
275.4049,3.546420
275.4722,3.546426
275.4727,3.545667
275.5339,3.545673
275.7250,3.543328
275.7862,3.543333
275.9156,3.541738
275.9161,3.540970
275.9834,3.540976
275.9839,3.540130
276.0451,3.540136
276.0456,3.539365
276.1068,3.539371
276.1072,3.538599
276.1745,3.538606
276.1750,3.537755
276.2362,3.537761
276.2367,3.536986
276.3040,3.536992
276.4951,3.534600
276.4956,3.533741
276.5568,3.533747
276.5573,3.532965
276.6185,3.532971
276.6862,3.532194
276.6867,3.531331
276.7479,3.531337
276.7484,3.530550
277.1368,3.525680
277.1373,3.524804
277.1984,3.524810
277.1989,3.524012
277.2601,3.524018
277.2606,3.523218
277.3900,3.521547
277.3905,3.520662
277.4517,3.520668
277.4522,3.519862
277.5195,3.519868
277.7106,3.517379
277.7111,3.516567
277.7728,3.515679
277.7732,3.514863
277.8405,3.514870
277.8415,3.513153
277.9027,3.513159
277.9032,3.512339
278.1621,3.508904
278.1626,3.508076
278.2859,3.506345
278.2864,3.505512
278.3537,3.505519
278.3546,3.503764
278.4158,3.503770
278.4163,3.502932
278.4841,3.502016
278.4846,3.501175
278.5458,3.501181
278.5462,3.500338
278.6074,3.500344
278.6079,3.499415
278.6757,3.498576
278.6761,3.497728
278.7378,3.496799
278.7383,3.495948
278.8056,3.495955
278.8061,3.495016
278.8678,3.494168
278.8687,3.492367
278.9299,3.492373
278.9304,3.491513
278.9982,3.490658
278.9987,3.489708
279.0599,3.489715
279.0608,3.487982
279.1220,3.487988
279.1225,3.487032
279.1902,3.486169
279.1907,3.485209
279.2524,3.484341
279.2529,3.483464
279.3823,3.481632
279.3828,3.480750
279.4445,3.479785
279.4449,3.478899
279.5128,3.477931
279.5132,3.477041
279.5749,3.476157
279.5754,3.475174
279.6427,3.475182
279.7660,3.473403
279.7674,3.470611
279.8347,3.470619
279.8357,3.468717
279.9590,3.466821
279.9600,3.464903
280.0278,3.463994
280.0287,3.462063
280.0899,3.462070
280.0913,3.459204
280.1587,3.459212
280.1596,3.457259
280.2213,3.456334
280.2222,3.454368
280.2839,3.453436
280.2849,3.451458
280.3526,3.450520
280.3536,3.448529
280.4148,3.448536
280.4162,3.445579
280.4774,3.445586
280.4788,3.442609
280.5466,3.441652
280.5471,3.440588
280.6087,3.439626
280.6097,3.437583
280.6775,3.436616
280.6784,3.434559
280.7401,3.433583
280.7411,3.431512
280.8028,3.430431
280.8037,3.428444
280.8715,3.427355
280.8720,3.426356
280.9336,3.425362
280.9350,3.422242
281.0028,3.421138
281.0038,3.419007
281.0655,3.417996
281.0659,3.416974
281.1276,3.415856
281.1290,3.412667
281.1963,3.412676
281.1973,3.410502
281.2590,3.409471
281.2604,3.406235
281.3220,3.405193
281.3230,3.402982
281.3908,3.401933
281.3917,3.399705
281.4534,3.398541
281.4539,3.397473
281.5217,3.396412
281.5226,3.394155
281.5843,3.393084
281.5852,3.390810
281.6469,3.389731
281.6479,3.387439
281.7157,3.386243
281.7161,3.385144
281.7778,3.384051
281.7792,3.380619
281.8470,3.379404
281.8480,3.377056
281.9092,3.377065
281.9101,3.374818
281.9718,3.373585
281.9732,3.370069
282.0410,3.368938
282.0415,3.367794
282.1031,3.366542
282.1041,3.364124
282.1658,3.362976
282.1672,3.359373
282.2350,3.358214
282.2355,3.356924
282.2971,3.355758
282.2985,3.352093
282.3664,3.350795
282.3673,3.348408
282.4290,3.347098
282.4299,3.344690
282.4916,3.343368
282.4925,3.340818
282.5603,3.339608
282.5608,3.338384
282.6225,3.337044
282.6244,3.331976
282.6917,3.331986
282.6926,3.329367
282.7543,3.328124
282.7552,3.325482
282.8169,3.324228
282.8179,3.321561
282.8856,3.320297
282.8866,3.317606
282.9483,3.316200
282.9488,3.314909
283.0104,3.313623
283.0118,3.309584
283.0791,3.309595
283.0811,3.304062
283.1427,3.302744
283.1437,3.299942
283.2115,3.298612
283.2134,3.292937
283.2750,3.291584
283.2760,3.288709
283.3376,3.287344
283.3391,3.283052
283.4069,3.281530
283.4083,3.277179
283.4695,3.277189
283.4714,3.271368
283.5387,3.271379
283.5401,3.266925
283.6018,3.265345
283.6032,3.260828
283.6649,3.259372
283.6659,3.256275
283.7336,3.254804
283.7350,3.250176
283.7967,3.248533
283.7977,3.245357
283.8594,3.243848
283.8608,3.239101
283.9281,3.239114
283.9295,3.234314
283.9912,3.232766
283.9921,3.229473
284.0600,3.227751
284.0614,3.222823
284.1230,3.221234
284.1244,3.216231
284.1861,3.214455
284.1871,3.211183
284.2549,3.209386
284.2563,3.204245
284.3180,3.202586
284.3194,3.197363
284.3872,3.195508
284.3881,3.192090
284.4498,3.190211
284.4512,3.184836
284.5129,3.183101
284.5138,3.179407
284.5816,3.177651
284.5830,3.172117
284.6447,3.170150
284.6457,3.166526
284.7074,3.164533
284.7088,3.158828
284.7765,3.156987
284.7775,3.153063
284.8392,3.151196
284.8406,3.145312
284.9084,3.143221
284.9094,3.139170
284.9710,3.137242
284.9724,3.131164
285.0341,3.129201
285.0356,3.122808
285.1029,3.122824
285.1043,3.116540
285.1659,3.114509
285.1669,3.110180
285.2347,3.108120
285.2361,3.101618
285.2978,3.099303
285.2992,3.092667
285.3604,3.092683
285.3613,3.088347
285.4292,3.085962
285.4306,3.079117
285.4922,3.076903
285.4932,3.072179
285.5548,3.069929
285.5563,3.062825
285.6241,3.060295
285.6250,3.055386
285.6867,3.053047
285.6877,3.048056
285.7554,3.045678
285.7569,3.038162
285.8180,3.038181
285.8200,3.027786
285.8812,3.027805
285.8826,3.019970
285.9504,3.017433
285.9518,3.009407
286.0135,3.006543
286.0144,3.001250
286.0822,2.998334
286.0831,2.992939
286.1448,2.989964
286.1453,2.987223
286.2069,2.984485
286.2079,2.978634
286.2757,2.975561
286.2766,2.969874
286.3383,2.966736
286.3388,2.963843
286.4005,2.960953
286.4014,2.954775
286.4692,2.951527
286.4701,2.945515
286.5313,2.945537
286.5323,2.939134
286.6001,2.936076
286.6006,2.932660
286.6622,2.929554
286.6632,2.922908
286.7248,2.919731
286.7258,2.912933
286.7936,2.909684
286.7945,2.902725
286.8562,2.899397
286.8567,2.895678
286.9184,2.892295
286.9188,2.888859
286.9866,2.885077
286.9871,2.881584
287.0488,2.877736
287.0497,2.870600
287.1175,2.866655
287.1184,2.859334
287.1801,2.855282
287.1806,2.851540
287.2423,2.847414
287.2428,2.843603
287.3105,2.839790
287.3115,2.831604
287.3731,2.827681
287.3736,2.823291
287.4414,2.819294
287.4419,2.815227
287.5036,2.810740
287.5040,2.806591
287.5657,2.802013
287.5662,2.797780
287.6340,2.793541
287.6345,2.788790
287.6961,2.784458
287.6971,2.775148
287.7587,2.770677
287.7592,2.765668
287.8265,2.765706
287.8275,2.756448
287.9569,2.746586
287.9574,2.741773
288.0191,2.736454
288.0195,2.731527
288.0812,2.726581
288.0817,2.721033
288.1495,2.715970
288.1500,2.710283
288.2116,2.705088
288.2121,2.699790
288.2799,2.693931
288.2804,2.688495
288.3420,2.683030
288.3425,2.676893
288.4037,2.676935
288.4042,2.671280
288.4719,2.665598
288.4724,2.659207
288.5341,2.653359
288.5346,2.646785
288.5963,2.640766
288.5967,2.634616
288.6645,2.627801
288.6655,2.615032
288.7266,2.615081
288.7271,2.607895
288.7949,2.601313
288.7954,2.593894
288.8571,2.587090
288.8575,2.580125
288.9192,2.572385
288.9197,2.565178
288.9875,2.557910
288.9884,2.542107
289.1179,2.525832
289.1184,2.517802
289.1801,2.508855
289.1805,2.500502
289.2422,2.492049
289.2427,2.482484
289.3104,2.473676
289.3109,2.464611
289.3726,2.454485
289.3731,2.445005
289.4347,2.434406
289.4357,2.414307
289.5030,2.414391
289.5035,2.402929
289.6329,2.381455
289.6334,2.369076
289.6951,2.357596
289.6955,2.345714
289.7572,2.332351
289.7577,2.319747
289.8255,2.305556
289.8260,2.292138
289.8871,2.292240
289.8876,2.278398
289.9554,2.262763
289.9559,2.247932
290.0175,2.232693
290.0180,2.215154
290.0797,2.198698
290.0801,2.181461
290.2096,2.143175
290.2101,2.121520
290.3395,2.079498
290.3405,2.030096
290.4017,2.030283
##END=
