##TITLE=1,3-dimethyl-6-phenyl-2,4(1H,3H)-pteridinedione-5-oxide
##JCAMP-DX=4.24
##DATA TYPE=UV/VIS SPECTRUM
##ORIGIN=INSTITUTE OF ENERGY PROBLEMS OF CHEMICAL PHYSICS, RAS
##OWNER=INEP CP RAS, NIST OSRD
Collection (C) 2007 copyright by the U.S. Secretary of Commerce
on behalf of the United States of America. All rights reserved.
##CAS REGISTRY NO=50996-28-6
##MOLFORM=C14H12N4O3
##MP=216(dec.)
##SOURCE REFERENCE=RAS UV No. 23691
##$NIST SQUIB=1974PFL1299
##$NIST SOURCE=TYUGLMTE
##SPECTROMETER/DATA SYSTEM=unknown
##XUNITS=Wavelength (nm)
##YUNITS=Logarithm epsilon
##XFACTOR=1.0
##YFACTOR=1.0
##FIRSTX=219.747
##LASTX=394.777
##FIRSTY=4.022
##MAXX=394.777
##MINX=219.747
##MAXY=4.399
##MINY=3.15
##NPOINTS=123
##$REF AUTHOR=Pfleiderer, W.
##$REF JOURNAL=Khim. Geterosikl. Soedin.
##$REF PAGE=1299
##$REF DATE=1974
##XYPOINTS=(XY..XY)
219.747,4.022
221.247,3.973
222.747,3.943
224.247,3.926
225.747,3.919
227.247,3.920
228.747,3.929
230.247,3.943
231.747,3.965
233.247,3.992
234.747,4.024
236.247,4.061
237.747,4.102
239.247,4.143
240.747,4.184
242.247,4.223
243.747,4.259
245.247,4.292
246.747,4.325
246.973,4.330
248.473,4.366
249.973,4.389
251.473,4.399
252.973,4.399
254.473,4.393
255.973,4.384
257.473,4.374
258.973,4.364
260.174,4.353
261.674,4.345
263.174,4.341
264.674,4.341
266.174,4.343
267.674,4.348
269.174,4.353
270.674,4.358
272.174,4.361
273.674,4.362
275.174,4.359
276.674,4.353
278.174,4.343
279.674,4.330
281.253,4.313
283.299,4.300
283.549,4.295
285.049,4.281
286.549,4.264
288.049,4.244
289.549,4.223
291.049,4.201
292.549,4.177
294.049,4.153
295.549,4.126
297.049,4.098
298.549,4.066
300.049,4.032
301.549,3.993
303.049,3.950
304.549,3.904
306.049,3.854
307.549,3.802
309.049,3.749
309.125,3.746
310.625,3.702
312.125,3.646
313.625,3.574
315.125,3.492
316.625,3.407
318.125,3.331
319.625,3.270
319.850,3.263
321.350,3.208
322.850,3.173
324.350,3.155
325.850,3.150
327.350,3.156
328.850,3.168
330.350,3.186
331.850,3.206
333.350,3.229
334.850,3.252
336.350,3.279
336.351,3.279
337.851,3.310
339.351,3.336
340.851,3.362
342.351,3.389
343.851,3.419
345.351,3.451
346.851,3.483
348.351,3.515
349.851,3.546
351.351,3.575
352.851,3.606
354.226,3.639
355.726,3.674
357.226,3.704
358.726,3.728
360.226,3.747
361.726,3.761
363.226,3.771
364.726,3.776
366.226,3.778
367.726,3.776
369.226,3.770
370.726,3.761
372.226,3.748
373.726,3.730
375.226,3.708
376.726,3.680
376.777,3.679
378.277,3.650
379.777,3.622
381.277,3.592
382.777,3.560
384.277,3.526
385.777,3.486
387.277,3.442
388.777,3.394
390.277,3.340
391.777,3.283
393.277,3.223
394.777,3.163
##END=
