##TITLE=3-Methyl-2-(methylthio)-6,7-diphenyl-4(3H)-pteridinone
##JCAMP-DX=4.24
##DATA TYPE=UV/VIS SPECTRUM
##ORIGIN=INSTITUTE OF ENERGY PROBLEMS OF CHEMICAL PHYSICS, RAS
##OWNER=INEP CP RAS, NIST OSRD
Collection (C) 2007 copyright by the U.S. Secretary of Commerce
on behalf of the United States of America. All rights reserved.
##CAS REGISTRY NO=50996-35-5
##MOLFORM=C20H16N4OS
##SOURCE REFERENCE=RAS UV No. 22342
##$NIST SQUIB=1978SOU/PFL971
##$NIST SOURCE=TYUGLMTE
##SPECTROMETER/DATA SYSTEM=Cary 1115/15
##XUNITS=Wavelength (nm)
##YUNITS=Logarithm epsilon
##XFACTOR=1.0
##YFACTOR=1.0
##FIRSTX=205.926
##LASTX=470.441
##FIRSTY=4.043
##MAXX=470.441
##MINX=205.926
##MAXY=4.307
##MINY=3.6
##NPOINTS=178
##$REF AUTHOR=Southon, I.W.; Pfleiderer, W.
##$REF JOURNAL=Chem. Ber.
##$REF VOLUME=111
##$REF PAGE=971
##$REF DATE=1978
##XYPOINTS=(XY..XY)
205.926,4.043
207.426,4.057
208.926,4.072
210.426,4.087
211.926,4.102
213.426,4.116
214.926,4.129
216.426,4.141
217.926,4.151
219.426,4.160
220.926,4.167
222.426,4.173
223.926,4.178
225.426,4.181
226.926,4.183
228.426,4.183
229.926,4.183
231.426,4.181
232.926,4.177
234.426,4.172
235.926,4.164
237.426,4.154
238.926,4.141
240.426,4.124
241.713,4.107
243.213,4.093
244.713,4.076
246.213,4.057
247.713,4.040
249.213,4.024
250.713,4.011
252.213,4.000
253.713,3.993
255.213,3.988
256.713,3.985
258.213,3.983
259.713,3.984
261.213,3.985
262.713,3.987
264.213,3.991
265.713,3.996
267.213,4.002
268.713,4.009
270.213,4.019
271.713,4.031
273.213,4.045
274.713,4.061
276.213,4.080
277.656,4.096
279.156,4.122
280.656,4.147
282.156,4.172
283.656,4.197
285.156,4.220
286.656,4.241
288.156,4.260
289.656,4.276
291.156,4.289
292.656,4.299
294.156,4.304
295.656,4.307
297.156,4.305
298.656,4.300
300.156,4.292
301.656,4.282
303.156,4.270
304.656,4.256
306.156,4.241
307.656,4.225
309.156,4.209
310.425,4.194
311.857,4.177
313.425,4.157
314.925,4.128
316.425,4.096
317.925,4.061
319.425,4.025
320.925,3.989
322.425,3.953
323.925,3.918
325.425,3.884
326.925,3.851
328.425,3.820
329.925,3.790
331.425,3.762
332.925,3.735
334.425,3.709
336.192,3.682
337.692,3.661
339.192,3.644
340.692,3.629
342.192,3.618
343.692,3.610
345.192,3.604
346.692,3.601
348.192,3.600
349.692,3.600
351.192,3.602
352.692,3.605
354.192,3.609
355.692,3.614
357.192,3.620
358.692,3.625
360.192,3.631
361.692,3.638
363.192,3.645
364.692,3.653
366.192,3.662
366.480,3.664
367.980,3.674
369.480,3.685
370.980,3.696
372.480,3.708
373.980,3.720
375.480,3.732
376.980,3.745
378.480,3.758
379.980,3.771
381.480,3.785
382.980,3.799
384.480,3.813
385.980,3.828
387.480,3.843
388.980,3.858
390.480,3.874
391.980,3.890
393.480,3.906
394.980,3.922
396.480,3.938
397.980,3.954
399.480,3.971
400.980,3.987
402.480,4.004
403.980,4.020
405.480,4.036
406.980,4.052
408.480,4.068
409.980,4.083
411.480,4.098
413.441,4.115
414.941,4.128
416.441,4.141
417.941,4.153
419.441,4.165
420.941,4.176
422.441,4.186
423.941,4.195
425.441,4.202
426.941,4.208
428.441,4.213
429.941,4.216
431.441,4.218
432.941,4.219
434.441,4.218
435.941,4.216
437.441,4.212
438.941,4.207
440.441,4.201
441.941,4.193
443.441,4.183
444.941,4.172
446.441,4.159
447.941,4.145
449.441,4.128
450.941,4.109
452.441,4.088
453.941,4.065
455.441,4.039
456.941,4.011
458.441,3.980
459.941,3.946
461.441,3.910
462.941,3.870
464.441,3.828
465.941,3.784
467.441,3.737
468.941,3.689
470.441,3.639
##END=
