##TITLE=4-(2-Phenylvinyl)pyridine, trans
##JCAMP-DX=4.24
##DATA TYPE=UV/VIS SPECTRUM
##ORIGIN=INSTITUTE OF ENERGY PROBLEMS OF CHEMICAL PHYSICS, RAS
##OWNER=INEP CP RAS, NIST OSRD
Collection (C) 2007 copyright by the U.S. Secretary of Commerce
on behalf of the United States of America. All rights reserved.
##CAS REGISTRY NO=5097-93-8
##MOLFORM=C13H11N
##MP=127
##SOURCE REFERENCE=RAS UV No. 19892
##$NIST SQUIB=1968LOAg11/5
##$NIST SOURCE=TYUGLMTE
##SPECTROMETER/DATA SYSTEM=Unicam SP 700
##XUNITS=Wavelength (nm)
##YUNITS=Logarithm epsilon
##XFACTOR=1.0
##YFACTOR=1.0
##FIRSTX=200.98
##LASTX=344.59
##FIRSTY=4.368
##MAXX=344.59
##MINX=200.98
##MAXY=4.458
##MINY=2.755
##NPOINTS=183
##$REF AUTHOR=Loader, C.E.
##$REF JOURNAL=UV atlas of organic compounds
##$REF VOLUME=4
##$REF PAGE=G11/5
##$REF DATE=1968
##XYPOINTS=(XY..XY)
200.98,4.368
201.06,4.366
201.15,4.364
201.24,4.364
201.32,4.362
201.41,4.360
201.50,4.358
201.58,4.356
201.67,4.353
201.76,4.351
201.84,4.349
201.93,4.347
202.02,4.345
202.11,4.343
202.19,4.341
202.46,4.330
202.98,4.306
203.52,4.279
204.05,4.249
204.58,4.206
205.12,4.166
205.66,4.127
206.21,4.091
206.76,4.059
207.31,4.029
207.86,4.003
208.42,3.980
208.98,3.959
209.54,3.946
210.10,3.935
210.67,3.927
211.24,3.920
211.82,3.916
212.40,3.916
212.98,3.918
213.45,3.920
214.10,3.924
214.71,3.929
215.28,3.934
215.93,3.939
216.53,3.946
217.13,3.956
217.74,3.967
218.35,3.982
218.96,4.001
219.58,4.020
220.20,4.035
220.83,4.050
221.45,4.061
222.09,4.074
222.72,4.082
223.36,4.087
224.00,4.093
224.65,4.095
225.30,4.102
225.95,4.104
226.61,4.110
227.27,4.119
227.94,4.123
228.60,4.129
229.28,4.129
229.95,4.123
230.64,4.112
231.32,4.091
232.01,4.070
232.70,4.055
233.40,4.040
234.10,4.029
234.81,4.027
235.52,4.027
236.23,4.027
236.60,4.023
236.95,4.010
237.67,3.956
238.40,3.877
239.13,3.799
239.87,3.700
240.10,3.678
241.04,3.593
242.11,3.523
242.86,3.468
243.62,3.427
244.39,3.397
245.16,3.385
245.93,3.376
246.71,3.376
247.48,3.382
248.21,3.391
248.95,3.402
249.63,3.412
250.56,3.426
251.48,3.441
252.29,3.458
253.12,3.478
253.95,3.498
254.78,3.521
255.62,3.545
256.46,3.570
257.30,3.594
258.16,3.621
259.02,3.643
259.88,3.670
260.75,3.696
261.63,3.724
262.51,3.749
263.40,3.777
264.29,3.807
265.19,3.835
266.10,3.860
267.01,3.886
267.93,3.912
268.85,3.931
269.78,3.956
270.72,3.982
271.67,4.003
272.62,4.029
273.57,4.052
274.54,4.074
275.51,4.095
276.49,4.117
277.47,4.136
278.46,4.157
279.46,4.178
280.47,4.195
281.48,4.217
282.51,4.234
283.53,4.251
284.57,4.264
285.61,4.281
286.66,4.296
287.72,4.313
288.79,4.328
289.87,4.343
290.95,4.356
292.04,4.368
293.14,4.383
294.25,4.396
295.36,4.409
296.49,4.415
297.62,4.424
298.76,4.432
299.91,4.441
301.07,4.445
302.24,4.445
303.42,4.443
304.60,4.441
305.80,4.441
307.00,4.445
308.22,4.449
309.44,4.458
310.68,4.454
311.92,4.443
313.18,4.432
314.44,4.417
315.72,4.400
317.00,4.373
318.30,4.351
319.60,4.332
320.92,4.317
322.25,4.298
323.59,4.279
324.94,4.255
326.30,4.208
327.67,4.163
329.06,4.102
330.45,4.020
331.86,3.924
333.28,3.826
334.71,3.713
336.16,3.585
337.61,3.457
338.50,3.380
338.97,3.336
339.37,3.295
339.71,3.261
339.94,3.232
340.23,3.201
340.57,3.172
341.15,3.116
341.60,3.076
342.56,2.962
343.57,2.862
344.59,2.755
##END=
