##TITLE=1,1,3,4,4,5,5,6-octachloro-4,5-dihydro-2(1H)-pentalenone
##JCAMP-DX=4.24
##DATA TYPE=UV/VIS SPECTRUM
##ORIGIN=INSTITUTE OF ENERGY PROBLEMS OF CHEMICAL PHYSICS, RAS
##OWNER=INEP CP RAS, NIST OSRD
Collection (C) 2007 copyright by the U.S. Secretary of Commerce
on behalf of the United States of America. All rights reserved.
##CAS REGISTRY NO=51075-70-8
##MOLFORM=C8Cl8O
##MP=59-60
##SOURCE REFERENCE=RAS UV No. 23910
##$NIST SQUIB=1974KUS/1641
##$NIST SOURCE=TYUGLMTE
##SPECTROMETER/DATA SYSTEM=Hitachi EPS-20
##XUNITS=Wavelength (nm)
##YUNITS=Logarithm epsilon
##XFACTOR=1.0
##YFACTOR=1.0
##FIRSTX=212.27
##LASTX=348.478
##FIRSTY=3.913
##MAXX=348.478
##MINX=212.27
##MAXY=4.162
##MINY=3.119
##NPOINTS=138
##$REF AUTHOR=Kusuda, K.; et al.
##$REF JOURNAL=J. Org. Chem.
##$REF VOLUME=39
##$REF PAGE=1641
##$REF DATE=1974
##XYPOINTS=(XY..XY)
212.270,3.913
213.270,3.897
214.270,3.880
215.270,3.864
216.270,3.847
217.270,3.831
218.270,3.815
219.270,3.800
220.270,3.785
221.270,3.772
222.270,3.760
223.270,3.749
224.270,3.739
225.270,3.731
226.270,3.724
227.270,3.719
228.270,3.716
229.270,3.714
230.270,3.713
231.270,3.714
232.270,3.717
233.270,3.721
234.270,3.727
235.270,3.734
236.270,3.743
237.270,3.752
238.270,3.763
239.270,3.776
240.270,3.789
241.270,3.803
242.270,3.818
243.270,3.834
244.270,3.850
245.270,3.867
246.270,3.884
247.270,3.902
248.270,3.919
249.270,3.937
250.270,3.955
251.270,3.973
252.270,3.990
253.270,4.008
254.270,4.024
255.270,4.041
255.339,4.043
256.339,4.057
257.339,4.071
258.339,4.085
259.339,4.098
260.339,4.110
261.339,4.121
262.339,4.131
263.339,4.139
264.339,4.146
265.339,4.152
266.339,4.157
267.339,4.160
268.339,4.162
269.339,4.162
270.339,4.161
271.339,4.160
272.339,4.157
273.339,4.153
274.339,4.148
275.339,4.143
276.339,4.137
277.339,4.130
278.339,4.122
279.480,4.110
280.480,4.098
281.480,4.089
282.480,4.081
283.480,4.073
284.480,4.064
285.480,4.054
286.480,4.042
287.480,4.029
288.480,4.016
289.480,4.002
290.480,3.990
291.480,3.979
292.480,3.971
293.480,3.966
294.480,3.964
295.480,3.965
296.480,3.969
297.480,3.976
298.480,3.984
299.401,3.991
300.401,3.997
301.401,4.003
302.401,4.007
303.401,4.011
304.401,4.014
305.401,4.016
306.401,4.018
307.401,4.018
308.401,4.018
309.401,4.018
310.401,4.016
311.401,4.014
312.401,4.012
313.401,4.009
314.401,4.005
315.401,4.000
316.401,3.995
317.401,3.988
318.401,3.979
319.401,3.968
320.401,3.954
321.401,3.938
322.401,3.917
323.442,3.899
324.478,3.880
325.478,3.862
326.478,3.839
327.478,3.812
328.478,3.782
329.478,3.749
330.478,3.714
331.478,3.678
332.478,3.640
333.478,3.602
334.478,3.564
335.478,3.527
336.478,3.489
337.478,3.452
338.478,3.416
339.478,3.381
340.478,3.347
341.478,3.314
342.478,3.283
343.478,3.252
344.478,3.223
345.478,3.195
346.478,3.168
347.478,3.143
348.478,3.119
##END=
