##TITLE=Thiocyanic acid, 1,2-dihydro-2-oxo-1-beta-D-ribofuranosyl-4-pyrimidinyl ester
##JCAMP-DX=4.24
##DATA TYPE=UV/VIS SPECTRUM
##ORIGIN=INSTITUTE OF ENERGY PROBLEMS OF CHEMICAL PHYSICS, RAS
##OWNER=INEP CP RAS, NIST OSRD
Collection (C) 2007 copyright by the U.S. Secretary of Commerce
on behalf of the United States of America. All rights reserved.
##CAS REGISTRY NO=51056-62-3
##MOLFORM=C10H11N3O5S
##SOURCE REFERENCE=RAS UV No. 23906
##$NIST SQUIB=1974PAL/SCH1446
##$NIST SOURCE=TYUGLMTE
##SPECTROMETER/DATA SYSTEM=Cary 14 PM
##XUNITS=Wavelength (nm)
##YUNITS=Logarithm epsilon
##XFACTOR=1.0
##YFACTOR=1.0
##FIRSTX=220.586
##LASTX=349.78
##FIRSTY=4.01
##MAXX=349.78
##MINX=220.586
##MAXY=4.01
##MINY=2.065
##NPOINTS=87
##$REF AUTHOR=Pal, B.C.; Schmidt, D.G.
##$REF JOURNAL=J. Org. Chem.
##$REF VOLUME=39
##$REF PAGE=1446
##$REF DATE=1974
##XYPOINTS=(XY..XY)
220.586,4.010
222.086,3.968
223.586,3.915
225.086,3.854
226.586,3.788
228.097,3.721
229.597,3.667
231.097,3.624
232.597,3.603
234.097,3.606
235.597,3.625
237.097,3.654
238.737,3.685
240.237,3.721
241.737,3.752
243.237,3.779
244.737,3.802
246.237,3.818
247.737,3.830
249.237,3.835
250.737,3.835
252.237,3.831
253.737,3.823
255.237,3.812
256.737,3.798
258.237,3.781
259.737,3.760
261.062,3.737
262.562,3.697
264.062,3.653
265.562,3.606
267.062,3.560
268.562,3.517
270.062,3.480
271.562,3.451
273.062,3.432
274.562,3.422
276.062,3.423
277.562,3.432
279.062,3.448
280.562,3.469
282.062,3.493
283.562,3.520
285.062,3.549
286.562,3.580
288.224,3.621
289.724,3.655
291.224,3.687
292.724,3.719
294.224,3.749
295.724,3.776
297.224,3.802
298.724,3.825
300.224,3.846
301.724,3.864
303.224,3.879
304.724,3.892
306.124,3.902
307.574,3.909
309.287,3.909
310.803,3.904
312.253,3.895
313.724,3.883
315.224,3.869
316.724,3.855
318.224,3.841
319.724,3.823
321.224,3.796
322.724,3.757
324.280,3.717
325.780,3.670
327.280,3.611
328.780,3.543
330.280,3.465
331.780,3.378
333.280,3.281
334.780,3.173
336.280,3.056
337.780,2.928
339.280,2.793
340.780,2.653
342.280,2.517
343.780,2.399
345.280,2.310
346.780,2.249
348.280,2.190
349.780,2.065
##END=
