##TITLE=2,3,3a,5,6,6a-hexachloro-3a,6a-dihydro-1,4-pentalenedione
##JCAMP-DX=4.24
##DATA TYPE=UV/VIS SPECTRUM
##ORIGIN=INSTITUTE OF ENERGY PROBLEMS OF CHEMICAL PHYSICS, RAS
##OWNER=INEP CP RAS, NIST OSRD
Collection (C) 2007 copyright by the U.S. Secretary of Commerce
on behalf of the United States of America. All rights reserved.
##CAS REGISTRY NO=51075-66-2
##MOLFORM=C8Cl6O2
##MP=146-147
##SOURCE REFERENCE=RAS UV No. 23909
##$NIST SQUIB=1974KUS/1641
##$NIST SOURCE=TYUGLMTE
##SPECTROMETER/DATA SYSTEM=Hitachi EPS-20
##XUNITS=Wavelength (nm)
##YUNITS=Logarithm epsilon
##XFACTOR=1.0
##YFACTOR=1.0
##FIRSTX=210.547
##LASTX=395.802
##FIRSTY=3.94
##MAXX=395.802
##MINX=210.547
##MAXY=4.104
##MINY=2.134
##NPOINTS=187
##$REF AUTHOR=Kusuda, K.; et al.
##$REF JOURNAL=J. Org. Chem.
##$REF VOLUME=39
##$REF PAGE=1641
##$REF DATE=1974
##XYPOINTS=(XY..XY)
210.547,3.940
211.547,3.950
212.547,3.961
213.547,3.973
214.547,3.985
215.547,3.995
216.547,4.003
217.547,4.009
218.547,4.011
219.547,4.011
220.547,4.006
221.547,3.999
222.547,3.989
223.547,3.976
224.547,3.960
225.547,3.942
226.547,3.923
227.547,3.904
228.547,3.883
229.547,3.864
230.547,3.845
231.547,3.828
232.547,3.813
233.547,3.800
234.547,3.791
235.547,3.785
236.547,3.784
237.547,3.786
238.547,3.793
239.547,3.804
240.547,3.820
241.547,3.839
242.547,3.862
243.547,3.887
244.547,3.915
245.446,3.940
246.439,3.964
247.439,3.988
248.439,4.015
249.439,4.041
250.439,4.064
251.439,4.081
252.439,4.094
253.439,4.101
254.439,4.104
255.439,4.103
256.439,4.100
257.439,4.096
258.439,4.090
259.439,4.085
260.439,4.080
261.439,4.073
262.439,4.063
263.439,4.047
264.439,4.020
266.084,3.867
267.084,3.730
268.084,3.617
269.084,3.527
270.084,3.456
271.084,3.403
272.084,3.365
273.084,3.338
274.084,3.322
275.084,3.312
276.084,3.307
277.084,3.304
278.084,3.301
279.084,3.294
280.084,3.282
281.141,3.262
282.141,3.221
283.141,3.172
284.141,3.116
285.141,3.056
286.141,2.993
287.141,2.929
288.141,2.866
289.141,2.805
290.141,2.746
291.141,2.691
292.141,2.639
293.141,2.592
294.141,2.549
295.141,2.511
296.141,2.478
297.141,2.450
298.141,2.426
299.141,2.407
300.141,2.393
301.141,2.384
302.141,2.379
303.141,2.378
304.141,2.383
305.141,2.392
306.141,2.407
307.141,2.427
308.280,2.446
309.120,2.469
309.944,2.489
310.944,2.518
311.944,2.546
312.944,2.573
313.944,2.597
314.944,2.617
315.944,2.633
316.944,2.645
317.944,2.654
318.944,2.659
319.944,2.662
320.944,2.664
321.944,2.664
322.944,2.665
323.944,2.666
324.944,2.669
325.944,2.672
326.944,2.677
327.944,2.684
328.944,2.691
329.944,2.700
330.944,2.708
331.944,2.717
332.944,2.724
333.944,2.730
334.944,2.733
335.944,2.734
336.944,2.731
337.944,2.726
338.944,2.720
339.944,2.712
340.944,2.706
341.944,2.705
343.149,2.714
343.784,2.732
344.784,2.754
345.784,2.773
346.784,2.787
347.784,2.795
348.784,2.796
349.784,2.791
350.784,2.779
351.784,2.763
352.784,2.744
353.784,2.723
354.784,2.702
355.784,2.683
356.784,2.667
357.784,2.655
358.784,2.650
359.784,2.651
360.784,2.659
361.784,2.673
362.784,2.692
363.784,2.714
364.396,2.740
365.360,2.764
366.360,2.774
367.360,2.771
368.360,2.758
369.360,2.735
370.360,2.705
371.360,2.670
372.360,2.631
373.360,2.590
374.360,2.548
375.360,2.509
376.360,2.473
377.360,2.442
378.360,2.419
379.360,2.405
380.360,2.401
381.360,2.410
382.360,2.433
383.450,2.465
384.450,2.483
385.450,2.495
386.450,2.502
387.450,2.504
388.450,2.502
389.450,2.494
390.450,2.479
391.450,2.454
392.450,2.417
393.450,2.365
393.802,2.338
394.802,2.240
395.802,2.134
##END=
