##TITLE=Benzimidazole
##JCAMP-DX=4.24
##DATA TYPE=UV/VIS SPECTRUM
##ORIGIN=INSTITUTE OF ENERGY PROBLEMS OF CHEMICAL PHYSICS, RAS
##OWNER=INEP CP RAS, NIST OSRD
Collection (C) 2007 copyright by the U.S. Secretary of Commerce
on behalf of the United States of America. All rights reserved.
##CAS REGISTRY NO=51-17-2
##MOLFORM=C7H6N2
##MP=170.5
##BP=> 360
##SOURCE REFERENCE=RAS UV No. 213
##$NIST SQUIB=1948STE/NAC3406-3410
##$NIST SOURCE=TSGMTE
##SPECTROMETER/DATA SYSTEM=Beckman DU
##XUNITS=Wavelength (nm)
##YUNITS=Logarithm epsilon
##XFACTOR=1.000000
##YFACTOR=1.000000
##FIRSTX=206.2634
##LASTX=279.9384
##FIRSTY=4.10485
##MAXX=279.938
##MINX=206.263
##MAXY=4.10485
##MINY=2.86827
##NPOINTS=411
##$REF AUTHOR=Steck, E.A.; Nachod, F.C.; Ewing, G.W.; Gorman, N.H.
##$REF TITLE=Absorption spectra of heterocyclic compounds. III. Some benzimidazole derivatives
##$REF JOURNAL=J. Am. Chem. Soc.
##$REF VOLUME=70
##$REF PAGE=3406-3410
##$REF DATE=1948
##XYPOINTS=(XY..XY)
206.2634,4.104851
206.3872,4.100896
206.3882,4.102982
206.6505,4.093217
206.6525,4.097157
207.2853,4.073905
207.4248,4.069949
207.4259,4.072035
207.5487,4.066226
207.5496,4.068080
207.6725,4.062271
207.6734,4.064126
208.3220,4.041103
208.4458,4.037149
208.4467,4.039003
208.5697,4.033426
208.5706,4.035280
208.7092,4.029469
208.7112,4.033410
208.8329,4.025515
208.8340,4.027601
209.3420,4.006217
209.3430,4.008303
209.6063,4.000392
209.6073,4.002478
209.8539,3.992715
209.8559,3.996655
210.7491,3.959928
210.7510,3.963637
210.8886,3.955972
210.8897,3.958058
211.0114,3.950163
211.0134,3.954104
211.7829,3.921331
211.7858,3.927127
211.9066,3.917377
211.9076,3.919231
212.5542,3.892268
212.8019,3.884590
212.8039,3.888531
212.9404,3.878780
212.9424,3.882720
213.4485,3.857627
213.4504,3.861336
213.5732,3.855527
213.5742,3.857613
213.7117,3.849716
213.7137,3.853657
213.8356,3.845993
213.8366,3.847848
213.9604,3.844125
214.4645,3.815091
214.4665,3.819032
214.6040,3.811135
214.6050,3.813221
214.7268,3.805326
214.7288,3.809266
214.8487,3.797662
214.8516,3.803457
215.3705,3.772567
215.3744,3.780217
215.6201,3.768830
215.7419,3.760935
215.7459,3.768817
215.9964,3.735870
216.1183,3.728206
216.1212,3.734002
216.2559,3.720541
216.2588,3.726336
216.3797,3.716586
216.3807,3.718672
216.7561,3.683857
216.7590,3.689653
216.8780,3.676194
216.8818,3.683843
217.2562,3.647174
217.2583,3.651115
217.3761,3.635569
217.3811,3.645305
217.5167,3.633699
217.7506,3.599132
217.7536,3.604927
217.8872,3.589380
217.8911,3.597030
218.2577,3.545061
218.2675,3.564301
218.3816,3.541338
218.3835,3.545047
218.5014,3.529733
218.5063,3.539238
218.6193,3.514188
218.6262,3.527633
218.7579,3.508377
218.7608,3.514172
219.1352,3.477503
219.1392,3.485384
219.2571,3.469839
219.2600,3.475634
219.3810,3.466116
219.3819,3.467971
219.5136,3.448715
219.5214,3.464014
219.6326,3.435256
219.6385,3.446846
219.6403,3.450555
219.7554,3.429447
219.7573,3.433156
220.1386,3.410163
220.1405,3.413872
220.4029,3.404338
220.4039,3.406193
220.5267,3.400383
220.5276,3.402238
221.0377,3.385027
221.5526,3.377319
223.2456,3.367396
223.5128,3.367366
223.5138,3.369221
223.6396,3.369207
223.7821,3.371277
223.9079,3.371263
224.0346,3.373104
225.2225,3.390359
225.2244,3.394068
225.3513,3.396141
225.3522,3.397995
225.4937,3.397980
225.4956,3.401689
226.4201,3.426623
226.6737,3.430536
226.6746,3.432391
226.8161,3.432375
226.8181,3.436316
226.9439,3.436302
226.9448,3.438156
227.0717,3.440229
227.0726,3.442083
228.2645,3.466988
228.3912,3.468829
228.3921,3.470684
228.5336,3.470668
228.5347,3.472754
228.6604,3.472740
228.6614,3.474595
228.9306,3.478506
230.2472,3.501311
230.2482,3.503397
230.5017,3.507078
230.6432,3.507063
232.0865,3.531940
232.3558,3.535851
232.4816,3.535837
232.4825,3.537692
232.6094,3.539764
233.0052,3.545284
233.2725,3.545255
233.3993,3.547327
233.5251,3.547313
233.5260,3.549168
233.6675,3.549152
233.6685,3.551007
233.7942,3.550993
233.7953,3.553079
233.9220,3.554920
233.9229,3.556774
234.0655,3.558845
234.1913,3.558831
234.3180,3.560671
234.8368,3.560614
235.1059,3.564293
235.3732,3.564264
235.3743,3.566350
235.5000,3.566336
235.6267,3.568177
235.7682,3.568161
235.8949,3.570002
237.6007,3.585345
237.8523,3.585317
237.9947,3.587156
238.2463,3.587128
238.2472,3.588983
238.3887,3.588967
238.5155,3.591040
239.9491,3.596677
241.0024,3.596560
242.5589,3.596388
243.4864,3.596286
244.7883,3.590346
244.9130,3.588246
245.1803,3.588216
245.3051,3.586348
245.6982,3.586304
245.8230,3.584436
247.7843,3.576569
248.4288,3.576498
248.5693,3.574396
248.6950,3.574382
248.9466,3.574354
250.7830,3.568355
251.4276,3.568284
251.5701,3.570355
252.2147,3.570283
253.2699,3.573876
253.9145,3.573805
253.9156,3.575891
254.0413,3.575877
254.1838,3.577716
254.4353,3.577688
254.5777,3.579527
254.7035,3.579513
254.8303,3.581585
254.9718,3.581570
255.0986,3.583410
256.1421,3.594886
256.2845,3.596725
256.2854,3.598579
256.4112,3.598565
256.4123,3.600652
257.0617,3.610085
257.0626,3.611939
258.3813,3.638917
258.3822,3.640771
258.5247,3.642610
258.5257,3.644696
258.6515,3.644682
258.6524,3.646537
258.7782,3.646523
258.7802,3.650464
259.8433,3.669588
259.8443,3.671442
260.2402,3.677194
260.2412,3.679048
261.2837,3.688670
262.0698,3.688583
263.1045,3.682673
263.6390,3.682614
264.2924,3.699928
264.2963,3.707578
264.4387,3.709417
264.4397,3.711271
264.7001,3.728629
264.7021,3.732570
264.8288,3.734411
264.8317,3.740206
264.9742,3.742045
264.9771,3.747840
265.2414,3.772848
265.3838,3.774687
265.3858,3.778627
265.5116,3.778613
265.5125,3.780468
265.6394,3.782540
265.6433,3.790190
266.0470,3.811241
266.0490,3.815182
266.1905,3.815166
266.1924,3.818875
266.8410,3.826686
267.1072,3.824570
267.1083,3.826656
267.2320,3.822701
267.2330,3.824556
267.3558,3.818747
267.3578,3.822688
267.9976,3.782279
268.0033,3.793638
268.1184,3.772530
268.1233,3.782266
268.3700,3.741669
268.3729,3.747464
268.4898,3.730065
268.4948,3.739801
268.7434,3.703145
268.7454,3.707086
268.8604,3.685745
268.8683,3.701277
269.1130,3.656971
269.1159,3.662767
269.2279,3.635631
269.2377,3.654871
269.3430,3.614522
269.3459,3.620317
269.4599,3.597122
269.4678,3.612654
269.5838,3.562567
269.5906,3.576012
269.7066,3.556758
269.7085,3.560467
269.8128,3.518263
269.8217,3.535649
270.7345,3.506570
270.9860,3.506542
270.9870,3.508397
271.2542,3.508367
271.7828,3.527550
271.7937,3.548877
271.8064,3.573912
271.8112,3.583417
271.8230,3.606598
271.8328,3.625838
271.9595,3.627678
271.9713,3.650860
271.9782,3.664305
272.1197,3.664289
272.1471,3.718301
272.2738,3.720141
272.2757,3.723850
272.4133,3.747018
272.4231,3.766258
272.5597,3.787571
272.5655,3.798929
272.7080,3.801000
272.7099,3.804709
273.1138,3.825992
273.5068,3.825949
273.6306,3.821994
273.6315,3.823848
273.7554,3.820125
274.1318,3.787397
274.1376,3.798755
274.2419,3.756552
274.2458,3.764202
274.2565,3.785296
274.3618,3.714115
274.3638,3.718056
274.3784,3.746800
274.3823,3.754450
274.4798,3.698802
274.4867,3.712247
274.5811,3.650571
274.5918,3.671666
274.7651,3.486883
274.7758,3.507978
274.8042,3.563844
274.8121,3.579375
274.8219,3.598616
274.8356,3.625506
274.8732,3.452097
274.8781,3.461834
274.8870,3.479219
274.8899,3.485015
274.9016,3.507964
274.9173,3.538795
275.0128,3.448373
275.0137,3.450227
275.0205,3.463672
275.0284,3.479204
275.1326,3.436768
275.1375,3.446273
275.2496,3.419369
275.2575,3.434900
275.3813,3.400113
275.3901,3.417499
275.4993,3.384799
275.5061,3.398244
275.6142,3.363459
275.6240,3.382699
275.7126,3.309665
275.7213,3.326819
275.7370,3.357650
275.7390,3.361590
275.8511,3.303854
275.8530,3.307563
275.9583,3.267214
275.9661,3.282513
276.0024,3.353911
276.0684,3.236369
276.0831,3.265345
276.2021,3.221054
276.2089,3.234499
276.3268,3.218954
276.4330,3.180459
276.4398,3.193904
276.5696,3.170939
276.5735,3.178589
276.8035,3.136140
276.8074,3.143790
276.9402,3.126620
276.9440,3.134270
277.0502,3.095775
277.0532,3.101571
277.1681,3.080230
277.1760,3.095761
277.5397,3.037997
277.5465,3.051442
277.6634,3.034042
277.6644,3.035897
277.9160,3.005036
277.9189,3.010832
278.0369,2.995518
278.0417,3.005023
278.4152,2.966499
278.4172,2.970439
278.5361,2.956980
278.5400,2.964630
278.7907,2.931915
278.7925,2.935624
278.9144,2.927961
278.9154,2.929815
279.0520,2.920295
279.0550,2.926090
279.1758,2.916340
279.1769,2.918427
279.5522,2.883612
279.5561,2.891261
279.6760,2.879657
279.6770,2.881743
279.8136,2.871992
279.8165,2.877787
279.9375,2.868269
279.9384,2.870123
##END=
