##TITLE=Phenol, 2,4-dinitro-
##JCAMP-DX=4.24
##DATA TYPE=UV/VIS SPECTRUM
##ORIGIN=INSTITUTE OF ENERGY PROBLEMS OF CHEMICAL PHYSICS, RAS
##OWNER=INEP CP RAS, NIST OSRD
Collection (C) 2007 copyright by the U.S. Secretary of Commerce
on behalf of the United States of America. All rights reserved.
##CAS REGISTRY NO=51-28-5
##MOLFORM=C6H4N2O5
##MP=115.5
##BP=sub
##SOURCE REFERENCE=RAS UV No. 76
##$NIST SQUIB=1962ABE318-322
##$NIST SOURCE=TSGMTE
##SPECTROMETER/DATA SYSTEM=Hitachi EPU-2 spectrometer
##XUNITS=Wavelength (nm)
##YUNITS=Logarithm epsilon
##XFACTOR=1.000000
##YFACTOR=1.000000
##FIRSTX=365.0929
##LASTX=225.8665
##FIRSTY=3.32441
##MAXX=365.093
##MINX=225.867
##MAXY=4.11168
##MINY=3.32441
##NPOINTS=296
##$REF AUTHOR=Abe, T.
##$REF TITLE=Electronic spectra of polynitrophenols and their anions
##$REF JOURNAL=Bull. Chem. Soc. Jpn.
##$REF VOLUME=35
##$REF NUMBER=2
##$REF PAGE=318-322
##$REF DATE=1962
##XYPOINTS=(XY..XY)
365.0929,3.324413
365.0929,3.328908
364.5737,3.332864
364.5737,3.336785
364.0561,3.341154
364.0561,3.345001
363.4754,3.348814
363.4754,3.356807
361.3622,3.379499
361.3622,3.383022
360.8536,3.386517
360.8536,3.393851
358.2068,3.424806
358.2068,3.427982
357.2086,3.434653
355.6601,3.453328
355.6601,3.459624
355.1059,3.462556
355.1059,3.465830
354.6148,3.468721
354.6148,3.471592
354.1250,3.474799
352.6031,3.497622
352.6031,3.503312
352.1188,3.505964
352.1188,3.508599
351.5756,3.511546
349.5981,3.530067
349.5981,3.535041
349.1220,3.537814
349.1220,3.542700
348.5880,3.545424
348.5880,3.547832
347.1720,3.564898
346.6439,3.567200
346.6439,3.572052
346.1759,3.574316
344.7214,3.588209
344.7214,3.592833
344.2585,3.592833
344.2585,3.597141
342.3622,3.612407
342.3622,3.614728
341.8487,3.616781
341.8487,3.618825
341.3935,3.621112
341.3935,3.623136
340.9395,3.625150
340.9395,3.637529
339.5286,3.641659
339.5286,3.643589
339.0235,3.645511
339.0235,3.647663
338.5758,3.649566
338.5758,3.651461
336.7415,3.667018
336.7415,3.672683
336.2998,3.674480
334.9269,3.690977
334.4354,3.692700
334.4354,3.694416
333.9997,3.696339
333.9997,3.701426
333.5652,3.701426
333.5652,3.703318
333.0777,3.703318
333.0777,3.706662
331.7309,3.720390
331.7309,3.722001
331.3023,3.723606
331.3023,3.725404
330.8747,3.726996
330.8747,3.730360
329.5457,3.740106
329.1226,3.741645
329.1226,3.744707
328.6480,3.746421
327.8076,3.757301
327.8076,3.758781
327.3368,3.760255
327.3368,3.761908
326.9194,3.763372
326.9194,3.764831
326.0360,3.773841
326.0360,3.778277
325.2089,3.778277
325.2089,3.782668
324.3347,3.791319
323.9249,3.792687
323.9249,3.795581
323.5161,3.796936
323.5161,3.799801
323.0575,3.801143
322.2455,3.810750
322.2455,3.812058
321.7905,3.813526
321.7905,3.816122
321.3871,3.817576
320.1330,3.829348
320.1330,3.830758
319.7338,3.832008
319.7338,3.833254
319.3356,3.834651
318.0975,3.843552
318.0975,3.849735
317.6541,3.851081
316.8689,3.858482
316.8689,3.859654
316.4289,3.860824
316.4289,3.861990
316.0389,3.863298
315.2617,3.870495
315.2617,3.872774
314.4401,3.875181
313.6227,3.883296
313.6227,3.884403
313.2395,3.885646
313.2395,3.887846
312.4284,3.895730
312.0482,3.896941
312.0482,3.899084
310.4893,3.907949
310.4893,3.910039
310.1138,3.911211
308.9460,3.918685
308.9460,3.919706
308.5278,3.920724
308.5278,3.922881
307.0038,3.929162
307.0038,3.930159
306.6367,3.931153
305.4949,3.936336
305.4949,3.937316
305.1313,3.938417
304.0007,3.944358
303.5957,3.945441
303.5957,3.946401
303.2366,3.946401
302.8784,3.947359
287.0267,3.989065
287.0267,3.989933
286.7057,3.990800
285.3496,3.995321
285.0324,3.996177
285.0324,3.997031
283.0655,4.003280
283.0655,4.004120
282.7534,4.004959
282.7534,4.005901
281.7822,4.010165
281.7822,4.010992
280.8178,4.013567
280.2040,4.018672
280.2040,4.019483
279.8599,4.020393
279.8599,4.022008
278.6054,4.029496
278.6054,4.030288
278.3030,4.031176
278.3030,4.031964
277.9635,4.032751
277.0250,4.040058
277.0250,4.041697
276.4276,4.048004
276.1299,4.048762
276.1299,4.049614
275.7957,4.050369
275.7957,4.051123
275.2037,4.058130
274.8718,4.058871
274.8718,4.060441
274.5774,4.061178
274.5774,4.062739
273.6615,4.068750
273.6615,4.069563
273.3697,4.070284
273.3697,4.071814
273.0786,4.072531
272.4619,4.076991
272.4619,4.078409
272.1726,4.079204
272.1726,4.079910
271.2727,4.086470
271.2727,4.087164
270.9502,4.087857
270.9502,4.088636
270.3787,4.092934
270.3787,4.093617
270.0583,4.094300
270.0583,4.095747
269.7742,4.096427
268.8900,4.100649
268.8900,4.101991
268.6083,4.102745
268.6083,4.103413
267.4525,4.108972
267.4525,4.109631
267.1390,4.110289
267.1390,4.110946
262.6240,4.110946
262.6240,4.111684
262.0536,4.109631
260.6549,4.105496
260.3901,4.104081
260.3901,4.104830
260.1260,4.103413
260.1260,4.104081
259.8294,4.102745
258.7477,4.094982
258.7477,4.096427
258.4869,4.093617
258.4869,4.094300
258.2265,4.092934
257.4163,4.086470
257.4163,4.087857
257.1259,4.084294
257.1259,4.085688
256.6112,4.078409
256.6112,4.079204
256.3226,4.076192
256.3226,4.077700
256.0666,4.075480
255.5561,4.067300
255.5561,4.069563
255.2699,4.065026
255.2699,4.067300
254.4781,4.057388
254.4781,4.059703
254.2257,4.056645
253.6912,4.049614
253.6912,4.051970
253.4404,4.048762
253.4404,4.049614
253.1901,4.048004
252.9092,4.041697
252.9092,4.042467
252.6599,4.040058
252.6599,4.040830
252.4112,4.039285
251.8842,4.030288
251.8842,4.033634
250.8676,4.021201
250.8676,4.022008
250.6224,4.019483
250.6224,4.020393
250.3470,4.017045
250.3470,4.018672
250.1028,4.010992
250.1028,4.012745
249.8591,4.008402
249.8591,4.010992
249.6158,4.007570
248.8587,3.996177
248.8587,3.999690
248.5872,3.995321
248.5872,3.996177
248.3465,3.994463
248.1061,3.988086
247.8363,3.985464
247.8363,3.987214
247.5970,3.983598
247.5970,3.985464
246.6146,3.974368
246.6146,3.976163
245.6399,3.964938
245.6399,3.966772
245.3755,3.963903
244.9067,3.956237
244.9067,3.958225
244.6438,3.955299
244.6438,3.956237
244.4106,3.954241
243.6846,3.945441
243.6846,3.947359
243.4532,3.944358
243.4532,3.945441
243.2223,3.943394
242.0169,3.933258
242.0169,3.935354
238.7491,3.917533
238.4992,3.917533
238.2776,3.916507
233.7695,3.900286
233.3174,3.900286
232.0242,3.896941
231.1352,3.896941
230.0722,3.898014
229.6343,3.898014
229.4288,3.899084
229.2237,3.899084
227.7222,3.902413
227.3184,3.904662
227.1170,3.904662
226.2652,3.908995
225.8665,3.911211
225.8665,3.912249
##END=
