##TITLE=2-Methyl-1-propanethiol
##JCAMP-DX=4.24
##DATA TYPE=UV/VIS SPECTRUM
##ORIGIN=INSTITUTE OF ENERGY PROBLEMS OF CHEMICAL PHYSICS, RAS
##OWNER=INEP CP RAS, NIST OSRD
Collection (C) 2007 copyright by the U.S. Secretary of Commerce
on behalf of the United States of America. All rights reserved.
##CAS REGISTRY NO=513-44-0
##MOLFORM=C4H10S
##SOURCE REFERENCE=RAS UV No. 20093
##$NIST SQUIB=1969BOL/84
##$NIST SOURCE=TYUGLMTE
##SPECTROMETER/DATA SYSTEM=unknown
##XUNITS=Wavelength (nm)
##YUNITS=Logarithm epsilon
##XFACTOR=1.0
##YFACTOR=1.0
##FIRSTX=212.56
##LASTX=281.49
##FIRSTY=2.248
##MAXX=281.49
##MINX=212.56
##MAXY=2.248
##MINY=0.585
##NPOINTS=107
##$REF AUTHOR=Bol'shakov, G.F.; et al.
##$REF JOURNAL=Ultraviolet spectra of heteroorganic compounds
##$REF PAGE=84
##$REF DATE=1969
##XYPOINTS=(XY..XY)
212.56,2.248
213.75,2.235
214.94,2.225
216.30,2.214
217.83,2.210
219.35,2.204
220.88,2.202
222.41,2.202
223.94,2.204
225.47,2.210
226.99,2.216
228.52,2.214
230.05,2.212
231.58,2.206
232.94,2.198
234.13,2.185
235.31,2.174
236.33,2.162
237.01,2.145
237.86,2.128
238.71,2.114
239.56,2.097
240.24,2.080
240.83,2.068
241.43,2.046
242.11,2.030
242.78,2.013
243.21,1.997
243.80,1.982
244.48,1.960
244.99,1.943
245.50,1.927
246.01,1.908
246.52,1.889
247.03,1.872
247.54,1.855
247.88,1.836
248.39,1.820
248.90,1.801
249.24,1.782
249.57,1.768
249.94,1.750
250.42,1.727
250.62,1.712
250.93,1.689
251.27,1.670
251.61,1.652
251.95,1.633
252.29,1.614
252.63,1.595
252.97,1.576
253.22,1.557
253.48,1.538
253.80,1.519
253.99,1.500
254.33,1.481
254.67,1.462
255.01,1.444
255.39,1.427
255.86,1.406
256.20,1.387
256.50,1.373
256.88,1.351
257.39,1.332
257.72,1.313
258.06,1.294
258.46,1.275
258.91,1.259
259.30,1.243
259.76,1.223
260.10,1.204
260.61,1.187
261.12,1.168
261.46,1.150
261.90,1.136
262.48,1.114
262.85,1.097
263.33,1.078
263.70,1.064
264.18,1.042
264.69,1.026
265.20,1.009
265.70,0.992
266.21,0.973
266.72,0.956
267.22,0.938
267.74,0.921
268.42,0.904
269.10,0.887
269.61,0.868
270.11,0.852
270.80,0.832
271.41,0.819
272.10,0.800
272.67,0.784
273.17,0.767
273.85,0.751
274.53,0.734
275.17,0.716
275.92,0.699
276.57,0.683
277.42,0.667
278.27,0.650
279.12,0.633
279.97,0.618
280.65,0.601
281.49,0.585
##END=
