##TITLE=2-Propanone, 1,1-dichloro-
##JCAMP-DX=4.24
##DATA TYPE=UV/VIS SPECTRUM
##ORIGIN=INSTITUTE OF ENERGY PROBLEMS OF CHEMICAL PHYSICS, RAS
##OWNER=INEP CP RAS, NIST OSRD
Collection (C) 2007 copyright by the U.S. Secretary of Commerce
on behalf of the United States of America. All rights reserved.
##CAS REGISTRY NO=513-88-2
##MOLFORM=C3H4Cl2O
##BP=59/ 110 mm
##SOURCE REFERENCE=RAS UV No. 15328
##$NIST SQUIB=1970SMI/THO296
##$NIST SOURCE=TYUGLMTE
##SPECTROMETER/DATA SYSTEM=Bausch and Lomb Spectronic 600
##XUNITS=Wavelength (nm)
##YUNITS=Logarithm epsilon
##XFACTOR=1.0
##YFACTOR=1.0
##FIRSTX=219.93
##LASTX=337.6
##FIRSTY=1.43
##MAXX=337.6
##MINX=219.93
##MAXY=1.605
##MINY=0.088
##NPOINTS=197
##$REF AUTHOR=Smith, E.D.; Thornsberry, W.L.
##$REF JOURNAL=J. Chem. Eng. Data.
##$REF VOLUME=15
##$REF PAGE=296
##$REF DATE=1970
##XYPOINTS=(XY..XY)
219.93,1.430
220.09,1.421
220.40,1.411
220.56,1.402
220.72,1.392
221.04,1.382
221.19,1.371
221.35,1.361
221.67,1.350
222.14,1.338
222.30,1.327
222.46,1.315
222.78,1.303
223.09,1.290
223.41,1.278
223.72,1.264
224.20,1.251
224.52,1.236
224.83,1.222
225.15,1.207
225.46,1.191
225.78,1.175
226.26,1.160
226.57,1.143
227.05,1.126
227.52,1.107
227.99,1.088
228.31,1.067
228.79,1.048
229.26,1.025
229.58,1.001
230.05,0.979
230.68,0.955
231.16,0.930
231.47,0.899
231.95,0.871
232.58,0.840
233.21,0.807
234.01,0.776
234.80,0.743
235.74,0.712
236.69,0.673
237.80,0.642
239.07,0.610
240.49,0.617
241.76,0.642
243.02,0.667
244.13,0.695
245.39,0.722
246.50,0.748
247.61,0.776
248.56,0.807
249.51,0.832
250.45,0.856
251.40,0.882
252.35,0.906
253.30,0.930
254.09,0.955
254.72,0.979
255.52,1.001
256.31,1.022
257.10,1.043
257.89,1.062
258.52,1.081
259.15,1.099
259.94,1.116
260.58,1.133
261.05,1.150
261.68,1.166
262.32,1.180
262.79,1.195
263.42,1.208
264.06,1.222
264.53,1.235
265.16,1.251
265.64,1.264
266.11,1.278
266.74,1.289
267.22,1.302
267.69,1.312
268.17,1.324
268.64,1.336
269.12,1.347
269.43,1.358
269.91,1.368
270.38,1.378
270.86,1.388
271.33,1.397
271.81,1.406
272.28,1.416
272.60,1.425
273.07,1.434
273.55,1.443
274.02,1.451
274.49,1.460
274.97,1.468
275.44,1.477
275.92,1.485
276.23,1.493
276.71,1.500
277.18,1.508
277.82,1.514
278.45,1.521
278.92,1.528
279.71,1.534
280.51,1.540
280.98,1.548
281.77,1.553
282.56,1.558
283.51,1.564
284.30,1.570
285.25,1.575
286.20,1.580
287.15,1.584
288.26,1.588
289.20,1.593
290.15,1.597
291.26,1.601
292.37,1.604
293.79,1.605
295.21,1.604
296.01,1.599
296.80,1.594
297.59,1.589
298.38,1.584
299.17,1.578
299.96,1.573
300.75,1.567
301.38,1.561
302.02,1.555
302.81,1.549
303.44,1.543
304.07,1.536
304.70,1.530
305.18,1.524
305.81,1.517
306.44,1.510
306.92,1.503
307.55,1.496
308.03,1.489
308.66,1.482
309.13,1.475
309.61,1.467
310.08,1.460
310.56,1.452
311.03,1.444
311.51,1.435
311.82,1.426
312.45,1.418
312.93,1.409
313.24,1.399
313.72,1.389
314.04,1.379
314.51,1.370
314.83,1.359
315.30,1.348
315.78,1.338
316.09,1.327
316.41,1.315
316.88,1.304
317.36,1.293
317.67,1.280
317.99,1.267
318.46,1.255
318.78,1.241
319.26,1.228
319.57,1.214
319.89,1.198
320.20,1.182
320.68,1.168
321.15,1.150
321.63,1.135
321.94,1.116
322.58,1.099
323.05,1.081
323.53,1.062
324.00,1.043
324.63,1.022
325.11,1.001
325.74,0.979
326.37,0.955
326.85,0.930
327.32,0.899
327.95,0.871
328.59,0.840
329.06,0.807
329.69,0.771
330.48,0.738
331.12,0.695
331.75,0.649
332.54,0.596
333.33,0.537
334.12,0.477
334.91,0.396
335.70,0.311
336.65,0.205
337.60,0.088
##END=
