##TITLE=(Z)-1-ethoxy-2-(ethylthio)ethene
##JCAMP-DX=4.24
##DATA TYPE=UV/VIS SPECTRUM
##ORIGIN=INSTITUTE OF ENERGY PROBLEMS OF CHEMICAL PHYSICS, RAS
##OWNER=INEP CP RAS, NIST OSRD
Collection (C) 2007 copyright by the U.S. Secretary of Commerce
on behalf of the United States of America. All rights reserved.
##CAS REGISTRY NO=51690-37-0
##MOLFORM=C6H12OS
##BP=64-66/14 mm
##SOURCE REFERENCE=RAS UV No. 23363
##$NIST SQUIB=1975TUR/PRO2099
##$NIST SOURCE=TYUGLMTE
##SPECTROMETER/DATA SYSTEM=Unicam SP 700
##XUNITS=Wavelength (nm)
##YUNITS=Logarithm epsilon
##XFACTOR=1.0
##YFACTOR=1.0
##FIRSTX=204.532
##LASTX=286.335
##FIRSTY=3.675
##MAXX=286.335
##MINX=204.532
##MAXY=3.775
##MINY=2.346
##NPOINTS=85
##$REF AUTHOR=Turecek, F.; Prochazka, M.
##$REF JOURNAL=Coll. Czech. Chem. Comm.
##$REF VOLUME=40
##$REF PAGE=2099
##$REF DATE=1975
##XYPOINTS=(XY..XY)
204.532,3.675
205.532,3.680
206.532,3.685
207.532,3.691
208.532,3.697
209.532,3.703
210.532,3.709
211.532,3.715
212.532,3.721
213.532,3.727
214.532,3.732
215.532,3.737
216.532,3.742
217.532,3.747
218.532,3.752
219.532,3.756
220.532,3.760
221.532,3.763
222.532,3.766
223.532,3.769
224.532,3.771
225.532,3.773
226.532,3.774
227.532,3.775
227.539,3.774
228.539,3.774
229.539,3.773
230.539,3.771
231.539,3.768
232.539,3.763
233.539,3.757
234.539,3.749
235.539,3.740
236.539,3.730
237.539,3.718
238.539,3.705
239.539,3.691
240.539,3.677
241.539,3.661
242.539,3.645
243.539,3.629
244.539,3.613
245.539,3.598
246.410,3.580
247.410,3.575
248.410,3.568
249.410,3.560
250.410,3.552
251.410,3.545
252.410,3.541
253.410,3.538
254.410,3.537
255.410,3.537
256.410,3.538
257.410,3.540
258.410,3.541
259.410,3.541
260.410,3.538
261.410,3.531
262.410,3.521
263.410,3.506
264.410,3.486
265.410,3.460
266.410,3.428
267.410,3.391
268.410,3.350
269.410,3.305
270.321,3.259
271.321,3.220
272.321,3.162
273.321,3.092
274.321,3.017
275.321,2.941
276.321,2.867
277.321,2.798
278.321,2.736
278.335,2.736
279.335,2.676
280.335,2.626
281.335,2.585
282.335,2.547
283.335,2.508
284.335,2.462
285.335,2.407
286.335,2.346
##END=
