##TITLE=2(3H)-Furanone, 3-acetyldihydro-
##JCAMP-DX=4.24
##DATA TYPE=UV/VIS SPECTRUM
##ORIGIN=INSTITUTE OF ENERGY PROBLEMS OF CHEMICAL PHYSICS, RAS
##OWNER=INEP CP RAS, NIST OSRD
Collection (C) 2007 copyright by the U.S. Secretary of Commerce
on behalf of the United States of America. All rights reserved.
##CAS REGISTRY NO=517-23-7
##MOLFORM=C6H8O3
##BP=107-108
##SOURCE REFERENCE=RAS UV No. 19120
##$NIST SQUIB=1968LAN301
##$NIST SOURCE=TYUGLMTE
##SPECTROMETER/DATA SYSTEM=Spektromom 201
##XUNITS=Wavelength (nm)
##YUNITS=Logarithm epsilon
##XFACTOR=1.0
##YFACTOR=1.0
##FIRSTX=207.21
##LASTX=373.49
##FIRSTY=2.656
##MAXX=373.49
##MINX=207.21
##MAXY=3.127
##MINY=0.265
##NPOINTS=169
##$REF AUTHOR=Lang (editor), L.
##$REF JOURNAL=Absorption Spectra in the Ultraviolet and Visible Region
##$REF VOLUME=10
##$REF PAGE=301
##$REF DATE=1968
##XYPOINTS=(XY..XY)
207.21,2.656
208.56,2.639
209.90,2.626
211.41,2.619
212.92,2.619
214.43,2.622
215.60,2.639
216.95,2.656
218.12,2.674
219.30,2.691
220.47,2.708
221.48,2.728
222.82,2.745
223.83,2.769
225.00,2.786
226.17,2.807
227.35,2.824
228.52,2.844
229.70,2.861
230.87,2.878
232.05,2.899
233.22,2.919
234.40,2.940
235.57,2.960
236.75,2.977
238.09,2.991
239.26,3.008
240.44,3.025
241.61,3.042
242.95,3.056
244.30,3.066
245.64,3.079
246.98,3.093
248.49,3.103
249.83,3.114
251.18,3.124
252.69,3.127
254.20,3.124
255.71,3.120
257.22,3.110
258.56,3.100
259.90,3.086
261.07,3.069
262.25,3.052
263.26,3.028
264.43,3.008
265.44,2.984
266.28,2.957
267.28,2.933
267.95,2.905
268.96,2.882
269.63,2.854
270.64,2.830
271.31,2.803
272.15,2.776
272.82,2.749
273.49,2.721
274.16,2.694
274.83,2.667
275.34,2.639
275.84,2.612
276.51,2.585
277.18,2.558
277.69,2.530
278.19,2.503
278.69,2.476
279.20,2.448
279.70,2.421
280.20,2.394
280.71,2.366
281.04,2.336
281.54,2.309
282.05,2.281
282.55,2.254
282.89,2.223
283.39,2.196
283.73,2.165
284.23,2.138
284.73,2.111
285.24,2.083
285.91,2.056
286.41,2.025
286.91,1.998
287.75,1.971
288.59,1.943
289.43,1.920
290.44,1.899
291.61,1.879
292.95,1.862
294.30,1.851
295.81,1.848
297.32,1.848
298.83,1.845
300.34,1.845
301.85,1.845
303.36,1.845
304.87,1.841
306.38,1.838
307.89,1.831
309.40,1.828
310.91,1.824
312.25,1.814
313.76,1.804
315.10,1.790
316.44,1.780
317.79,1.770
319.13,1.752
320.30,1.735
321.14,1.712
322.32,1.691
323.32,1.671
324.50,1.650
325.34,1.626
326.18,1.602
327.18,1.578
328.02,1.551
328.86,1.527
329.53,1.500
330.54,1.476
331.04,1.449
331.88,1.425
332.38,1.398
333.22,1.370
333.89,1.343
334.57,1.316
335.24,1.289
335.91,1.261
336.75,1.234
337.42,1.207
338.09,1.179
338.93,1.155
339.60,1.128
340.27,1.101
341.11,1.074
341.78,1.046
342.62,1.022
343.46,0.995
344.13,0.968
344.97,0.941
345.81,0.917
346.48,0.889
347.32,0.866
348.16,0.838
348.99,0.814
349.83,0.787
350.51,0.760
351.51,0.739
352.35,0.715
353.19,0.692
354.20,0.671
355.04,0.647
356.04,0.627
357.22,0.606
358.39,0.589
359.40,0.569
360.57,0.548
361.75,0.531
362.59,0.507
363.59,0.487
364.60,0.466
365.61,0.446
366.44,0.422
367.45,0.402
368.46,0.378
369.30,0.350
370.30,0.330
371.14,0.306
372.32,0.286
373.49,0.265
##END=
