##TITLE=3- hydroxy-1,3,5,7,9-oestrapentaen-17-one
##JCAMP-DX=4.24
##DATA TYPE=UV/VIS SPECTRUM
##ORIGIN=INSTITUTE OF ENERGY PROBLEMS OF CHEMICAL PHYSICS, RAS
##OWNER=INEP CP RAS, NIST OSRD
Collection (C) 2007 copyright by the U.S. Secretary of Commerce
on behalf of the United States of America. All rights reserved.
##CAS REGISTRY NO=517-09-9
##MOLFORM=C18H18O2
##MP=256-258
##SOURCE REFERENCE=RAS UV No. 22472
##$NIST SQUIB=1977RUL/1514
##$NIST SOURCE=TYUGLMTE
##SPECTROMETER/DATA SYSTEM=EPS-3
##XUNITS=Wavelength (nm)
##YUNITS=Logarithm epsilon
##XFACTOR=1.0
##YFACTOR=1.0
##FIRSTX=215.706
##LASTX=346.447
##FIRSTY=4.414
##MAXX=346.447
##MINX=215.706
##MAXY=4.794
##MINY=2.693
##NPOINTS=134
##$REF AUTHOR=Rulin, V.A.; et al.
##$REF JOURNAL=Zhur. Organ. Khim.
##$REF VOLUME=13
##$REF PAGE=1514
##$REF DATE=1977
##XYPOINTS=(XY..XY)
215.706,4.414
216.706,4.462
217.706,4.500
218.706,4.534
219.706,4.567
220.706,4.601
221.706,4.636
222.706,4.673
223.706,4.709
224.706,4.742
225.706,4.769
226.706,4.788
227.706,4.794
228.706,4.788
229.706,4.766
230.706,4.730
231.706,4.680
232.706,4.621
233.597,4.561
234.597,4.507
235.597,4.455
236.597,4.405
237.597,4.356
238.597,4.307
239.597,4.258
240.597,4.209
241.597,4.159
242.597,4.109
243.597,4.058
244.597,4.006
245.597,3.954
246.597,3.901
247.597,3.848
248.597,3.796
249.597,3.743
250.597,3.692
250.665,3.688
251.665,3.636
252.665,3.603
253.665,3.585
254.665,3.578
255.665,3.580
256.665,3.588
257.665,3.602
258.665,3.619
259.665,3.639
260.665,3.659
261.665,3.679
262.665,3.699
263.665,3.716
264.665,3.729
265.665,3.738
266.665,3.740
267.528,3.737
268.528,3.718
269.528,3.695
270.528,3.678
271.528,3.671
272.528,3.674
273.528,3.688
274.528,3.710
275.528,3.738
276.528,3.766
277.528,3.791
278.528,3.808
279.528,3.815
280.484,3.811
281.484,3.791
282.484,3.697
283.484,3.596
284.484,3.530
285.213,3.511
286.213,3.512
287.213,3.514
288.213,3.522
289.213,3.537
290.213,3.557
291.213,3.579
292.213,3.598
293.028,3.612
294.028,3.605
295.028,3.600
296.028,3.585
297.028,3.545
297.963,3.492
298.963,3.306
299.963,3.165
300.963,3.062
301.963,2.990
302.963,2.945
303.963,2.920
304.963,2.913
305.963,2.919
306.963,2.935
307.963,2.958
308.963,2.986
309.685,3.004
310.685,3.035
311.685,3.070
312.685,3.109
313.685,3.148
314.685,3.187
315.685,3.225
316.685,3.260
317.685,3.292
318.685,3.322
319.685,3.347
320.685,3.369
321.685,3.385
322.685,3.396
323.685,3.398
324.491,3.395
325.491,3.372
326.491,3.352
327.491,3.336
328.491,3.325
329.491,3.321
330.491,3.324
331.491,3.331
332.491,3.343
333.491,3.355
334.491,3.365
335.491,3.369
336.491,3.360
337.447,3.337
338.447,3.279
339.447,3.222
340.447,3.164
341.447,3.105
342.447,3.043
343.447,2.974
344.447,2.896
345.447,2.804
346.447,2.693
##END=
