##TITLE=1-chloro-4-[(4-methylphenyl)sulfonyl]benzene
##JCAMP-DX=4.24
##DATA TYPE=UV/VIS SPECTRUM
##ORIGIN=INSTITUTE OF ENERGY PROBLEMS OF CHEMICAL PHYSICS, RAS
##OWNER=INEP CP RAS, NIST OSRD
Collection (C) 2007 copyright by the U.S. Secretary of Commerce
on behalf of the United States of America. All rights reserved.
##CAS REGISTRY NO=5184-71-4
##MOLFORM=C13H11ClO2S
##SOURCE REFERENCE=RAS UV No. 23133
##$NIST SQUIB=1976LYS/2196
##$NIST SOURCE=TYUGLMTE
##SPECTROMETER/DATA SYSTEM=SF-4A
##XUNITS=Wavelength (nm)
##YUNITS=Logarithm epsilon
##XFACTOR=1.0
##YFACTOR=1.0
##FIRSTX=196.504
##LASTX=281.385
##FIRSTY=4.33
##MAXX=281.385
##MINX=196.504
##MAXY=4.691
##MINY=2.385
##NPOINTS=87
##$REF AUTHOR=Lysanov, V.A.; et al.
##$REF JOURNAL=Zhur. Organ. Khim.
##$REF VOLUME=12
##$REF PAGE=2196
##$REF DATE=1976
##XYPOINTS=(XY..XY)
196.504,4.330
196.646,4.371
197.646,4.522
198.646,4.618
199.646,4.671
200.646,4.691
201.646,4.687
202.646,4.665
203.646,4.632
204.646,4.591
205.646,4.546
206.646,4.500
207.646,4.454
207.707,4.452
208.707,4.402
209.707,4.360
210.707,4.324
211.707,4.290
212.707,4.255
213.707,4.220
214.707,4.182
216.543,4.129
217.543,4.115
218.543,4.110
219.543,4.111
220.543,4.114
221.543,4.119
222.543,4.121
223.543,4.120
224.543,4.113
225.543,4.102
226.543,4.086
227.543,4.068
228.543,4.049
229.543,4.034
230.543,4.023
231.543,4.021
232.543,4.028
233.543,4.046
234.543,4.071
235.543,4.099
236.604,4.129
237.617,4.149
238.631,4.169
239.644,4.189
240.606,4.216
241.606,4.241
242.606,4.263
243.606,4.282
244.606,4.297
245.606,4.308
246.606,4.314
247.606,4.315
248.606,4.311
249.606,4.301
250.606,4.286
251.606,4.265
252.606,4.239
253.606,4.209
254.606,4.174
255.496,4.138
256.496,4.102
257.496,4.056
258.496,4.008
259.496,3.963
260.496,3.923
261.496,3.886
262.496,3.846
263.496,3.795
264.460,3.723
265.460,3.650
266.460,3.576
267.460,3.506
268.460,3.441
269.460,3.383
270.440,3.335
271.440,3.287
272.440,3.247
273.440,3.211
274.440,3.176
275.440,3.137
276.440,3.086
277.440,3.013
278.440,2.907
279.440,2.752
280.385,2.552
281.385,2.385
##END=
