##TITLE=Cyclohept[fg]acenaphthylene,1,2-dihydro-
##JCAMP-DX=4.24
##DATA TYPE=UV/VIS SPECTRUM
##ORIGIN=INSTITUTE OF ENERGY PROBLEMS OF CHEMICAL PHYSICS, RAS
##OWNER=INEP CP RAS, NIST OSRD
Collection (C) 2007 copyright by the U.S. Secretary of Commerce
on behalf of the United States of America. All rights reserved.
##CAS REGISTRY NO=518-03-6
##MOLFORM=C16H12
##MP=118-120
##SOURCE REFERENCE=RAS UV No. 10033
##$NIST SQUIB=1951BOE/LIU2432
##$NIST SOURCE=TYUGLMTE
##SPECTROMETER/DATA SYSTEM=n.i.g.
##XUNITS=Wavelength (nm)
##YUNITS=Logarithm epsilon
##XFACTOR=1.0
##YFACTOR=1.0
##FIRSTX=252.35
##LASTX=591.53
##FIRSTY=3.956
##MAXX=591.53
##MINX=252.35
##MAXY=3.956
##MINY=1.629
##NPOINTS=143
##$REF AUTHOR=Boekelheide, V.; Liu, C.-T.
##$REF JOURNAL=J. Am. Chem. Soc.
##$REF VOLUME=73
##$REF PAGE=2432
##$REF DATE=1951
##XYPOINTS=(XY..XY)
252.35,3.956
253.29,3.897
254.23,3.838
255.17,3.779
256.12,3.720
257.06,3.661
258.47,3.609
259.88,3.550
262.23,3.504
266.47,3.484
270.70,3.504
274.46,3.523
277.76,3.556
280.25,3.583
282.87,3.614
285.28,3.622
289.52,3.609
292.81,3.569
294.06,3.571
295.13,3.585
296.59,3.591
298.54,3.584
300.97,3.546
303.16,3.517
306.92,3.484
311.09,3.489
314.92,3.523
317.62,3.553
321.51,3.596
324.80,3.628
328.01,3.671
330.91,3.707
333.74,3.746
336.99,3.786
340.32,3.818
344.56,3.812
347.38,3.851
348.86,3.882
350.58,3.910
353.02,3.936
353.62,3.937
354.28,3.933
355.04,3.926
356.16,3.915
357.26,3.897
357.92,3.885
358.68,3.868
359.61,3.851
361.96,3.805
364.31,3.759
365.13,3.740
366.09,3.725
367.14,3.720
367.98,3.720
368.68,3.728
370.13,3.751
371.37,3.753
373.41,3.740
374.49,3.720
376.22,3.667
377.49,3.609
378.90,3.556
380.78,3.504
384.07,3.464
385.48,3.412
386.90,3.360
388.31,3.307
389.72,3.248
391.13,3.189
392.54,3.130
393.62,3.070
394.38,3.016
395.22,2.955
395.83,2.894
396.30,2.835
396.77,2.776
397.35,2.714
398.19,2.658
399.13,2.599
401.07,2.547
403.83,2.507
407.59,2.475
411.36,2.442
415.12,2.416
419.35,2.403
423.59,2.403
427.65,2.414
431.12,2.442
434.41,2.475
438.64,2.481
442.88,2.468
446.64,2.435
450.87,2.422
455.11,2.422
458.87,2.455
462.16,2.488
465.44,2.504
469.69,2.501
473.45,2.468
476.75,2.429
480.04,2.396
483.33,2.363
487.57,2.357
491.33,2.376
493.36,2.392
495.09,2.409
498.39,2.442
502.15,2.462
506.38,2.455
509.68,2.416
512.03,2.370
514.38,2.324
516.26,2.272
518.62,2.226
520.97,2.180
525.20,2.160
528.97,2.180
532.72,2.210
534.61,2.222
536.96,2.232
539.28,2.225
541.20,2.213
544.58,2.178
547.31,2.134
549.66,2.081
552.02,2.029
554.37,1.983
556.72,1.931
559.07,1.878
560.95,1.826
563.18,1.776
565.66,1.728
568.20,1.686
569.76,1.672
572.24,1.669
574.19,1.676
576.32,1.689
578.41,1.707
580.24,1.714
582.53,1.711
584.48,1.701
587.97,1.667
591.53,1.629
##END=
