##TITLE=Octahydro-3,3-diphenyl-2H-indol-2-one
##JCAMP-DX=4.24
##DATA TYPE=UV/VIS SPECTRUM
##ORIGIN=INSTITUTE OF ENERGY PROBLEMS OF CHEMICAL PHYSICS, RAS
##OWNER=INEP CP RAS, NIST OSRD
Collection (C) 2007 copyright by the U.S. Secretary of Commerce
on behalf of the United States of America. All rights reserved.
##CAS REGISTRY NO=51945-45-0
##MOLFORM=C20H21NO
##MP=251-252
##SOURCE REFERENCE=RAS UV No. 23981
##$NIST SQUIB=1974PET/384
##$NIST SOURCE=TYUGLMTE
##SPECTROMETER/DATA SYSTEM=SF-4a
##XUNITS=Wavelength (nm)
##YUNITS=Logarithm epsilon
##XFACTOR=1.0
##YFACTOR=1.0
##FIRSTX=218.803
##LASTX=318.772
##FIRSTY=4.411
##MAXX=318.772
##MINX=218.803
##MAXY=4.412
##MINY=2.424
##NPOINTS=104
##$REF AUTHOR=Petyunin, P.A.; et al.
##$REF JOURNAL=Zhur. Organ. Khim.
##$REF VOLUME=10
##$REF PAGE=384
##$REF DATE=1974
##XYPOINTS=(XY..XY)
218.803,4.411
220.113,4.412
221.113,4.411
222.113,4.401
223.113,4.372
224.113,4.324
225.113,4.265
226.113,4.205
227.113,4.155
228.142,4.121
229.142,4.109
230.142,4.104
231.142,4.063
232.142,3.977
233.142,3.875
234.142,3.821
235.152,3.776
236.152,3.748
237.152,3.734
238.152,3.731
239.152,3.739
240.152,3.754
241.152,3.774
242.152,3.799
243.186,3.827
244.186,3.856
245.186,3.885
246.186,3.914
247.186,3.943
248.186,3.972
249.186,4.001
250.186,4.031
251.186,4.060
252.141,4.088
253.141,4.116
254.141,4.137
255.438,4.155
256.438,4.170
257.438,4.188
258.438,4.206
259.438,4.225
260.438,4.244
261.438,4.262
262.438,4.279
263.438,4.294
264.438,4.305
265.438,4.314
266.438,4.319
267.438,4.318
268.378,4.317
269.378,4.303
270.378,4.289
271.378,4.277
272.378,4.267
273.378,4.258
274.378,4.250
275.378,4.244
276.378,4.236
277.249,4.226
278.249,4.218
279.249,4.195
280.249,4.167
281.249,4.134
282.249,4.088
283.249,4.015
284.089,3.933
284.716,3.847
285.209,3.783
285.658,3.738
286.286,3.687
287.209,3.645
288.020,3.634
289.020,3.636
290.020,3.646
291.020,3.659
292.020,3.673
293.020,3.682
294.020,3.685
295.020,3.680
296.020,3.667
297.020,3.648
298.020,3.626
299.020,3.607
299.443,3.599
300.289,3.596
300.852,3.592
301.852,3.603
302.852,3.636
303.852,3.678
304.852,3.717
305.852,3.741
306.852,3.738
307.852,3.695
308.772,3.610
309.772,3.470
310.772,3.337
311.772,3.209
312.772,3.087
313.772,2.970
314.772,2.856
315.772,2.745
316.772,2.637
317.772,2.530
318.772,2.424
##END=
