##TITLE=Triphenylmethane
##JCAMP-DX=4.24
##DATA TYPE=UV/VIS SPECTRUM
##ORIGIN=INSTITUTE OF ENERGY PROBLEMS OF CHEMICAL PHYSICS, RAS
##OWNER=INEP CP RAS, NIST OSRD
Collection (C) 2007 copyright by the U.S. Secretary of Commerce
on behalf of the United States of America. All rights reserved.
##CAS REGISTRY NO=519-73-3
##MOLFORM=C19H16
##MP=94
##BP=359; 200(10)
##SOURCE REFERENCE=RAS UV No. 9007
##$NIST SQUIB=1966TIM/PERd10/71C
##$NIST SOURCE=TSGMTE
##SPECTROMETER/DATA SYSTEM=Unicam SP 700
##XUNITS=Wavelength (nm)
##YUNITS=Logarithm epsilon
##XFACTOR=1.000000
##YFACTOR=1.000000
##FIRSTX=279.2641
##LASTX=194.6291
##FIRSTY=1.17804
##MAXX=279.264
##MINX=194.629
##MAXY=4.87897
##MINY=1.17804
##NPOINTS=235
##$REF AUTHOR=Timmons, C.J.; Perkins, M.J.
##$REF TITLE=Triphenylmethane
##$REF BOOK TITLE=UV Atlas of Organic Compounds - Vol. 2
##$REF PAGE=D10/71
##$REF DATE=1966
##$REF PUBLISHER=Plenum Press
##$REF LOCATION=New York
##XYPOINTS=(XY..XY)
279.2641,1.178041
278.9940,1.229723
278.7489,1.278987
278.5525,1.321219
278.4287,1.351816
278.4010,1.366165
278.2511,1.389460
278.1801,1.390241
278.0742,1.393821
278.0514,1.389719
277.8915,1.426739
277.7549,1.387445
277.7549,1.387445
277.7329,1.383598
277.7089,1.459659
277.7065,1.379695
277.6712,1.375680
277.5267,1.492579
277.3448,1.525500
277.1633,1.558421
276.9822,1.591342
276.8014,1.624264
276.6211,1.657185
276.4413,1.690106
276.2620,1.723026
276.0833,1.755946
275.9051,1.788865
275.7274,1.821783
275.5504,1.854700
275.3741,1.887616
275.1984,1.920530
275.0234,1.953443
274.8491,1.986353
274.6756,2.019262
274.5029,2.052169
274.3309,2.085072
274.1598,2.117974
273.9896,2.150873
273.8203,2.183769
273.6518,2.216663
273.4843,2.249552
273.3178,2.282439
273.1523,2.315322
272.9877,2.348202
272.8243,2.381077
272.6619,2.413949
272.5006,2.446816
272.3404,2.479679
272.1813,2.512538
272.0235,2.545391
271.8668,2.578240
271.7113,2.611084
271.5571,2.643922
271.5571,2.643922
271.3750,2.673786
270.9110,2.722092
270.0190,2.756098
270.0190,2.756098
269.9486,2.768129
269.8783,2.780160
269.8080,2.792190
269.7948,2.756113
269.2465,2.741424
268.9677,2.725523
268.3117,2.710159
268.0693,2.702756
268.0021,2.707461
267.8648,2.710522
267.5402,2.714562
267.5402,2.714562
267.2502,2.740767
266.6908,2.760849
265.2137,2.772297
265.2137,2.772297
264.0289,2.875488
263.5428,2.914263
263.3319,2.921860
263.3319,2.921860
263.0646,2.921291
262.7939,2.920610
262.5158,2.919872
262.5158,2.919872
260.7551,2.877516
259.9198,2.858918
259.5915,2.850745
259.5915,2.850745
258.9253,2.840133
258.4349,2.833091
257.2223,2.831732
257.2223,2.831732
257.2053,2.833524
257.1845,2.835317
257.1562,2.837110
257.1562,2.837110
256.0250,2.842436
255.3567,2.838061
254.6327,2.822206
254.6327,2.822206
253.9848,2.789997
253.1080,2.751893
251.9357,2.722114
251.9357,2.722114
251.3021,2.720809
250.6717,2.719390
250.0444,2.717914
250.0444,2.717914
249.9149,2.711831
249.7035,2.704674
249.3826,2.697753
249.3826,2.697753
249.2557,2.686676
248.6808,2.653288
247.1773,2.568973
247.1773,2.568973
246.3590,2.542524
245.4974,2.525177
243.6845,2.510412
243.6845,2.510412
243.6641,2.508358
243.6370,2.506247
243.6065,2.504022
243.6065,2.504022
242.7711,2.482637
242.1377,2.447476
241.1409,2.417747
240.9618,2.416739
240.4302,2.418387
240.1735,2.420067
239.9702,2.423222
239.9702,2.423222
239.8643,2.429372
239.4509,2.446636
238.5936,2.486286
238.5936,2.486286
238.1787,2.496301
238.0460,2.506974
237.9914,2.519346
237.9914,2.519346
237.4507,2.554573
236.9528,2.589909
236.4931,2.625337
236.0672,2.660842
235.6708,2.696409
235.2995,2.732022
234.9491,2.767665
234.6156,2.803323
234.2946,2.838979
233.9824,2.874619
233.6747,2.910226
233.3677,2.945785
233.3677,2.945785
233.0443,2.996042
232.7412,3.043256
232.4570,3.087623
232.1903,3.129340
231.9397,3.168605
231.7038,3.205613
231.4811,3.240563
231.2704,3.273649
231.0703,3.305071
230.8794,3.335024
230.6964,3.363705
230.5201,3.391311
230.3490,3.418039
230.1820,3.444085
230.0177,3.469648
229.8548,3.494922
229.6921,3.520106
229.5283,3.545396
229.3622,3.570990
229.1924,3.597083
229.0178,3.623872
228.8371,3.651556
228.6490,3.680330
228.4525,3.710390
228.2462,3.741935
228.0289,3.775161
227.7995,3.810265
227.5568,3.847443
227.2997,3.886893
227.0270,3.928812
226.7376,3.973395
226.4303,4.020840
226.4303,4.020840
225.9311,4.079483
225.5889,4.117386
225.2443,4.151066
224.7398,4.197045
224.7398,4.197045
223.9241,4.214894
223.0789,4.226948
222.1393,4.241059
222.1393,4.241059
221.2787,4.253551
220.6373,4.273754
220.0216,4.293728
220.0216,4.293728
219.1814,4.298421
218.3449,4.303114
217.5093,4.307807
217.5093,4.307807
216.4210,4.340166
215.4656,4.374839
214.4762,4.407837
213.2920,4.435172
213.2920,4.435172
212.9891,4.436731
212.6844,4.438234
212.3754,4.439623
212.3754,4.439623
210.8502,4.478884
209.5319,4.518807
208.2403,4.560605
208.2403,4.560605
207.4728,4.591921
206.7183,4.623797
205.9674,4.655964
205.2109,4.688157
204.4399,4.720105
203.6459,4.751543
202.8205,4.782203
201.9558,4.811817
201.0440,4.840117
200.0779,4.866835
200.0779,4.866835
199.7446,4.870383
199.3560,4.875189
198.9371,4.878748
198.9371,4.878748
198.3499,4.878823
197.7639,4.878897
197.1770,4.878972
197.1770,4.878972
196.0121,4.872006
194.6291,4.862283
##END=
