##TITLE=5-acetyl-6-(cyanomethylene)-5,6-dihydrophenanthridine
##JCAMP-DX=4.24
##DATA TYPE=UV/VIS SPECTRUM
##ORIGIN=INSTITUTE OF ENERGY PROBLEMS OF CHEMICAL PHYSICS, RAS
##OWNER=INEP CP RAS, NIST OSRD
Collection (C) 2007 copyright by the U.S. Secretary of Commerce
on behalf of the United States of America. All rights reserved.
##CAS REGISTRY NO=51902-26-2
##MOLFORM=C17H12N2O
##MP=214-215
##SOURCE REFERENCE=RAS UV No. 23738
##$NIST SQUIB=1974GRI/1110
##$NIST SOURCE=TYUGLMTE
##SPECTROMETER/DATA SYSTEM=unknown
##XUNITS=Wavelength (nm)
##YUNITS=Logarithm epsilon
##XFACTOR=1.0
##YFACTOR=1.0
##FIRSTX=375.8
##LASTX=579.168
##FIRSTY=3.84
##MAXX=579.168
##MINX=375.8
##MAXY=4.572
##MINY=3.519
##NPOINTS=188
##$REF AUTHOR=Grishina, Ye.V.; et al.
##$REF JOURNAL=Khim. Geterosikl. Soedin.
##$REF PAGE=1110
##$REF DATE=1974
##XYPOINTS=(XY..XY)
375.800,3.840
376.120,3.865
377.120,3.941
378.120,4.014
379.120,4.082
380.120,4.145
381.120,4.200
381.878,4.235
382.878,4.275
383.878,4.304
384.878,4.324
385.878,4.336
386.878,4.340
387.878,4.338
388.878,4.330
389.878,4.318
390.878,4.303
391.551,4.290
392.475,4.271
393.475,4.250
394.475,4.234
395.475,4.223
396.475,4.217
397.475,4.214
398.475,4.215
399.475,4.219
400.475,4.226
401.475,4.234
402.475,4.245
403.631,4.259
404.631,4.269
405.631,4.283
406.631,4.297
407.631,4.307
408.631,4.309
409.631,4.302
410.631,4.287
411.631,4.265
412.631,4.239
413.615,4.212
414.875,4.182
416.136,4.149
417.396,4.124
418.667,4.093
419.667,4.075
420.667,4.061
421.667,4.051
422.667,4.042
423.667,4.035
424.667,4.029
425.667,4.022
426.667,4.014
427.667,4.005
428.667,3.994
429.667,3.980
430.667,3.965
431.667,3.947
432.667,3.926
433.667,3.903
434.667,3.878
435.667,3.851
436.667,3.822
437.667,3.792
438.667,3.762
439.667,3.732
440.667,3.704
441.667,3.677
442.667,3.654
443.667,3.634
445.127,3.602
446.387,3.569
447.648,3.540
448.908,3.523
450.169,3.519
451.429,3.519
452.690,3.523
453.950,3.540
455.246,3.567
456.471,3.594
457.732,3.619
458.992,3.644
460.253,3.669
461.229,3.685
462.774,3.690
464.034,3.673
465.295,3.657
466.555,3.648
467.816,3.640
469.076,3.631
470.307,3.629
471.597,3.636
472.858,3.648
474.118,3.657
475.379,3.673
476.639,3.686
477.900,3.698
479.160,3.690
480.416,3.673
481.448,3.654
482.892,3.637
484.202,3.623
485.463,3.619
486.723,3.631
488.050,3.652
489.494,3.683
490.525,3.708
491.358,3.727
492.183,3.746
493.215,3.775
494.659,3.804
495.897,3.829
497.135,3.854
498.068,3.878
499.404,3.900
500.642,3.925
501.880,3.946
503.110,3.961
504.370,3.965
505.631,3.970
507.038,3.966
508.276,3.962
509.412,3.957
510.673,3.944
511.783,3.933
513.194,3.928
514.454,3.940
515.715,3.965
517.147,4.008
518.236,4.036
519.496,4.070
520.337,4.095
522.017,4.141
523.278,4.170
524.368,4.198
525.812,4.210
527.059,4.207
528.320,4.199
529.580,4.191
530.841,4.178
532.101,4.166
533.362,4.153
534.897,4.160
535.883,4.178
536.741,4.205
537.432,4.222
538.432,4.246
539.432,4.269
540.432,4.291
541.432,4.311
542.432,4.329
543.432,4.345
544.432,4.360
545.432,4.375
546.432,4.392
547.432,4.413
548.432,4.439
548.981,4.459
549.475,4.477
550.475,4.507
551.475,4.528
552.475,4.543
553.475,4.554
554.475,4.562
555.475,4.568
556.475,4.571
557.475,4.572
558.475,4.570
559.475,4.562
560.475,4.549
561.475,4.526
561.933,4.512
563.168,4.491
564.168,4.476
565.168,4.459
566.168,4.440
567.168,4.420
568.168,4.402
569.168,4.385
570.168,4.371
571.168,4.360
572.168,4.352
573.168,4.346
574.168,4.343
575.168,4.342
576.168,4.342
577.168,4.341
578.168,4.339
579.168,4.334
##END=
