##TITLE=9-methyl-3-(methylthio)-9H-1,2,4-triazino[6,5-b]indole
##JCAMP-DX=4.24
##DATA TYPE=UV/VIS SPECTRUM
##ORIGIN=INSTITUTE OF ENERGY PROBLEMS OF CHEMICAL PHYSICS, RAS
##OWNER=INEP CP RAS, NIST OSRD
Collection (C) 2007 copyright by the U.S. Secretary of Commerce
on behalf of the United States of America. All rights reserved.
##CAS REGISTRY NO=51972-86-2
##MOLFORM=C11H10N4S
##MP=193.5
##SOURCE REFERENCE=RAS UV No. 23917
##$NIST SQUIB=1974TOM/103
##$NIST SOURCE=TYUGLMTE
##SPECTROMETER/DATA SYSTEM=SF-8
##XUNITS=Wavelength (nm)
##YUNITS=Logarithm epsilon
##XFACTOR=1.0
##YFACTOR=1.0
##FIRSTX=263.218
##LASTX=455.929
##FIRSTY=4.523
##MAXX=455.929
##MINX=263.218
##MAXY=4.572
##MINY=2.774
##NPOINTS=195
##$REF AUTHOR=Tomchin, A.B.; et al.
##$REF JOURNAL=Zhur. Organ. Khim.
##$REF VOLUME=10
##$REF PAGE=103
##$REF DATE=1974
##XYPOINTS=(XY..XY)
263.218,4.523
264.218,4.537
265.218,4.546
266.218,4.554
267.218,4.561
268.218,4.566
269.218,4.570
270.218,4.572
271.218,4.570
272.218,4.564
273.218,4.551
274.218,4.532
275.218,4.506
276.218,4.471
277.218,4.429
278.218,4.379
279.218,4.324
280.218,4.267
281.218,4.210
282.218,4.159
282.935,4.131
283.935,4.102
284.935,4.071
285.935,4.040
286.935,4.010
287.935,3.981
288.935,3.955
289.935,3.931
290.935,3.911
291.935,3.893
292.935,3.877
293.935,3.864
294.935,3.853
295.935,3.843
296.935,3.834
297.935,3.825
298.935,3.816
299.935,3.806
300.935,3.794
301.935,3.780
302.935,3.763
303.935,3.743
304.935,3.719
305.685,3.704
306.685,3.667
307.685,3.643
308.685,3.628
309.685,3.619
310.685,3.614
311.685,3.612
312.685,3.612
313.685,3.613
314.685,3.618
315.685,3.625
316.685,3.635
317.685,3.650
318.685,3.669
319.685,3.692
320.685,3.718
321.843,3.742
322.784,3.767
323.724,3.792
324.582,3.805
325.582,3.818
326.582,3.828
327.582,3.830
328.582,3.822
329.582,3.804
330.582,3.777
331.582,3.745
332.582,3.711
333.582,3.680
334.582,3.655
335.582,3.640
336.582,3.635
337.582,3.640
338.582,3.650
339.582,3.659
340.962,3.651
341.962,3.639
342.962,3.631
343.962,3.624
344.962,3.620
345.962,3.615
346.962,3.611
347.962,3.606
348.962,3.600
349.962,3.591
350.962,3.580
351.962,3.566
352.962,3.549
353.962,3.529
354.962,3.506
355.962,3.481
356.962,3.454
357.962,3.425
358.962,3.396
359.962,3.366
360.962,3.338
361.962,3.311
362.962,3.287
363.962,3.266
364.962,3.249
365.962,3.235
366.962,3.225
367.962,3.219
368.753,3.220
369.753,3.211
370.753,3.204
371.753,3.199
372.753,3.195
373.753,3.192
374.753,3.191
375.753,3.190
376.753,3.190
377.753,3.191
378.753,3.193
379.753,3.194
380.753,3.197
381.753,3.199
382.753,3.202
383.753,3.205
384.753,3.208
385.753,3.212
386.753,3.215
387.753,3.219
388.753,3.222
389.753,3.226
390.753,3.230
391.753,3.234
392.753,3.237
393.753,3.241
394.753,3.245
395.753,3.249
396.753,3.253
397.753,3.257
398.753,3.262
399.753,3.266
400.753,3.270
401.753,3.274
402.753,3.278
403.753,3.282
404.753,3.286
405.753,3.290
406.753,3.294
407.753,3.298
408.753,3.301
409.753,3.304
410.753,3.308
411.753,3.311
412.753,3.313
413.753,3.315
414.753,3.317
415.753,3.319
416.753,3.320
417.753,3.321
418.753,3.321
419.753,3.321
420.753,3.320
421.753,3.319
422.753,3.317
423.753,3.315
424.753,3.312
425.753,3.309
426.753,3.306
427.753,3.302
427.929,3.300
428.929,3.299
429.929,3.295
430.929,3.290
431.929,3.282
432.929,3.272
433.929,3.260
434.929,3.247
435.929,3.232
436.929,3.215
437.929,3.197
438.929,3.177
439.929,3.156
440.929,3.135
441.929,3.112
442.929,3.088
443.929,3.064
444.929,3.039
445.929,3.014
446.929,2.988
447.929,2.963
448.929,2.937
449.929,2.912
450.929,2.887
451.929,2.862
452.929,2.839
453.929,2.816
454.929,2.794
455.929,2.774
##END=
