##TITLE=1,2,4,10-tetrahydro-1,6-dimethyl-2-phenylpyrazolo[3,4-c][1,5]benzoxazepin-3-one
##JCAMP-DX=4.24
##DATA TYPE=UV/VIS SPECTRUM
##ORIGIN=INSTITUTE OF ENERGY PROBLEMS OF CHEMICAL PHYSICS, RAS
##OWNER=INEP CP RAS, NIST OSRD
Collection (C) 2007 copyright by the U.S. Secretary of Commerce
on behalf of the United States of America. All rights reserved.
##CAS REGISTRY NO=52043-95-5
##MOLFORM=C18H17N3O2
##MP=224-227
##SOURCE REFERENCE=RAS UV No. 23964
##$NIST SQUIB=1974DAV/2932
##$NIST SOURCE=TYUGLMTE
##SPECTROMETER/DATA SYSTEM=Cary 14
##XUNITS=Wavelength (nm)
##YUNITS=Logarithm epsilon
##XFACTOR=1.0
##YFACTOR=1.0
##FIRSTX=223.96
##LASTX=351.919
##FIRSTY=4.191
##MAXX=351.919
##MINX=223.96
##MAXY=4.225
##MINY=3.178
##NPOINTS=119
##$REF AUTHOR=Dave, V.; et al.
##$REF JOURNAL=Can.J.Chem.
##$REF VOLUME=52
##$REF PAGE=2932
##$REF DATE=1974
##XYPOINTS=(XY..XY)
223.960,4.191
224.960,4.182
225.960,4.175
226.960,4.170
227.960,4.167
228.960,4.166
229.960,4.168
230.960,4.171
231.960,4.176
232.960,4.183
233.960,4.190
234.960,4.198
235.960,4.206
236.960,4.213
237.960,4.218
238.960,4.222
239.960,4.225
240.960,4.225
241.960,4.223
242.960,4.220
243.217,4.219
244.217,4.214
245.217,4.208
246.217,4.203
247.217,4.198
248.217,4.196
249.217,4.196
250.217,4.198
251.217,4.202
252.217,4.206
253.217,4.211
254.217,4.214
255.217,4.216
256.217,4.217
257.217,4.215
258.217,4.212
259.217,4.208
259.852,4.205
260.852,4.198
261.852,4.190
262.852,4.181
263.852,4.171
264.852,4.160
265.852,4.147
266.852,4.133
267.852,4.119
268.852,4.103
269.852,4.085
270.852,4.067
271.852,4.047
272.852,4.025
273.852,4.003
274.852,3.979
275.043,3.972
276.043,3.949
277.043,3.925
278.043,3.901
279.043,3.877
280.043,3.854
281.043,3.832
282.043,3.811
283.043,3.791
284.043,3.773
285.043,3.756
286.043,3.742
287.043,3.729
288.043,3.717
289.043,3.708
290.043,3.701
291.043,3.695
292.043,3.691
293.043,3.689
294.043,3.688
295.043,3.689
296.043,3.691
297.043,3.695
298.043,3.699
299.043,3.704
300.043,3.710
301.043,3.717
302.043,3.724
303.043,3.731
304.043,3.739
305.043,3.746
305.316,3.748
306.816,3.760
308.316,3.770
309.816,3.780
311.316,3.789
312.816,3.796
314.316,3.802
315.816,3.806
317.316,3.808
318.816,3.808
320.316,3.806
321.816,3.802
323.316,3.797
324.816,3.789
326.316,3.780
327.816,3.769
329.316,3.757
330.816,3.742
332.316,3.725
333.816,3.706
335.316,3.684
336.816,3.659
338.316,3.630
339.816,3.596
341.316,3.557
342.816,3.510
344.316,3.456
344.919,3.432
345.919,3.396
346.919,3.364
347.919,3.333
348.919,3.304
349.919,3.271
350.919,3.231
351.919,3.178
##END=
