##TITLE=N-Phenylphthalic acid imide
##JCAMP-DX=4.24
##DATA TYPE=UV/VIS SPECTRUM
##ORIGIN=INSTITUTE OF ENERGY PROBLEMS OF CHEMICAL PHYSICS, RAS
##OWNER=INEP CP RAS, NIST OSRD
Collection (C) 2007 copyright by the U.S. Secretary of Commerce
on behalf of the United States of America. All rights reserved.
##CAS REGISTRY NO=520-03-6
##MOLFORM=C14H9NO2
##MP=210
##BP=sub.
##SOURCE REFERENCE=RAS UV No. 20250
##$NIST SQUIB=1969BOL/435
##$NIST SOURCE=TYUGLMTE
##SPECTROMETER/DATA SYSTEM=unknown
##XUNITS=Wavelength (nm)
##YUNITS=Logarithm epsilon
##XFACTOR=1.0
##YFACTOR=1.0
##FIRSTX=217.61
##LASTX=352.19
##FIRSTY=4.55
##MAXX=352.19
##MINX=217.61
##MAXY=4.55
##MINY=1.87
##NPOINTS=128
##$REF AUTHOR=Bolshakov, G.F.; et al.
##$REF JOURNAL=Ultraviolet Spectra og Heteroorganic Compounds
##$REF PAGE=435
##$REF DATE=1969
##XYPOINTS=(XY..XY)
217.61,4.550
218.94,4.534
220.44,4.525
221.93,4.513
223.43,4.508
224.76,4.496
226.25,4.492
227.75,4.487
229.24,4.479
230.74,4.471
232.07,4.458
233.56,4.450
234.89,4.433
236.22,4.412
237.55,4.399
238.88,4.378
240.21,4.357
241.37,4.332
242.70,4.307
243.86,4.286
244.86,4.261
245.86,4.235
247.02,4.210
247.85,4.181
248.85,4.151
249.84,4.122
250.67,4.088
251.51,4.059
252.34,4.030
253.17,3.996
254.00,3.967
254.83,3.933
255.49,3.899
256.32,3.870
256.99,3.836
257.49,3.803
258.32,3.773
258.98,3.740
259.48,3.706
259.98,3.672
260.64,3.639
261.14,3.605
261.81,3.572
262.31,3.538
262.80,3.504
263.30,3.467
263.97,3.433
264.63,3.399
265.30,3.366
266.13,3.336
266.63,3.303
267.46,3.273
268.29,3.240
268.95,3.206
269.95,3.177
270.94,3.152
272.11,3.126
273.44,3.110
274.93,3.101
276.43,3.101
277.92,3.101
279.25,3.114
280.58,3.126
281.91,3.147
283.24,3.160
284.57,3.177
285.90,3.194
287.06,3.215
288.56,3.223
289.89,3.236
291.38,3.248
292.88,3.257
294.37,3.265
295.87,3.257
297.36,3.257
298.86,3.244
300.35,3.231
301.68,3.219
303.01,3.198
304.34,3.177
305.67,3.156
306.83,3.131
307.83,3.105
308.61,3.081
309.46,3.045
310.32,3.017
311.15,2.988
311.98,2.954
312.65,2.921
313.26,2.891
313.98,2.853
314.64,2.820
315.14,2.786
315.80,2.752
316.64,2.719
317.47,2.685
318.30,2.656
319.13,2.626
320.12,2.597
321.12,2.563
322.12,2.534
323.28,2.509
324.11,2.479
325.28,2.458
326.44,2.433
327.60,2.408
328.60,2.383
329.76,2.358
330.92,2.332
332.09,2.311
333.25,2.286
334.41,2.261
335.58,2.240
336.74,2.219
338.07,2.198
339.23,2.177
340.39,2.156
341.56,2.131
342.72,2.106
343.72,2.080
344.88,2.055
346.04,2.030
347.04,2.005
348.04,1.975
349.20,1.950
350.20,1.925
351.19,1.895
352.19,1.870
##END=
