##TITLE=2,3-dihydro-2-thioxo-4(1H)-pteridinone
##JCAMP-DX=4.24
##DATA TYPE=UV/VIS SPECTRUM
##ORIGIN=INSTITUTE OF ENERGY PROBLEMS OF CHEMICAL PHYSICS, RAS
##OWNER=INEP CP RAS, NIST OSRD
Collection (C) 2007 copyright by the U.S. Secretary of Commerce
on behalf of the United States of America. All rights reserved.
##CAS REGISTRY NO=52023-48-0
##MOLFORM=C6H4N4OS
##MP=>350
##SOURCE REFERENCE=RAS UV No. 23569
##$NIST SQUIB=1974SCH/PFL3377
##$NIST SOURCE=TYUGLMTE
##SPECTROMETER/DATA SYSTEM=Cary 14 PM-50
##XUNITS=Wavelength (nm)
##YUNITS=Logarithm epsilon
##XFACTOR=1.0
##YFACTOR=1.0
##FIRSTX=221.315
##LASTX=411.329
##FIRSTY=4.025
##MAXX=411.329
##MINX=221.315
##MAXY=4.363
##MINY=3.188
##NPOINTS=197
##$REF AUTHOR=Schneider, H.-J.; Pfleiderer, W.
##$REF JOURNAL=Chem. Ber.
##$REF VOLUME=107
##$REF PAGE=3377
##$REF DATE=1974
##XYPOINTS=(XY..XY)
221.315,4.025
221.568,4.025
221.822,4.025
221.913,4.025
222.913,4.025
223.913,4.022
224.913,4.017
225.913,4.010
226.913,4.002
227.913,3.993
228.913,3.983
229.913,3.971
230.913,3.958
231.913,3.944
232.913,3.929
233.913,3.914
234.913,3.901
235.913,3.893
236.571,3.889
237.571,3.893
238.571,3.892
239.571,3.887
240.571,3.880
241.571,3.872
242.571,3.862
243.571,3.850
244.571,3.836
245.571,3.820
246.571,3.801
247.571,3.780
248.571,3.756
249.571,3.729
250.571,3.702
251.529,3.675
252.529,3.651
253.529,3.632
254.529,3.619
255.529,3.610
256.529,3.604
257.529,3.601
258.529,3.601
259.529,3.603
260.529,3.607
261.529,3.612
262.529,3.619
263.529,3.627
264.529,3.637
265.529,3.648
266.529,3.660
267.529,3.673
268.529,3.688
269.529,3.705
270.529,3.722
271.529,3.741
272.529,3.761
273.529,3.782
274.265,3.797
275.265,3.818
276.265,3.838
277.265,3.857
278.265,3.875
279.265,3.893
280.265,3.911
281.265,3.929
282.265,3.947
283.265,3.965
284.265,3.984
285.265,4.003
286.265,4.023
287.265,4.042
288.265,4.062
289.265,4.082
290.265,4.101
291.265,4.121
292.265,4.141
293.265,4.161
294.265,4.181
295.265,4.201
296.265,4.223
296.402,4.230
297.402,4.248
298.402,4.266
299.402,4.285
300.402,4.303
301.402,4.319
302.402,4.334
303.402,4.346
304.402,4.355
305.402,4.361
306.402,4.363
307.402,4.362
308.402,4.356
309.402,4.347
310.402,4.333
311.402,4.315
312.402,4.293
313.402,4.268
314.402,4.239
315.402,4.208
316.402,4.175
317.402,4.140
318.402,4.105
319.402,4.071
320.402,4.038
320.634,4.031
321.634,3.999
322.634,3.968
323.634,3.938
324.634,3.906
325.634,3.872
326.634,3.836
327.634,3.800
328.634,3.764
329.634,3.732
330.634,3.703
331.634,3.680
332.634,3.663
333.498,3.650
334.498,3.648
335.498,3.647
336.498,3.646
337.498,3.646
338.498,3.646
339.498,3.648
340.498,3.650
341.498,3.653
342.498,3.656
343.498,3.660
344.498,3.664
345.498,3.669
346.498,3.675
347.498,3.680
348.498,3.686
349.498,3.693
350.498,3.700
351.498,3.706
352.498,3.713
353.498,3.720
354.498,3.727
355.498,3.734
356.498,3.741
357.498,3.747
358.498,3.753
359.498,3.759
360.498,3.764
361.498,3.768
362.498,3.772
363.498,3.776
364.498,3.778
365.498,3.780
366.498,3.780
367.498,3.780
368.498,3.779
369.498,3.776
370.498,3.772
371.191,3.769
372.191,3.763
373.191,3.757
374.191,3.751
375.191,3.745
376.191,3.738
377.191,3.731
378.191,3.723
379.191,3.715
380.191,3.706
381.191,3.697
382.191,3.687
383.191,3.677
384.191,3.666
385.191,3.655
386.191,3.643
387.191,3.631
388.191,3.618
389.191,3.605
390.191,3.591
391.191,3.577
392.191,3.562
393.191,3.547
393.329,3.541
394.329,3.529
395.329,3.517
396.329,3.505
397.329,3.492
398.329,3.479
399.329,3.465
400.329,3.450
401.329,3.434
402.329,3.417
403.329,3.398
404.329,3.378
405.329,3.357
406.329,3.334
407.329,3.309
408.329,3.282
409.329,3.253
410.329,3.222
411.329,3.188
##END=
