##TITLE=N-(3-Methoxyphenyl)-2-furancarboxamide
##JCAMP-DX=4.24
##DATA TYPE=UV/VIS SPECTRUM
##ORIGIN=INSTITUTE OF ENERGY PROBLEMS OF CHEMICAL PHYSICS, RAS
##OWNER=INEP CP RAS, NIST OSRD
Collection (C) 2007 copyright by the U.S. Secretary of Commerce
on behalf of the United States of America. All rights reserved.
##CAS REGISTRY NO=52109-84-9
##MOLFORM=C12H11NO3
##MP=168
##SOURCE REFERENCE=RAS UV No. 22062
##$NIST SQUIB=1980ALB/349
##$NIST SOURCE=TYUGLMTE
##SPECTROMETER/DATA SYSTEM=Hitachi-Perkin-Elmer EPS-3T
##XUNITS=Wavelength (nm)
##YUNITS=Logarithm epsilon
##XFACTOR=1.0
##YFACTOR=1.0
##FIRSTX=210.469
##LASTX=296.154
##FIRSTY=4.362
##MAXX=296.154
##MINX=210.469
##MAXY=4.362
##MINY=2.858
##NPOINTS=92
##$REF AUTHOR=Alberghina, G.; et al.
##$REF JOURNAL=Spectrochim. Acta
##$REF VOLUME=36 A
##$REF PAGE=349
##$REF DATE=1980
##XYPOINTS=(XY..XY)
210.469,4.362
210.650,4.362
210.816,4.355
211.816,4.331
212.816,4.309
213.816,4.287
214.816,4.264
215.816,4.239
216.816,4.210
217.816,4.179
218.816,4.147
219.816,4.114
220.816,4.081
221.816,4.049
222.816,4.020
223.816,3.993
224.816,3.971
225.816,3.952
226.816,3.937
227.816,3.925
228.816,3.917
229.816,3.910
230.816,3.905
231.816,3.901
232.816,3.896
233.816,3.891
234.816,3.886
235.816,3.881
236.565,3.883
237.641,3.883
238.717,3.883
239.741,3.884
240.741,3.875
241.741,3.863
242.741,3.847
243.741,3.826
244.741,3.797
245.741,3.756
246.741,3.701
247.741,3.631
248.741,3.544
249.644,3.454
250.644,3.355
251.644,3.280
252.644,3.224
253.644,3.182
254.644,3.152
255.644,3.131
256.644,3.118
257.644,3.113
258.644,3.115
259.644,3.124
260.644,3.140
261.644,3.160
262.644,3.184
263.718,3.209
264.440,3.227
265.131,3.246
266.131,3.273
267.131,3.301
268.131,3.325
269.131,3.347
270.131,3.367
271.131,3.386
272.131,3.401
273.131,3.407
273.825,3.394
274.363,3.381
275.089,3.379
275.843,3.386
276.534,3.395
277.256,3.403
277.978,3.399
278.700,3.388
279.422,3.363
280.012,3.329
281.154,3.277
282.154,3.218
283.154,3.170
284.154,3.132
285.154,3.103
286.154,3.082
287.154,3.066
288.154,3.054
289.154,3.042
290.154,3.029
291.154,3.012
292.154,2.991
293.154,2.965
294.154,2.933
295.154,2.897
296.154,2.858
##END=
