##TITLE=N-(4-Chlorophenyl)-3-furancarboxamide
##JCAMP-DX=4.24
##DATA TYPE=UV/VIS SPECTRUM
##ORIGIN=INSTITUTE OF ENERGY PROBLEMS OF CHEMICAL PHYSICS, RAS
##OWNER=INEP CP RAS, NIST OSRD
Collection (C) 2007 copyright by the U.S. Secretary of Commerce
on behalf of the United States of America. All rights reserved.
##CAS REGISTRY NO=52109-91-8
##MOLFORM=C11H8ClNO2
##MP=152
##SOURCE REFERENCE=RAS UV No. 22061
##$NIST SQUIB=1980ALB/349
##$NIST SOURCE=TYUGLMTE
##SPECTROMETER/DATA SYSTEM=Hitachi-Perkin-Elmer EPS-3T
##XUNITS=Wavelength (nm)
##YUNITS=Logarithm epsilon
##XFACTOR=1.0
##YFACTOR=1.0
##FIRSTX=211.397
##LASTX=297.43
##FIRSTY=4.174
##MAXX=297.43
##MINX=211.397
##MAXY=4.207
##MINY=3.528
##NPOINTS=86
##$REF AUTHOR=Alberghina, G.; et al.
##$REF JOURNAL=Spectrochim. Acta
##$REF VOLUME=36 A
##$REF PAGE=349
##$REF DATE=1980
##XYPOINTS=(XY..XY)
211.397,4.174
212.397,4.105
213.397,4.039
214.397,3.980
215.397,3.926
216.397,3.879
217.397,3.840
218.397,3.808
219.397,3.783
220.397,3.765
221.397,3.754
222.397,3.748
223.397,3.746
224.397,3.748
225.397,3.753
226.397,3.760
227.397,3.768
228.397,3.775
229.397,3.783
230.397,3.790
231.397,3.797
232.416,3.806
233.415,3.817
234.430,3.829
235.430,3.845
236.430,3.860
237.430,3.877
238.430,3.893
239.430,3.910
240.430,3.926
241.430,3.942
242.430,3.958
243.430,3.973
244.430,3.989
245.430,4.004
246.430,4.018
247.430,4.033
248.430,4.047
249.430,4.061
250.430,4.074
251.430,4.087
252.430,4.100
253.611,4.115
254.611,4.126
255.611,4.137
256.611,4.147
257.611,4.157
258.611,4.167
259.611,4.176
260.611,4.184
261.611,4.191
262.611,4.197
263.611,4.202
264.611,4.205
265.611,4.207
266.611,4.207
267.611,4.205
268.611,4.202
269.611,4.197
270.611,4.190
271.611,4.182
272.611,4.173
273.611,4.163
274.611,4.151
275.611,4.139
276.611,4.126
277.611,4.113
278.611,4.099
280.430,4.070
281.430,4.053
282.430,4.034
283.430,4.015
284.430,3.994
285.430,3.973
286.430,3.949
287.430,3.924
288.430,3.897
289.430,3.868
290.430,3.837
291.430,3.802
292.430,3.765
293.430,3.725
294.430,3.681
295.430,3.633
296.430,3.582
297.430,3.528
##END=
