##TITLE=9,10-Dibromoanthracene
##JCAMP-DX=4.24
##DATA TYPE=UV/VIS SPECTRUM
##ORIGIN=INSTITUTE OF ENERGY PROBLEMS OF CHEMICAL PHYSICS, RAS
##OWNER=INEP CP RAS, NIST OSRD
Collection (C) 2007 copyright by the U.S. Secretary of Commerce
on behalf of the United States of America. All rights reserved.
##CAS REGISTRY NO=523-27-3
##MOLFORM=C14H8Br2
##MP=226
##BP=sub
##SOURCE REFERENCE=RAS UV No. 9057
##$NIST SQUIB=1967GAZ/MUNe2/2C
##$NIST SOURCE=TSGMTE
##SPECTROMETER/DATA SYSTEM=Zeiss PMQ II
##XUNITS=Wavelength (nm)
##YUNITS=Logarithm epsilon
##XFACTOR=1.000000
##YFACTOR=1.000000
##FIRSTX=417.3310
##LASTX=277.4402
##FIRSTY=2.67839
##MAXX=417.331
##MINX=277.44
##MAXY=4.07649
##MINY=2.30015
##NPOINTS=1000
##$REF AUTHOR=Gazis, E.; Munchen, T.H.
##$REF TITLE=9,10-Dibromoanthracene
##$REF BOOK TITLE=UV Atlas of Organic Compounds - Vol. 3
##$REF PAGE=E2/2
##$REF DATE=1967
##$REF PUBLISHER=Plenum Press
##$REF LOCATION=New York
##XYPOINTS=(XY..XY)
417.3310,2.678389
416.9486,2.724501
416.9291,2.680410
416.6134,2.774896
416.5921,2.726774
416.2789,2.825542
416.2575,2.777168
415.8993,2.873670
415.8790,2.827563
415.5743,2.943212
415.5446,2.875942
415.2413,2.993607
415.2200,2.945233
414.8692,3.054584
414.8433,2.995628
414.5327,3.094396
414.5162,3.056604
414.2052,3.153357
414.1804,3.096669
413.8735,3.201736
413.8533,3.155378
413.4993,3.252131
413.4782,3.203757
413.1688,3.300510
413.1486,3.254152
412.8405,3.352920
412.8186,3.302530
412.4673,3.401299
412.4472,3.355193
412.1393,3.451694
412.1183,3.403320
411.8073,3.491758
411.7909,3.453966
411.4368,3.542154
411.4159,3.493780
411.1068,3.584234
411.0895,3.544174
410.7837,3.640927
410.7601,3.586254
410.4141,3.689306
410.3942,3.642948
410.0902,3.741717
410.0686,3.691327
409.7651,3.790095
409.7454,3.743989
409.3947,3.832176
409.3777,3.792369
409.0725,3.884838
409.0509,3.834197
408.7499,3.935233
408.7293,3.886859
408.3894,3.996210
408.3643,3.937254
408.0633,4.036022
408.0473,3.998230
407.7281,4.052908
407.7217,4.038043
407.3480,4.063495
407.3443,4.054929
407.0076,4.065516
407.0067,4.063500
405.9449,4.065532
405.6052,4.063521
405.2246,4.063527
405.2219,4.056976
404.8833,4.054966
404.8799,4.046651
404.5418,4.044389
404.5365,4.031792
404.1571,4.029782
404.1527,4.019200
403.8168,4.019205
403.8107,4.004592
403.4746,4.002581
403.4693,3.989984
403.0918,3.987722
403.0875,3.977392
402.7525,3.975130
402.7464,3.960517
402.4119,3.958254
402.3989,3.926761
402.0659,3.926766
401.6911,3.924756
401.6885,3.918457
401.3559,3.916447
401.3463,3.893268
401.0142,3.891257
401.0090,3.878408
400.6361,3.876398
400.6292,3.859518
400.2992,3.859523
400.2932,3.844910
399.9637,3.844915
399.9568,3.828034
399.5867,3.828040
399.5731,3.794531
399.2439,3.792520
399.2422,3.788237
398.9134,3.785975
398.9101,3.777661
398.5411,3.775651
398.5386,3.769352
398.2110,3.767090
398.2059,3.754492
397.8790,3.752482
397.8747,3.741900
397.5077,3.739890
397.5026,3.727293
397.1777,3.727298
397.1726,3.714700
396.8482,3.714705
396.8440,3.704124
396.4796,3.704129
396.4746,3.691532
396.1505,3.689521
396.1463,3.678939
395.8227,3.676929
395.8185,3.666347
395.4553,3.664337
395.4519,3.655771
395.1294,3.653761
395.1252,3.643179
394.8042,3.643184
394.8000,3.632854
394.4386,3.630592
394.4345,3.620262
394.1136,3.618000
394.1094,3.607418
393.7900,3.607423
393.7884,3.603392
393.4288,3.601130
393.4272,3.597099
393.1080,3.594836
391.4452,3.594863
390.8180,3.601172
390.8172,3.599156
390.5055,3.605460
390.5047,3.603444
390.1561,3.614032
390.1528,3.605465
389.8455,3.620335
389.8430,3.614037
389.5378,3.632938
389.5337,3.622356
389.1941,3.651839
389.1876,3.634959
388.8899,3.670740
388.8834,3.653860
388.5877,3.693673
388.5796,3.672761
388.2489,3.721141
388.2392,3.695946
387.9478,3.744325
387.9397,3.723161
387.6495,3.773556
387.6391,3.746345
387.3148,3.807322
387.3028,3.775829
387.0191,3.840836
387.0071,3.809343
386.7240,3.874602
386.7120,3.843109
386.3876,3.899803
386.3788,3.876624
386.0902,3.925002
386.0814,3.901823
385.7972,3.960784
385.7844,3.927023
385.4593,3.977670
385.4536,3.962805
385.1609,3.996571
385.1545,3.979691
384.8629,4.015472
384.8566,3.998592
384.5274,4.034374
384.5210,4.017493
384.2305,4.053275
384.2241,4.036395
383.9308,4.063862
383.9268,4.053280
383.5913,4.067899
383.5906,4.065883
383.2903,4.072187
383.2887,4.067904
382.9890,4.074207
382.6496,4.074213
382.3494,4.076486
382.0487,4.076491
381.7102,4.074229
381.4105,4.074234
381.1106,4.072223
381.1090,4.067940
380.8096,4.065930
380.8088,4.063914
380.4725,4.061652
380.4686,4.051070
380.1702,4.049060
380.1678,4.042761
379.8699,4.040751
379.8667,4.032185
379.5321,4.030175
379.5275,4.017577
379.2313,4.017582
379.2267,4.004985
378.9309,4.004990
378.9263,3.992393
378.5934,3.990383
378.5895,3.979801
378.2947,3.979806
377.9997,3.977795
377.9881,3.946050
377.6568,3.944040
377.6515,3.929427
377.3574,3.927165
377.3521,3.912552
377.0585,3.910541
377.0524,3.893661
376.7235,3.893667
376.7166,3.874770
376.4239,3.872508
376.4171,3.853612
376.1250,3.851601
376.1189,3.834721
375.7909,3.832711
375.7848,3.815831
375.4937,3.813820
375.4869,3.794924
375.1969,3.794929
375.1908,3.778049
374.8645,3.776039
374.8599,3.763441
374.5701,3.761179
374.5642,3.744550
374.2748,3.742288
374.2696,3.727675
373.9448,3.725665
373.9403,3.713068
373.6519,3.710805
373.6467,3.696192
373.3588,3.693930
373.3543,3.681332
373.0311,3.679322
373.0259,3.664710
372.7398,3.664715
372.7353,3.652117
372.4488,3.649855
372.4436,3.635242
372.1227,3.635247
372.1182,3.622650
371.8327,3.620640
371.8297,3.612073
371.5447,3.610063
371.5439,3.607795
371.2238,3.605785
369.7766,3.607827
369.7758,3.605811
369.4961,3.610099
369.4953,3.607832
369.1825,3.616404
369.1810,3.612121
368.9051,3.624723
368.9029,3.618424
368.6281,3.633294
368.6260,3.626996
368.3173,3.643630
368.3145,3.635315
368.0413,3.652201
368.0391,3.645902
367.7663,3.662536
367.7634,3.654222
367.4570,3.673123
367.4534,3.662542
367.1830,3.683710
367.1794,3.673128
366.9093,3.694045
366.9057,3.683715
366.6022,3.706900
366.5986,3.696318
366.3315,3.723534
366.3265,3.708921
366.0606,3.738403
366.0563,3.725806
365.7556,3.753022
365.7513,3.740425
365.4876,3.773939
365.4811,3.755043
365.2194,3.793092
365.2136,3.776211
364.9164,3.809726
364.9115,3.795113
364.6469,3.822328
364.6433,3.811998
364.3748,3.826616
364.3742,3.824601
364.0691,3.830905
364.0684,3.828638
363.7979,3.834941
363.7972,3.832926
363.5257,3.834946
363.2207,3.837220
362.9494,3.837225
362.6777,3.834962
362.1033,3.834973
361.8330,3.832962
361.8316,3.828679
361.5287,3.828685
361.5280,3.826669
361.2585,3.824659
361.2571,3.820376
360.9880,3.818365
360.9852,3.809799
360.7172,3.809804
360.7137,3.799474
360.4120,3.797212
360.4092,3.788898
360.1413,3.786636
360.1371,3.774038
359.8697,3.772028
359.8656,3.759430
359.5653,3.757420
359.5604,3.742556
359.2938,3.740545
359.2883,3.723665
359.0221,3.721654
359.0173,3.707041
358.7184,3.704779
358.7122,3.685883
358.4469,3.683873
358.4413,3.666992
358.1764,3.664982
358.1709,3.648101
357.8734,3.646091
357.8686,3.631226
357.6045,3.629216
357.6004,3.616618
357.3367,3.614608
357.3326,3.601759
357.0365,3.599749
357.0317,3.585136
356.7688,3.582873
356.7661,3.574559
356.5037,3.572549
356.4989,3.557684
356.2042,3.555674
356.2015,3.547359
355.9398,3.545097
355.9371,3.536783
355.6759,3.534772
355.6725,3.524190
355.3792,3.522180
355.3764,3.513614
355.1160,3.511604
355.1140,3.505305
354.8539,3.503043
354.8512,3.494728
354.5593,3.492718
354.5573,3.486420
354.2980,3.484157
354.2947,3.473827
354.0358,3.471565
354.0345,3.467534
353.7438,3.465272
353.7418,3.458973
353.4838,3.456963
353.4818,3.450664
353.2248,3.450669
353.2228,3.444370
352.9341,3.444376
352.9321,3.438077
352.6753,3.436067
352.6746,3.433799
352.4181,3.431789
352.4168,3.427506
352.1288,3.425496
352.1281,3.423228
351.8731,3.423233
351.3629,3.419212
350.0339,3.419239
349.5001,3.423281
349.2496,3.425553
349.2489,3.423286
349.0000,3.429589
348.9987,3.425558
348.7189,3.431862
348.7182,3.429595
348.4701,3.436151
348.4694,3.433883
348.2216,3.440187
348.2210,3.438171
347.9424,3.444476
347.9418,3.442460
347.6953,3.450779
347.6940,3.446496
347.4480,3.455067
347.4473,3.452800
347.1719,3.465403
347.1694,3.457089
346.9260,3.471707
346.9240,3.465408
346.6797,3.475995
346.6791,3.473979
346.1562,3.480289
345.9104,3.482309
345.9097,3.480294
345.3878,3.482320
345.1431,3.484341
344.8675,3.484346
344.6223,3.482336
344.1036,3.482346
343.8595,3.480336
343.8582,3.476053
343.6144,3.474042
343.6137,3.471775
343.3405,3.471780
343.3386,3.465482
343.0956,3.463471
343.0937,3.457172
342.8510,3.455162
342.8484,3.446596
342.6067,3.446601
342.6042,3.438286
342.3320,3.436277
342.3300,3.429726
342.0884,3.427715
342.0859,3.419401
341.8452,3.419406
341.8421,3.408824
341.5711,3.406815
341.5692,3.400516
341.3286,3.398253
341.3261,3.389939
341.0859,3.387929
341.0834,3.379362
340.8136,3.377352
340.8112,3.369038
340.5716,3.366776
340.5691,3.358461
340.3300,3.356451
340.3268,3.345869
340.0589,3.345875
340.0558,3.335293
339.8173,3.333282
339.8142,3.322701
339.5761,3.320690
339.5730,3.310108
339.3056,3.308098
339.3025,3.297517
339.0651,3.295506
339.0620,3.284924
338.8250,3.282914
338.8225,3.274348
338.5563,3.272338
338.5526,3.259740
338.3163,3.257730
338.3132,3.247148
338.0771,3.244886
338.0741,3.234556
337.8090,3.232294
337.8053,3.219696
337.5700,3.217686
337.5670,3.207104
337.3320,3.205094
337.3296,3.196779
337.0657,3.194518
337.0620,3.181920
336.8278,3.179910
336.8253,3.171595
336.5913,3.169333
336.5883,3.158751
336.3256,3.156741
336.3232,3.148427
336.0899,3.146164
336.0881,3.139866
335.8552,3.137855
335.8528,3.129541
335.5912,3.127279
335.5888,3.118965
335.3566,3.116954
335.3541,3.108388
335.1228,3.108393
335.1222,3.106378
334.8624,3.106383
334.8606,3.100085
334.6299,3.100090
334.6287,3.095807
334.3984,3.095812
334.3973,3.091780
334.1673,3.091785
334.1666,3.089518
333.9077,3.087508
333.6784,3.087513
333.6778,3.085497
333.4488,3.085502
333.4476,3.081219
333.1903,3.081225
333.1898,3.079210
332.9608,3.076947
332.9602,3.074931
332.4760,3.074942
332.4755,3.072927
332.2475,3.070664
332.0204,3.070669
332.0199,3.068654
331.5384,3.068664
331.5378,3.066397
331.3117,3.066402
330.8312,3.062381
330.8306,3.060114
330.6055,3.060119
330.3520,3.058109
329.9034,3.058119
329.9028,3.056103
329.6510,3.056109
329.6504,3.053842
329.4269,3.053847
329.4263,3.051831
329.2026,3.049820
328.9518,3.049826
328.9512,3.047559
328.7286,3.047564
328.5058,3.045553
328.5053,3.043538
328.2556,3.043543
328.2550,3.041276
327.3404,3.032982
327.3399,3.030967
327.1189,3.028704
327.1183,3.026689
326.8707,3.026694
326.8696,3.022411
326.6493,3.020401
326.6487,3.018385
326.4286,3.016123
326.4281,3.014107
326.2084,3.012096
326.2072,3.007813
325.9605,3.005803
325.9588,2.999505
325.7396,2.997242
325.7379,2.990944
325.5191,2.988933
325.5163,2.978351
325.2705,2.976341
325.2688,2.970043
325.0506,2.967780
325.0478,2.957450
324.8305,2.957455
324.8265,2.942591
324.5819,2.940581
324.5790,2.929999
324.3618,2.927988
324.3595,2.919674
324.1425,2.917412
324.1403,2.909097
323.8967,2.907087
323.8938,2.896506
323.6775,2.894495
323.6752,2.885929
323.4592,2.883918
323.4564,2.873337
323.2138,2.871327
323.2110,2.860745
322.9956,2.858734
322.9933,2.850168
322.7782,2.848158
322.7754,2.837576
322.5343,2.837581
322.5310,2.824984
322.3165,2.822974
322.3137,2.812392
322.0994,2.810381
322.0966,2.799799
321.8561,2.797790
321.8538,2.789223
321.6402,2.787213
321.6380,2.778899
321.4246,2.776636
321.4224,2.768322
321.1829,2.766312
321.1812,2.760013
320.9684,2.757751
320.9663,2.749436
320.7538,2.747426
320.7516,2.738860
320.5130,2.736850
320.5108,2.728536
320.2990,2.726273
320.2968,2.717959
320.0858,2.717964
320.0836,2.709650
319.8459,2.707388
319.8438,2.699074
319.6328,2.696811
319.6311,2.690512
319.4205,2.688502
319.4183,2.680188
319.1816,2.677926
319.1795,2.669611
318.9694,2.667601
318.9678,2.661302
318.7579,2.659040
318.7563,2.652741
318.5468,2.650731
318.5446,2.642416
318.3099,2.642422
318.3093,2.640154
318.1004,2.638144
318.0998,2.636128
317.8911,2.633866
317.8906,2.631850
317.6563,2.629840
317.6557,2.627573
317.4481,2.627578
317.4471,2.623547
317.2398,2.623552
317.2393,2.621284
317.0064,2.621290
317.0053,2.617007
316.7981,2.614996
316.7976,2.612981
316.5911,2.612986
316.5906,2.610718
316.3587,2.610724
316.3581,2.608708
316.1523,2.608713
316.1512,2.604430
315.7136,2.600410
315.5086,2.600415
315.5075,2.596132
315.3023,2.594121
315.3012,2.589838
315.0711,2.589844
315.0706,2.587828
314.8665,2.587833
314.8659,2.585566
314.6615,2.583555
314.6609,2.581540
314.2274,2.577267
314.2269,2.575252
314.0233,2.572989
314.0227,2.570974
313.7946,2.570979
313.7941,2.568964
313.5910,2.566701
313.5900,2.562670
313.3877,2.562675
313.3871,2.560408
313.1599,2.560413
313.1594,2.558397
312.9572,2.556387
312.9561,2.552104
312.7546,2.552109
312.7541,2.550093
312.5273,2.547832
312.5263,2.543800
312.3254,2.543805
312.3243,2.539522
312.1236,2.539527
312.1221,2.533229
311.8967,2.533234
311.8962,2.531219
311.6961,2.531224
311.6945,2.524673
311.4946,2.524678
311.4936,2.520647
311.2941,2.520652
311.2925,2.514353
311.0677,2.512092
311.0672,2.510076
310.8677,2.508065
310.8661,2.501767
310.6668,2.499504
310.6663,2.497489
310.4430,2.497494
310.4415,2.491196
310.2427,2.489185
310.2417,2.484902
310.0432,2.482891
310.0411,2.474325
309.8182,2.472315
309.8167,2.466017
309.6187,2.464006
309.6177,2.459723
309.4200,2.457713
309.4185,2.451414
309.1964,2.449152
309.1949,2.442853
308.9977,2.440843
308.9957,2.432277
308.7988,2.430266
308.7968,2.421952
308.5761,2.421957
308.5740,2.413391
308.3777,2.411381
308.3762,2.405082
308.1801,2.403071
308.1795,2.400804
307.9593,2.398794
307.9573,2.390480
307.7617,2.388217
307.7601,2.381919
307.5653,2.381924
307.5633,2.373609
307.3439,2.371600
307.3434,2.369332
307.1486,2.367321
307.1476,2.363038
306.9531,2.361028
306.9526,2.359012
306.7340,2.356750
306.7331,2.352719
306.5390,2.350457
306.5385,2.348441
306.3447,2.346179
306.3437,2.342148
306.1266,2.342153
306.1260,2.339886
305.9328,2.337875
305.9318,2.333592
305.5220,2.329572
305.5210,2.325288
305.1362,2.321015
305.1357,2.319000
304.9198,2.316990
304.9193,2.314723
304.7281,2.314728
304.7276,2.312712
304.5366,2.312717
304.1305,2.308444
304.1300,2.306429
303.7487,2.302156
303.3457,2.302167
303.3453,2.300151
303.1560,2.300156
301.5801,2.300198
301.3935,2.302219
300.8109,2.304502
300.8103,2.302235
300.6015,2.304508
300.4166,2.308544
300.4161,2.306528
300.2314,2.310817
300.2309,2.308549
300.0233,2.312838
300.0229,2.310822
299.8382,2.312843
299.6543,2.317131
299.6537,2.314863
299.4469,2.319152
299.4465,2.317137
299.2630,2.321173
299.2625,2.319157
299.0793,2.323445
299.0788,2.321178
298.8732,2.327482
298.8723,2.323451
298.6900,2.329755
298.6895,2.327487
298.5070,2.331775
298.5065,2.329760
298.3017,2.336064
298.3008,2.331781
298.1196,2.340101
298.1192,2.338085
297.9373,2.342373
297.9368,2.340105
297.7557,2.346409
297.7547,2.342378
297.5515,2.350698
297.5505,2.346415
297.3699,2.352970
297.3694,2.350703
297.1894,2.359274
297.1880,2.352975
296.9855,2.361296
296.9851,2.359280
296.8050,2.365584
296.8041,2.361301
296.6248,2.369620
296.6243,2.367604
296.4221,2.373909
296.4217,2.371893
296.2428,2.380212
296.2418,2.375929
296.0632,2.384501
296.0627,2.382233
295.8618,2.390805
295.8609,2.386522
295.6827,2.394841
295.6822,2.392825
295.5043,2.401145
295.5034,2.397114
295.3036,2.407449
295.3027,2.403418
295.1252,2.411737
295.1247,2.409722
294.9479,2.420056
294.9465,2.413758
294.7480,2.426361
294.7471,2.422330
294.5702,2.430649
294.5698,2.428633
294.3936,2.438968
294.3922,2.432670
294.1949,2.447540
294.1935,2.441241
294.0179,2.451828
294.0174,2.449561
293.8414,2.458132
293.8405,2.453849
293.6430,2.464436
293.6421,2.460153
293.4671,2.470740
293.4661,2.466457
293.2922,2.481075
293.2903,2.472761
293.0936,2.483348
293.0931,2.481081
292.9183,2.489652
292.9174,2.485369
292.7436,2.497971
292.7418,2.489657
292.5472,2.506291
292.5458,2.499992
292.3725,2.512595
292.3716,2.508564
292.1985,2.521166
292.1972,2.514867
292.0028,2.529486
292.0014,2.523187
291.8288,2.535790
291.8274,2.529491
291.6554,2.544361
291.6541,2.538062
291.4818,2.550665
291.4809,2.546382
291.2871,2.558985
291.2857,2.552686
291.1148,2.569571
291.1130,2.561005
290.9423,2.577891
290.9409,2.571592
290.7478,2.584195
290.7469,2.579912
290.5757,2.592514
290.5743,2.586216
290.4039,2.601086
290.4025,2.594787
290.2105,2.609405
290.2092,2.603107
290.0395,2.619992
290.0377,2.611426
289.8683,2.628312
289.8665,2.619997
289.6761,2.638899
289.6744,2.630585
289.5053,2.647218
289.5040,2.640920
289.3352,2.657805
289.3334,2.649491
289.1437,2.668393
289.1419,2.659826
288.9735,2.676712
288.9722,2.670413
288.8035,2.685031
288.8022,2.678733
288.6124,2.693603
288.6110,2.687304
288.4428,2.701922
288.4414,2.695624
288.2743,2.714525
288.2721,2.703943
288.0838,2.723097
288.0825,2.716798
287.9145,2.729400
287.9136,2.725117
287.7457,2.737720
287.7444,2.731421
287.5564,2.748307
287.5545,2.739741
287.3880,2.756626
287.3867,2.750328
287.2199,2.764946
287.2186,2.758647
287.0308,2.773518
287.0295,2.767219
286.8627,2.779821
286.8618,2.775538
286.6951,2.788141
286.6934,2.779826
286.5067,2.796461
286.5054,2.790162
286.3392,2.803016
286.3378,2.796466
286.1732,2.815619
286.1710,2.805037
285.9845,2.819655
285.9841,2.817640
285.8181,2.828227
285.8168,2.821928
285.6522,2.838562
285.6505,2.830247
285.4861,2.847133
285.4844,2.838567
285.3006,2.861751
285.2980,2.849154
285.1340,2.866040
285.1336,2.863772
284.9685,2.874359
284.9672,2.868060
284.7819,2.880663
284.7810,2.876380
284.6168,2.888982
284.6155,2.882684
284.4524,2.899569
284.4507,2.891255
284.2673,2.910157
284.2652,2.899575
284.1028,2.918476
284.1011,2.910162
283.9386,2.927047
283.9368,2.918481
283.7541,2.937383
283.7524,2.929069
283.5903,2.945954
283.5885,2.937388
283.4266,2.954273
283.4253,2.947975
283.2420,2.960578
283.2411,2.956295
283.0799,2.975196
283.0774,2.962598
282.9164,2.981751
282.9156,2.977468
282.7338,2.994354
282.7316,2.983773
282.5707,3.000658
282.5694,2.994359
282.4085,3.010993
282.4068,3.002679
282.2270,3.025863
282.2244,3.013266
282.0648,3.034183
282.0636,3.027884
281.9033,3.044770
281.9016,3.036203
281.7220,3.057373
281.7198,3.046791
281.5604,3.065692
281.5591,3.059393
281.3995,3.076279
281.3978,3.067713
281.2188,3.088882
281.2167,3.078300
281.0583,3.099469
281.0561,3.088887
280.8983,3.112071
280.8962,3.101489
280.7183,3.124674
280.7161,3.114092
280.5582,3.135009
280.5566,3.126695
280.3985,3.145596
280.3968,3.137281
280.2195,3.160214
280.2169,3.147617
280.0609,3.175084
280.0584,3.162487
279.9029,3.191970
279.9000,3.177105
279.7443,3.204572
279.7422,3.193990
279.5657,3.217175
279.5636,3.206593
279.4070,3.227510
279.4054,3.219196
279.2489,3.240112
279.2469,3.229783
279.0711,3.252967
279.0690,3.242386
278.9129,3.263302
278.9113,3.254988
278.7550,3.273889
278.7533,3.265575
278.5777,3.286492
278.5756,3.275910
278.4209,3.301110
278.4181,3.286497
278.2640,3.313712
278.2619,3.303383
278.0869,3.324300
278.0853,3.315986
277.9307,3.338918
277.9282,3.326321
277.7743,3.351772
277.7718,3.338923
277.5983,3.364375
277.5962,3.353793
277.4422,3.376978
277.4402,3.366396
##END=
