##TITLE=1,2-Naphthoquinone
##JCAMP-DX=4.24
##DATA TYPE=UV/VIS SPECTRUM
##ORIGIN=INSTITUTE OF ENERGY PROBLEMS OF CHEMICAL PHYSICS, RAS
##OWNER=INEP CP RAS, NIST OSRD
Collection (C) 2007 copyright by the U.S. Secretary of Commerce
on behalf of the United States of America. All rights reserved.
##CAS REGISTRY NO=524-42-5
##MOLFORM=C10H6O2
##MP=146
##SOURCE REFERENCE=RAS UV No. 510
##$NIST SQUIB=1952EBN/MIJ910-929
##$NIST SOURCE=TSGMTE
##SPECTROMETER/DATA SYSTEM=n.i.g.
##XUNITS=Wavelength (nm)
##YUNITS=Logarithm epsilon
##XFACTOR=1.000000
##YFACTOR=1.000000
##FIRSTX=221.9886
##LASTX=480.8319
##FIRSTY=3.99552
##MAXX=480.832
##MINX=221.989
##MAXY=4.16983
##MINY=3.03549
##NPOINTS=379
##$REF AUTHOR=Ebnother, A.; Mijer, T.M.; Schmid, H.
##$REF TITLE=Uber eleutherinol, ein naturliches naphtopyron
##$REF JOURNAL=Helv. Chim. Acta
##$REF VOLUME=35
##$REF PAGE=910-929
##$REF DATE=1952
##XYPOINTS=(XY..XY)
221.9886,3.995516
222.1007,3.994184
222.8881,3.989686
225.0260,3.978164
225.0260,3.978164
225.3205,3.977719
225.5921,3.977390
225.8523,3.977117
225.8523,3.977117
225.9398,3.976351
226.0044,3.975642
226.0576,3.975048
226.7287,3.974004
228.1395,3.973980
229.5732,3.973955
231.0184,3.973930
231.0184,3.973930
231.5003,3.975988
232.0052,3.978044
232.5215,3.980101
232.5215,3.980101
233.1465,3.984298
233.7831,3.988609
234.4427,3.992978
234.4427,3.992978
234.6081,3.996992
234.7843,3.999800
235.1220,4.003811
235.1220,4.003811
235.4483,4.005105
235.7976,4.006457
236.1585,4.007924
236.1585,4.007924
236.2143,4.011098
236.2816,4.014386
236.3720,4.017732
236.3720,4.017732
238.4287,4.049196
239.7016,4.068281
240.7194,4.082723
242.0106,4.100258
242.0106,4.100258
242.1664,4.101288
242.3222,4.102318
242.4779,4.103348
242.4779,4.103348
242.5991,4.106961
242.7432,4.110573
242.8988,4.114185
242.8988,4.114185
244.2594,4.127425
245.7693,4.140720
248.7227,4.165466
248.7227,4.165466
248.9966,4.165729
249.2935,4.166049
249.6020,4.166484
250.2245,4.169830
250.2245,4.169830
250.2319,4.166703
250.2980,4.165296
250.4792,4.164403
250.9481,4.169817
251.6717,4.169805
252.3952,4.169792
252.3952,4.169792
252.9077,4.166169
253.4086,4.162546
253.8866,4.158923
253.8866,4.158923
254.4146,4.152946
255.2373,4.141285
257.0600,4.113942
257.0600,4.113942
257.7033,4.092436
258.3419,4.070930
258.9707,4.049425
259.5850,4.027919
259.5850,4.027919
260.3169,3.996540
260.7325,3.977390
260.9864,3.962648
261.2332,3.944493
261.2332,3.944493
261.6168,3.934551
262.1665,3.915598
263.3536,3.871387
263.3536,3.871387
263.7867,3.847109
264.1969,3.822832
264.5955,3.798555
264.5955,3.798555
264.8844,3.789847
265.1503,3.781255
265.4047,3.772721
265.4047,3.772721
265.8494,3.765226
266.2711,3.757731
266.6813,3.750236
266.6813,3.750236
267.4112,3.734340
267.9383,3.724184
268.3625,3.714834
268.3625,3.714834
270.2914,3.688838
271.2305,3.676629
271.5882,3.670627
271.5882,3.670627
271.8818,3.668824
272.1524,3.667079
272.4116,3.665449
272.4116,3.665449
272.8579,3.660354
273.2813,3.655374
273.6933,3.650452
273.6933,3.650452
275.0571,3.640502
276.4442,3.631241
279.0439,3.614729
279.0439,3.614729
280.4849,3.608584
281.9145,3.602554
283.3211,3.596582
283.3211,3.596582
285.0600,3.592172
286.7760,3.587820
288.4805,3.583583
288.4805,3.583583
289.4979,3.582093
290.4923,3.580718
291.4753,3.579401
292.1463,3.578098
294.7824,3.578387
297.4185,3.578792
300.0547,3.579253
300.0547,3.579253
300.8326,3.580273
301.6219,3.581292
302.4343,3.582311
302.4343,3.582311
302.7089,3.583607
303.0065,3.584959
303.3157,3.586427
303.3157,3.586427
304.0036,3.587457
304.7146,3.588545
305.4370,3.589747
305.4370,3.589747
307.7920,3.596027
309.2959,3.600487
311.2375,3.606946
311.2375,3.606946
312.1957,3.608536
312.8667,3.610131
313.8259,3.613099
313.8259,3.613099
313.9453,3.614139
314.0877,3.615236
314.2416,3.616448
314.2416,3.616448
316.1061,3.622096
317.9706,3.627745
319.8351,3.633393
319.8351,3.633393
322.3645,3.642712
323.8689,3.647974
325.6377,3.653691
325.6377,3.653691
326.6379,3.657881
327.6611,3.662186
328.6959,3.666548
328.6959,3.666548
329.8343,3.668604
330.9728,3.670717
332.1114,3.672944
332.1114,3.672944
332.8351,3.673200
333.5589,3.673512
334.2828,3.673940
334.2828,3.673940
334.5441,3.675303
334.8169,3.676780
335.1128,3.678315
335.1128,3.678315
337.9038,3.678535
340.6949,3.678812
343.4861,3.679204
343.4861,3.679204
344.4334,3.676023
345.0486,3.674338
345.8591,3.672708
345.8591,3.672708
346.6072,3.669329
347.5157,3.665546
348.4351,3.660787
350.1348,3.652237
350.2867,3.650427
350.4271,3.648618
350.5445,3.646808
350.5445,3.646808
351.6780,3.644370
352.6276,3.641876
354.2074,3.637192
354.2074,3.637192
354.3599,3.636157
354.5008,3.635121
354.6188,3.634087
354.6188,3.634087
355.6845,3.630578
357.1289,3.626604
360.1901,3.618757
360.1901,3.618757
361.5951,3.616065
363.1377,3.612854
364.6806,3.610160
364.6806,3.610160
365.7416,3.608066
367.2159,3.605909
368.5524,3.603638
368.5524,3.603638
371.0696,3.603595
373.5638,3.603552
376.0465,3.603510
376.0465,3.603510
377.0512,3.605979
378.9412,3.609752
382.0506,3.616316
382.0506,3.616316
383.0829,3.617064
384.1036,3.617754
385.1013,3.618330
385.1013,3.618330
387.3814,3.621456
388.3741,3.623112
388.9303,3.624719
388.9303,3.624719
393.0963,3.628434
396.4005,3.631648
400.5665,3.635363
400.5665,3.635363
401.4298,3.635348
402.2701,3.635334
403.0989,3.635320
403.0989,3.635320
404.1201,3.633763
405.2448,3.632605
407.4373,3.630856
407.4373,3.630856
408.9345,3.628583
410.4319,3.626425
411.9293,3.624324
411.9293,3.624324
413.6543,3.619302
415.2414,3.613939
416.4161,3.610304
416.4161,3.610304
417.3631,3.606807
419.1813,3.600656
421.5720,3.592142
421.5720,3.592142
422.3596,3.587806
423.9605,3.580415
426.4655,3.568304
426.4655,3.568304
427.1325,3.563979
427.7881,3.559770
428.4208,3.555619
428.4208,3.555619
428.8332,3.554072
429.2456,3.552582
429.6582,3.551208
429.6582,3.551208
430.9109,3.544110
432.4719,3.534310
435.6791,3.513408
435.6791,3.513408
435.9720,3.510563
436.2418,3.507718
436.5002,3.504873
436.5002,3.504873
436.8079,3.504103
437.1041,3.503390
437.3774,3.502793
437.3774,3.502793
437.4644,3.501252
437.5285,3.499768
437.5811,3.498400
437.5811,3.498400
438.0294,3.496145
438.4548,3.494005
438.8687,3.491923
438.8687,3.491923
438.9558,3.490449
439.0199,3.489090
439.0726,3.487788
439.0726,3.487788
440.9218,3.473890
441.8685,3.467180
442.7244,3.461906
442.7244,3.461906
442.8114,3.460365
442.8754,3.458881
442.9281,3.457513
442.9281,3.457513
443.7358,3.451819
444.5205,3.446125
445.2938,3.440431
445.2938,3.440431
445.3808,3.438890
445.4448,3.437407
445.4975,3.436039
445.4975,3.436039
445.8577,3.433785
446.2180,3.431646
446.5756,3.425434
446.5756,3.425434
446.5764,3.426734
446.5774,3.428092
446.5784,3.429565
446.5784,3.429565
447.1720,3.421407
447.5050,3.418590
447.8602,3.414568
447.8602,3.414568
448.1540,3.413090
448.4248,3.411727
448.6843,3.410422
448.6843,3.410422
448.9628,3.406325
449.3448,3.402283
449.7607,3.397494
449.7607,3.397494
449.9136,3.397051
450.0550,3.396724
450.1735,3.396454
450.1735,3.396454
450.6196,3.391024
451.0427,3.385595
451.4544,3.380166
451.4544,3.380166
451.6072,3.379723
451.7486,3.379396
451.8671,3.379126
451.8671,3.379126
453.3923,3.364593
454.0043,3.358223
454.2277,3.354557
454.2277,3.354557
454.5348,3.353012
454.8305,3.351524
455.1032,3.350152
455.1032,3.350152
455.9518,3.339743
457.1089,3.327205
459.5665,3.301793
459.5665,3.301793
460.5440,3.289708
462.0575,3.272163
463.2058,3.257837
463.2058,3.257837
463.5639,3.255258
463.9105,3.252737
464.2343,3.250332
464.2343,3.250332
464.7147,3.245480
465.3546,3.238146
466.5232,3.223801
468.5892,3.197915
471.9219,3.155958
471.9219,3.155958
475.2526,3.111815
477.3147,3.084326
478.4743,3.068490
479.0977,3.059306
479.5511,3.051774
479.5511,3.051774
479.9977,3.047033
480.4203,3.040915
480.8319,3.035485
##END=
