##TITLE=N-(2-furanylmethyl)-1H-purin-6-amine
##JCAMP-DX=4.24
##DATA TYPE=UV/VIS SPECTRUM
##ORIGIN=INSTITUTE OF ENERGY PROBLEMS OF CHEMICAL PHYSICS, RAS
##OWNER=INEP CP RAS, NIST OSRD
Collection (C) 2007 copyright by the U.S. Secretary of Commerce
on behalf of the United States of America. All rights reserved.
##CAS REGISTRY NO=525-79-1
##MOLFORM=C10H9N5O
##MP=269-271 dec.
##SOURCE REFERENCE=RAS UV No. 23232
##$NIST SQUIB=1976ZIK986
##$NIST SOURCE=TYUGLMTE
##SPECTROMETER/DATA SYSTEM=Specord UV-Vis
##XUNITS=Wavelength (nm)
##YUNITS=Logarithm epsilon
##XFACTOR=1.0
##YFACTOR=1.0
##FIRSTX=208.816
##LASTX=325.038
##FIRSTY=3.604
##MAXX=325.038
##MINX=208.816
##MAXY=4.248
##MINY=2.909
##NPOINTS=119
##$REF AUTHOR=Zikmanis, P.B.
##$REF JOURNAL=Khim. Geterosikl. Soedin.
##$REF PAGE=986
##$REF DATE=1976
##XYPOINTS=(XY..XY)
208.816,3.604
209.816,3.594
210.816,3.585
211.816,3.577
212.816,3.570
213.816,3.564
214.816,3.558
215.816,3.553
216.816,3.548
217.816,3.544
218.816,3.540
219.816,3.537
220.816,3.534
221.816,3.531
222.816,3.529
223.816,3.527
224.816,3.526
225.816,3.526
226.816,3.526
227.816,3.527
228.816,3.529
229.816,3.531
230.816,3.535
231.816,3.539
232.816,3.545
233.816,3.552
234.816,3.560
235.816,3.569
236.816,3.580
237.816,3.593
238.816,3.608
239.816,3.624
240.816,3.642
241.745,3.664
242.745,3.686
243.745,3.707
244.745,3.727
245.745,3.745
246.745,3.763
247.745,3.780
248.745,3.797
249.745,3.813
250.745,3.830
251.745,3.847
252.745,3.865
253.745,3.883
254.745,3.902
255.745,3.921
256.745,3.941
257.745,3.961
258.745,3.983
259.745,4.004
260.745,4.026
261.745,4.048
262.745,4.070
263.745,4.092
264.745,4.114
265.745,4.135
266.745,4.154
267.745,4.173
268.745,4.190
268.788,4.188
269.788,4.206
270.788,4.220
271.788,4.230
272.788,4.237
273.788,4.242
274.788,4.245
275.788,4.247
276.788,4.248
277.788,4.248
278.788,4.247
279.788,4.245
280.788,4.242
281.788,4.237
282.788,4.230
283.788,4.221
284.788,4.210
285.788,4.195
286.788,4.177
287.788,4.156
288.788,4.131
289.788,4.102
290.788,4.069
291.788,4.032
292.788,3.991
293.788,3.946
294.568,3.914
295.568,3.857
296.568,3.805
297.568,3.760
298.568,3.720
299.568,3.684
300.568,3.648
301.568,3.608
302.568,3.557
303.038,3.529
304.038,3.476
305.038,3.422
306.038,3.369
307.038,3.319
308.038,3.271
309.038,3.227
310.038,3.186
311.038,3.149
312.038,3.117
313.038,3.088
314.038,3.063
315.038,3.041
316.038,3.022
317.038,3.005
318.038,2.991
319.038,2.977
320.038,2.965
321.038,2.953
322.038,2.941
323.038,2.930
324.038,2.919
325.038,2.909
##END=
