##TITLE=2-phenyl-4H-1-benzopyran-4-one
##JCAMP-DX=4.24
##DATA TYPE=UV/VIS SPECTRUM
##ORIGIN=INSTITUTE OF ENERGY PROBLEMS OF CHEMICAL PHYSICS, RAS
##OWNER=INEP CP RAS, NIST OSRD
Collection (C) 2007 copyright by the U.S. Secretary of Commerce
on behalf of the United States of America. All rights reserved.
##CAS REGISTRY NO=525-82-6
##MOLFORM=C15H10O2
##MP=100
##SOURCE REFERENCE=RAS UV No. 23815
##$NIST SQUIB=1975FRO/1294
##$NIST SOURCE=TYUGLMTE
##SPECTROMETER/DATA SYSTEM=Pye Unicam SP 8000
##XUNITS=Wavelength (nm)
##YUNITS=Logarithm epsilon
##XFACTOR=1.0
##YFACTOR=1.0
##FIRSTX=205.304
##LASTX=372.166
##FIRSTY=4.544
##MAXX=372.166
##MINX=205.304
##MAXY=4.544
##MINY=1.555
##NPOINTS=165
##$REF AUTHOR=Frolov, Yu.L.; et al.
##$REF JOURNAL=Izvest. Akad. Nauk SSSR, ser. khim.
##$REF PAGE=1294
##$REF DATE=1975
##XYPOINTS=(XY..XY)
205.304,4.544
206.304,4.477
207.304,4.422
208.304,4.379
209.304,4.344
210.304,4.317
211.304,4.295
212.304,4.277
213.304,4.263
214.304,4.250
215.304,4.238
216.304,4.227
217.304,4.217
218.304,4.205
219.304,4.194
220.304,4.182
221.304,4.169
222.304,4.156
223.304,4.142
224.304,4.129
225.304,4.116
226.304,4.103
227.304,4.091
228.304,4.081
229.304,4.072
230.304,4.065
231.304,4.060
232.304,4.058
233.304,4.059
234.304,4.063
235.690,4.074
236.690,4.086
237.690,4.097
238.690,4.108
239.690,4.118
240.690,4.128
241.690,4.137
242.690,4.146
243.690,4.155
244.690,4.164
245.690,4.173
246.690,4.182
247.690,4.191
248.690,4.200
250.092,4.215
251.092,4.226
252.092,4.234
253.092,4.238
254.092,4.236
255.092,4.228
256.092,4.213
257.092,4.192
258.092,4.166
259.361,4.141
260.361,4.122
261.361,4.102
262.361,4.083
263.361,4.065
264.361,4.051
265.361,4.040
266.361,4.033
267.361,4.030
268.361,4.032
269.361,4.038
270.361,4.049
271.361,4.063
272.361,4.080
273.361,4.100
274.361,4.123
275.361,4.147
276.361,4.171
277.361,4.196
278.361,4.220
279.361,4.242
280.361,4.261
281.361,4.278
282.361,4.291
283.361,4.299
284.361,4.303
285.361,4.301
286.361,4.294
287.361,4.282
288.361,4.264
289.361,4.240
290.361,4.212
291.361,4.180
292.361,4.145
293.361,4.108
294.469,4.077
295.469,4.054
296.469,4.034
297.469,4.017
298.469,4.002
299.469,3.990
300.469,3.979
301.469,3.969
302.469,3.959
303.469,3.949
304.469,3.939
305.469,3.927
306.469,3.914
307.469,3.897
308.469,3.877
309.469,3.854
310.469,3.827
311.469,3.795
312.469,3.758
313.469,3.717
314.469,3.671
315.469,3.621
316.469,3.567
317.469,3.510
318.469,3.450
319.469,3.389
320.469,3.328
321.871,3.268
323.185,3.197
324.185,3.152
325.185,3.100
326.185,3.042
327.185,2.981
328.185,2.917
329.185,2.852
330.185,2.787
331.185,2.724
332.185,2.662
333.185,2.603
334.185,2.548
335.185,2.496
336.185,2.449
337.185,2.405
338.185,2.367
339.185,2.332
340.185,2.301
341.185,2.275
342.185,2.252
343.185,2.232
344.185,2.215
345.709,2.188
347.069,2.167
348.069,2.155
349.069,2.145
350.069,2.136
351.069,2.124
352.069,2.110
353.069,2.091
354.069,2.069
355.069,2.044
356.069,2.015
357.069,1.984
358.069,1.951
359.069,1.918
360.069,1.886
361.069,1.855
362.069,1.826
363.069,1.800
364.069,1.778
365.069,1.758
366.069,1.740
367.069,1.723
368.069,1.706
369.069,1.684
370.069,1.656
371.069,1.616
372.166,1.555
##END=
