##TITLE=Benzene, 1,2,3-trimethyl-
##JCAMP-DX=4.24
##DATA TYPE=UV/VIS SPECTRUM
##ORIGIN=INSTITUTE OF ENERGY PROBLEMS OF CHEMICAL PHYSICS, RAS
##OWNER=INEP CP RAS, NIST OSRD
Collection (C) 2007 copyright by the U.S. Secretary of Commerce
on behalf of the United States of America. All rights reserved.
##CAS REGISTRY NO=526-73-8
##MOLFORM=C9H12
##MP=-25.4
##BP=176.1
##SOURCE REFERENCE=RAS UV No. 8970
##$NIST SQUIB=1966VAG/BRUd2/8C
##$NIST SOURCE=TSGMTE
##SPECTROMETER/DATA SYSTEM=Zeiss PMQ II or M4Q III
##XUNITS=Wavelength (nm)
##YUNITS=Logarithm epsilon
##XFACTOR=1.000000
##YFACTOR=1.000000
##FIRSTX=278.3229
##LASTX=182.1608
##FIRSTY=1.13047
##MAXX=278.323
##MINX=182.161
##MAXY=4.74292
##MINY=1.13047
##NPOINTS=296
##$REF AUTHOR=Vagt, G.; Bruns, H.; Braunschweig, T.H.
##$REF TITLE=1,2,3-Trimethylbenzene (Hemimellitene)
##$REF BOOK TITLE=UV Atlas of Organic Compounds - Vol. 2
##$REF PAGE=D2/8
##$REF DATE=1966
##$REF PUBLISHER=Plenum Press
##$REF LOCATION=New York
##XYPOINTS=(XY..XY)
278.3229,1.130475
278.1839,1.164933
278.0436,1.199382
277.9023,1.233823
277.7601,1.268253
277.6721,1.375779
277.6721,1.375779
277.6174,1.302666
277.6048,1.384264
277.5658,1.374426
277.4968,1.388714
277.4744,1.337062
277.4507,1.372960
277.3313,1.371437
277.3313,1.371437
277.2556,1.392940
277.2556,1.392940
277.1625,1.324608
277.0565,1.322554
276.9417,1.320443
276.8722,1.463139
276.8226,1.318220
276.5291,1.526085
276.2231,1.582316
275.9507,1.632366
275.7088,1.676776
275.4941,1.716080
275.3034,1.750816
275.1337,1.781521
274.9817,1.808731
274.8445,1.832984
274.7188,1.854817
274.6018,1.874766
274.4902,1.893369
274.3811,1.911162
274.2715,1.928684
274.1582,1.946470
274.0384,1.965057
273.9090,1.984983
273.7670,2.006784
273.7670,2.006784
273.3578,2.034997
272.8584,2.057356
271.9251,2.080298
271.9251,2.080298
271.5434,2.119905
271.1542,2.159398
270.7619,2.198835
270.7619,2.198835
270.4531,2.208381
270.0933,2.211502
269.3438,2.210656
269.3438,2.210656
269.3003,2.208866
269.2483,2.207076
269.1922,2.205286
269.1922,2.205286
268.9096,2.205296
268.6234,2.205305
268.3294,2.205315
268.3294,2.205315
267.5020,2.255915
267.0447,2.280282
266.5635,2.299304
266.5635,2.299304
265.4535,2.314462
264.4824,2.309595
263.0143,2.303780
263.0143,2.303780
262.8172,2.309598
262.6164,2.315302
262.4080,2.320949
262.4080,2.320949
262.1705,2.321394
261.9256,2.321725
261.6771,2.321999
261.6771,2.321999
261.1906,2.309931
260.7801,2.295983
260.4137,2.281351
260.4137,2.281351
260.0469,2.276350
259.5371,2.271127
258.4529,2.261204
258.4529,2.261204
256.8197,2.231796
254.9433,2.197192
253.3060,2.160228
252.3668,2.123741
252.3668,2.123741
251.7688,2.105669
251.2747,2.082758
250.6497,2.068270
250.6497,2.068270
249.9021,2.036927
249.1403,2.005410
248.3689,1.973714
247.5922,1.941832
246.8144,1.909759
246.0395,1.877487
245.2717,1.845012
244.5148,1.812326
244.5148,1.812326
242.6847,1.724096
241.2758,1.655318
240.2221,1.603493
239.4631,1.566122
238.9422,1.540702
238.6054,1.524735
238.4002,1.515719
238.2751,1.511156
238.1789,1.508545
238.1789,1.508545
236.5732,1.436147
235.6421,1.395569
235.3082,1.379423
235.3082,1.379423
234.9496,1.370539
234.5733,1.362678
233.9329,1.357218
233.9329,1.357218
232.5266,1.394431
231.9244,1.443095
231.6282,1.502712
231.6156,1.489642
231.6156,1.489642
231.5850,1.515047
231.3282,1.524718
231.3282,1.524718
231.1281,1.556485
230.9334,1.588253
230.7441,1.620021
230.5598,1.651790
230.3802,1.683559
230.2052,1.715326
230.0346,1.747095
229.8679,1.778862
229.7051,1.810628
229.5459,1.842394
229.3902,1.874158
229.2375,1.905921
229.0877,1.937682
228.9407,1.969442
228.7961,2.001198
228.6537,2.032953
228.5134,2.064705
228.3748,2.096454
228.2379,2.128200
228.1022,2.159943
227.9678,2.191683
227.8342,2.223419
227.7014,2.255151
227.5690,2.286878
227.4370,2.318602
227.3050,2.350320
227.1728,2.382034
227.0403,2.413744
226.9072,2.445447
226.7733,2.477146
226.6385,2.508838
226.5025,2.540525
226.3650,2.572206
226.2260,2.603880
226.0852,2.635548
225.9423,2.667209
225.9423,2.667209
224.9171,2.683961
223.9995,2.699741
223.1733,2.720579
223.1733,2.720579
223.0258,2.751829
222.8807,2.783131
222.7375,2.814479
222.5958,2.845871
222.4553,2.877301
222.3154,2.908766
222.1759,2.940261
222.0362,2.971783
221.8960,3.003327
221.7549,3.034889
221.6125,3.066464
221.4684,3.098050
221.3222,3.129641
221.1734,3.161233
221.0218,3.192823
220.8668,3.224406
220.7082,3.255977
220.5456,3.287534
220.3784,3.319071
220.2065,3.350584
220.0294,3.382070
219.8467,3.413524
219.6581,3.444943
219.4631,3.476321
219.2615,3.507654
219.0529,3.538940
218.8369,3.570173
218.6132,3.601349
218.3814,3.632464
218.1413,3.663514
217.8923,3.694496
217.6343,3.725404
217.6343,3.725404
217.2292,3.766069
216.8217,3.802208
216.3430,3.834752
215.7256,3.864631
214.9041,3.892774
213.8159,3.920113
212.4029,3.947578
212.4029,3.947578
212.0587,3.956355
211.7411,3.962743
211.2982,3.969137
211.2982,3.969137
209.5891,3.971712
207.9137,3.975341
206.2609,3.979931
204.6200,3.985386
204.6200,3.985386
204.1833,3.992862
203.7123,3.999316
203.2294,4.006966
203.2294,4.006966
202.4397,4.036313
201.7871,4.067769
201.2494,4.100920
200.8052,4.135350
200.4340,4.170646
200.1158,4.206391
199.8306,4.242171
199.5590,4.277571
199.2818,4.312176
198.9799,4.345571
198.9799,4.345571
198.7547,4.368373
198.4599,4.394478
198.0876,4.429829
198.0859,4.412682
197.6675,4.477164
197.3150,4.519071
196.9860,4.556947
196.8390,4.600873
196.8284,4.599082
196.8155,4.597291
196.7982,4.595501
196.6390,4.611379
196.6371,4.592184
196.6371,4.592184
196.5985,4.612149
196.5566,4.593715
196.5559,4.612920
196.5088,4.613691
196.4739,4.595190
196.3868,4.596551
196.3868,4.596551
196.2061,4.633621
195.7167,4.671743
195.0089,4.707239
194.1725,4.736434
194.1725,4.736434
193.8249,4.739594
193.4893,4.741275
192.8797,4.742918
192.8797,4.742918
191.4972,4.737751
190.3684,4.728274
189.4788,4.708848
188.8163,4.673834
188.8163,4.673834
188.7673,4.673838
188.7142,4.673841
188.6591,4.673845
188.6591,4.673845
188.3037,4.657680
187.8864,4.640779
187.5153,4.620690
187.5153,4.620690
187.1817,4.601433
186.6993,4.569390
186.3747,4.550133
186.3747,4.550133
186.3345,4.545889
186.2603,4.541079
186.2201,4.535300
186.2201,4.535300
185.6116,4.509977
185.1369,4.478161
184.7652,4.447874
184.7652,4.447874
184.1784,4.418067
183.5484,4.385249
183.1490,4.353040
183.1490,4.353040
182.5853,4.319696
182.1608,4.284977
##END=
