##TITLE=Quinoline, 6-methoxy-
##JCAMP-DX=4.24
##DATA TYPE=UV/VIS SPECTRUM
##ORIGIN=INSTITUTE OF ENERGY PROBLEMS OF CHEMICAL PHYSICS, RAS
##OWNER=INEP CP RAS, NIST OSRD
Collection (C) 2007 copyright by the U.S. Secretary of Commerce
on behalf of the United States of America. All rights reserved.
##CAS REGISTRY NO=5263-87-6
##MOLFORM=C10H9NO
##MP=26.5
##BP=306; 153(12)
##SOURCE REFERENCE=RAS UV No. 1012
##$NIST SQUIB=1953BLI1337-1339
##$NIST SOURCE=TSGMTE
##SPECTROMETER/DATA SYSTEM=n.i.g.
##XUNITS=Wavelength (nm)
##YUNITS=Logarithm epsilon
##XFACTOR=1.000000
##YFACTOR=1.000000
##FIRSTX=220.0000
##LASTX=349.0000
##FIRSTY=4.41
##MAXX=349
##MINX=220
##MAXY=4.76
##MINY=2.2
##NPOINTS=130
##$REF AUTHOR=Bliznyukov, V.I.
##$REF TITLE=On the reciprocal influence of substitutes in the anti-malarial preparation quinoline-45
##$REF JOURNAL=Dokl. Akad. Nauk SSSR
##$REF VOLUME=91
##$REF NUMBER=9
##$REF PAGE=1337-1339
##$REF DATE=1953
##XYPOINTS=(XY..XY)
220.0000,4.410000
221.0000,4.560000
222.0000,4.660000
223.0000,4.760000
224.0000,4.750000
225.0000,4.750000
226.0000,4.740000
227.0000,4.730000
228.0000,4.730000
229.0000,4.720000
230.0000,4.710000
231.0000,4.700000
232.0000,4.660000
233.0000,4.630000
234.0000,4.590000
235.0000,4.550000
236.0000,4.510000
237.0000,4.480000
238.0000,4.430000
239.0000,4.320000
240.0000,4.250000
241.0000,4.130000
242.0000,3.880000
243.0000,3.720000
244.0000,3.630000
245.0000,3.540000
246.0000,3.480000
247.0000,3.540000
248.0000,3.470000
249.0000,3.410000
250.0000,3.400000
251.0000,3.400000
252.0000,3.400000
253.0000,3.400000
254.0000,3.420000
255.0000,3.440000
256.0000,3.460000
257.0000,3.490000
258.0000,3.500000
259.0000,3.530000
260.0000,3.550000
261.0000,3.560000
262.0000,3.570000
263.0000,3.570000
264.0000,3.580000
265.0000,3.580000
266.0000,3.590000
267.0000,3.590000
268.0000,3.590000
269.0000,3.580000
270.0000,3.570000
271.0000,3.560000
272.0000,3.560000
273.0000,3.560000
274.0000,3.560000
275.0000,3.550000
276.0000,3.530000
277.0000,3.520000
278.0000,3.500000
279.0000,3.490000
280.0000,3.490000
281.0000,3.480000
282.0000,3.470000
283.0000,3.460000
284.0000,3.450000
285.0000,3.440000
286.0000,3.420000
287.0000,3.410000
288.0000,3.390000
289.0000,3.370000
290.0000,3.360000
291.0000,3.340000
292.0000,3.330000
293.0000,3.330000
294.0000,3.330000
295.0000,3.330000
296.0000,3.340000
297.0000,3.340000
298.0000,3.350000
299.0000,3.360000
300.0000,3.390000
301.0000,3.420000
302.0000,3.440000
303.0000,3.460000
304.0000,3.470000
305.0000,3.480000
306.0000,3.490000
307.0000,3.500000
308.0000,3.510000
309.0000,3.510000
310.0000,3.520000
311.0000,3.530000
312.0000,3.530000
313.0000,3.540000
314.0000,3.550000
315.0000,3.550000
316.0000,3.560000
317.0000,3.570000
318.0000,3.590000
319.0000,3.600000
320.0000,3.620000
321.0000,3.640000
322.0000,3.650000
323.0000,3.670000
324.0000,3.690000
325.0000,3.710000
326.0000,3.720000
327.0000,3.710000
328.0000,3.710000
329.0000,3.700000
330.0000,3.670000
331.0000,3.640000
332.0000,3.600000
333.0000,3.550000
334.0000,3.490000
335.0000,3.430000
336.0000,3.360000
337.0000,3.260000
338.0000,3.200000
339.0000,3.120000
340.0000,3.050000
341.0000,2.980000
342.0000,2.910000
343.0000,2.820000
344.0000,2.730000
345.0000,2.650000
346.0000,2.480000
347.0000,2.450000
348.0000,2.240000
349.0000,2.200000
##END=
