##TITLE=Propane, 2-nitro-2-nitroso-
##JCAMP-DX=4.24
##DATA TYPE=UV/VIS SPECTRUM
##ORIGIN=INSTITUTE OF ENERGY PROBLEMS OF CHEMICAL PHYSICS, RAS
##OWNER=INEP CP RAS, NIST OSRD
Collection (C) 2007 copyright by the U.S. Secretary of Commerce
on behalf of the United States of America. All rights reserved.
##CAS REGISTRY NO=5275-46-7
##MOLFORM=C3H6N2O3
##MP=75
##SOURCE REFERENCE=RAS UV No. 9305
##$NIST SQUIB=1951EDW/TAT826
##$NIST SOURCE=TYUGLMTE
##SPECTROMETER/DATA SYSTEM=Beckman DU
##XUNITS=Wavelength (nm)
##YUNITS=Logarithm epsilon
##XFACTOR=1.0
##YFACTOR=1.0
##FIRSTX=231
##LASTX=295.36
##FIRSTY=4.079
##MAXX=295.36
##MINX=231
##MAXY=4.079
##MINY=3.514
##NPOINTS=108
##$REF AUTHOR=Edwars Jr., W.R.; Tate, C.W.
##$REF JOURNAL=Anal. Chem.
##$REF VOLUME=23
##$REF PAGE=826
##$REF DATE=1951
##XYPOINTS=(XY..XY)
231.00,4.079
231.52,4.075
232.04,4.071
232.56,4.066
233.08,4.062
233.60,4.058
234.04,4.053
234.56,4.049
234.99,4.043
235.34,4.038
235.77,4.033
236.21,4.027
236.55,4.022
236.82,4.016
237.16,4.010
237.51,4.005
237.77,3.999
238.03,3.993
238.29,3.987
238.55,3.980
238.81,3.974
239.07,3.967
239.25,3.960
239.51,3.953
239.68,3.946
239.77,3.938
240.03,3.931
240.46,3.925
240.90,3.919
241.33,3.912
241.85,3.906
242.37,3.900
242.90,3.894
243.50,3.888
243.94,3.880
244.63,3.875
245.24,3.870
245.85,3.865
246.46,3.859
246.98,3.853
247.59,3.847
248.19,3.840
248.80,3.834
249.41,3.828
250.02,3.823
250.63,3.816
251.23,3.809
251.84,3.804
252.45,3.798
253.06,3.790
253.75,3.786
254.45,3.780
255.06,3.773
255.75,3.768
256.45,3.762
257.14,3.755
257.84,3.749
258.36,3.739
259.05,3.734
259.75,3.729
260.44,3.722
261.14,3.714
261.83,3.707
262.53,3.700
263.31,3.695
263.92,3.688
264.52,3.680
265.22,3.674
265.91,3.668
266.61,3.661
267.30,3.653
268.00,3.648
268.69,3.641
269.39,3.634
270.08,3.629
270.78,3.624
271.47,3.617
272.16,3.609
272.86,3.602
273.64,3.597
274.34,3.591
275.03,3.585
275.82,3.579
276.60,3.573
277.31,3.568
278.16,3.563
278.94,3.559
279.72,3.557
280.51,3.555
281.29,3.553
282.04,3.552
282.84,3.552
283.63,3.551
284.41,3.551
285.20,3.551
285.98,3.549
286.76,3.545
287.57,3.542
288.32,3.540
289.07,3.540
289.86,3.538
290.67,3.534
291.45,3.527
292.23,3.523
293.01,3.521
293.80,3.518
294.58,3.516
295.36,3.514
##END=
