##TITLE=Tetrafluoro-1,4-benzoquinone
##JCAMP-DX=4.24
##DATA TYPE=UV/VIS SPECTRUM
##ORIGIN=INSTITUTE OF ENERGY PROBLEMS OF CHEMICAL PHYSICS, RAS
##OWNER=INEP CP RAS, NIST OSRD
Collection (C) 2007 copyright by the U.S. Secretary of Commerce
on behalf of the United States of America. All rights reserved.
##CAS REGISTRY NO=527-21-9
##MOLFORM=C6F4O2
##MP=183-186
##BP=sub
##SOURCE REFERENCE=RAS UV No. 59
##$NIST SQUIB=1964JAK/SHT701-702
##$NIST SOURCE=TSGMTE
##SPECTROMETER/DATA SYSTEM=Spectrophotometer SF-16
##XUNITS=Wavelength (nm)
##YUNITS=Logarithm epsilon
##XFACTOR=1.000000
##YFACTOR=1.000000
##FIRSTX=230.0000
##LASTX=469.0000
##FIRSTY=3.48001
##MAXX=469
##MINX=230
##MAXY=3.48001
##MINY=2.21
##NPOINTS=240
##$REF AUTHOR=Jakobson, G.G.; Shteingardts, V.D.; Vorozhtsov, N.N.
##$REF TITLE=Synthesis of polyfluorochloroquinones
##$REF JOURNAL=Zh. Vses. Khim. Ova. im. D. I. Mendeleeva
##$REF VOLUME=9
##$REF PAGE=701-702
##$REF DATE=1964
##XYPOINTS=(XY..XY)
230.0000,3.480007
231.0000,3.470000
232.0000,3.460000
233.0000,3.440000
234.0000,3.430000
235.0000,3.410000
236.0000,3.400000
237.0000,3.380000
238.0000,3.350000
239.0000,3.330000
240.0000,3.320001
241.0000,3.310000
242.0000,3.300000
243.0000,3.290000
244.0000,3.280000
245.0000,3.270000
246.0000,3.260000
247.0000,3.250000
248.0000,3.240000
249.0000,3.240000
250.0000,3.229989
251.0000,3.220000
252.0000,3.220000
253.0000,3.210000
254.0000,3.200000
255.0000,3.200000
256.0000,3.190000
257.0000,3.180000
258.0000,3.180000
259.0000,3.170000
260.0000,3.169998
261.0000,3.160000
262.0000,3.160000
263.0000,3.150000
264.0000,3.140000
265.0000,3.140000
266.0000,3.130000
267.0000,3.120000
268.0000,3.120000
269.0000,3.110000
270.0000,3.099991
271.0000,3.100000
272.0000,3.090000
273.0000,3.080000
274.0000,3.080000
275.0000,3.070000
276.0000,3.060000
277.0000,3.050000
278.0000,3.040000
279.0000,3.030000
280.0000,3.019988
281.0000,3.010000
282.0000,2.990000
283.0000,2.980000
284.0000,2.960000
285.0000,2.940000
286.0000,2.920000
287.0000,2.880000
288.0000,2.860000
289.0000,2.840000
290.0000,2.829998
291.0000,2.810000
292.0000,2.800000
293.0000,2.780000
294.0000,2.770000
295.0000,2.750000
296.0000,2.740000
297.0000,2.720000
298.0000,2.710000
299.0000,2.690000
300.0000,2.680000
301.0000,2.660000
302.0000,2.650000
303.0000,2.630000
304.0000,2.620000
305.0000,2.610000
306.0000,2.590000
307.0000,2.580000
308.0000,2.570000
309.0000,2.550000
310.0000,2.549996
311.0000,2.540000
312.0000,2.530000
313.0000,2.520000
314.0000,2.510000
315.0000,2.500000
316.0000,2.500000
317.0000,2.490000
318.0000,2.480000
319.0000,2.480000
320.0000,2.480007
321.0000,2.480000
322.0000,2.480000
323.0000,2.480000
324.0000,2.470000
325.0000,2.470000
326.0000,2.470000
327.0000,2.470000
328.0000,2.470000
329.0000,2.470000
330.0000,2.480007
331.0000,2.480000
332.0000,2.480000
333.0000,2.480000
334.0000,2.480000
335.0000,2.480000
336.0000,2.490000
337.0000,2.490000
338.0000,2.500000
339.0000,2.510000
340.0000,2.509995
341.0000,2.520000
342.0000,2.520000
343.0000,2.530000
344.0000,2.540000
345.0000,2.550000
346.0000,2.550000
347.0000,2.560000
348.0000,2.570000
349.0000,2.580000
350.0000,2.580001
351.0000,2.590000
352.0000,2.600000
353.0000,2.610000
354.0000,2.620000
355.0000,2.630000
356.0000,2.640000
357.0000,2.640000
358.0000,2.650000
359.0000,2.660000
360.0000,2.670005
361.0000,2.680000
362.0000,2.690000
363.0000,2.700000
364.0000,2.710000
365.0000,2.720000
366.0000,2.730000
367.0000,2.740000
368.0000,2.740000
369.0000,2.750000
370.0000,2.760000
371.0000,2.770000
372.0000,2.780000
373.0000,2.790000
374.0000,2.790000
375.0000,2.800000
376.0000,2.810000
377.0000,2.820000
378.0000,2.820000
379.0000,2.830000
380.0000,2.839999
381.0000,2.840000
382.0000,2.850000
383.0000,2.860000
384.0000,2.860000
385.0000,2.870000
386.0000,2.870000
387.0000,2.880000
388.0000,2.880000
389.0000,2.890000
390.0000,2.890002
391.0000,2.900000
392.0000,2.910000
393.0000,2.910000
394.0000,2.920000
395.0000,2.920000
396.0000,2.930000
397.0000,2.930000
398.0000,2.930000
399.0000,2.940000
400.0000,2.939998
401.0000,2.940000
402.0000,2.940000
403.0000,2.940000
404.0000,2.950000
405.0000,2.950000
406.0000,2.950000
407.0000,2.950000
408.0000,2.950000
409.0000,2.940000
410.0000,2.939998
411.0000,2.940000
412.0000,2.940000
413.0000,2.940000
414.0000,2.940000
415.0000,2.940000
416.0000,2.930000
417.0000,2.930000
418.0000,2.930000
419.0000,2.920000
420.0000,2.919998
421.0000,2.920000
422.0000,2.910000
423.0000,2.910000
424.0000,2.900000
425.0000,2.900000
426.0000,2.890000
427.0000,2.880000
428.0000,2.880000
429.0000,2.870000
430.0000,2.860002
431.0000,2.860000
432.0000,2.850000
433.0000,2.840000
434.0000,2.830000
435.0000,2.820000
436.0000,2.810000
437.0000,2.800000
438.0000,2.780000
439.0000,2.770000
440.0000,2.760000
441.0000,2.740000
442.0000,2.730000
443.0000,2.710000
444.0000,2.690000
445.0000,2.680000
446.0000,2.660000
447.0000,2.640000
448.0000,2.630000
449.0000,2.610000
450.0000,2.590005
451.0000,2.570000
452.0000,2.550000
453.0000,2.530000
454.0000,2.510000
455.0000,2.500000
456.0000,2.480000
457.0000,2.460000
458.0000,2.450000
459.0000,2.430000
460.0000,2.410001
461.0000,2.390000
462.0000,2.370000
463.0000,2.350000
464.0000,2.330000
465.0000,2.300000
466.0000,2.280000
467.0000,2.260000
468.0000,2.230000
469.0000,2.210000
##END=
