##TITLE=2-hydroxy-3-nitrobenzaldehyde
##JCAMP-DX=4.24
##DATA TYPE=UV/VIS SPECTRUM
##ORIGIN=INSTITUTE OF ENERGY PROBLEMS OF CHEMICAL PHYSICS, RAS
##OWNER=INEP CP RAS, NIST OSRD
Collection (C) 2007 copyright by the U.S. Secretary of Commerce
on behalf of the United States of America. All rights reserved.
##CAS REGISTRY NO=5274-70-4
##MOLFORM=C7H5NO4
##MP=108.5-109
##SOURCE REFERENCE=RAS UV No. 23063
##$NIST SQUIB=1976BRA/GAL200
##$NIST SOURCE=TYUGLMTE
##SPECTROMETER/DATA SYSTEM=VSU-2
##XUNITS=Wavelength (nm)
##YUNITS=Logarithm epsilon
##XFACTOR=1.0
##YFACTOR=1.0
##FIRSTX=208.286
##LASTX=379.48
##FIRSTY=4.244
##MAXX=379.48
##MINX=208.286
##MAXY=4.244
##MINY=2.786
##NPOINTS=118
##$REF AUTHOR=Braude, Ye.V.; Gal'bershtam, M.A.
##$REF JOURNAL=Khim. Geterosikl. Soedin.
##$REF PAGE=200
##$REF DATE=1976
##XYPOINTS=(XY..XY)
208.286,4.244
209.786,4.233
211.286,4.220
212.786,4.205
214.286,4.191
215.786,4.178
217.286,4.167
218.786,4.158
220.286,4.152
221.786,4.148
223.286,4.145
224.786,4.144
226.286,4.143
227.786,4.143
229.286,4.143
230.786,4.143
232.286,4.142
233.786,4.139
235.286,4.136
236.786,4.131
238.286,4.125
239.786,4.117
241.286,4.108
242.786,4.098
244.286,4.086
245.786,4.072
247.286,4.056
248.786,4.036
250.286,4.012
251.709,3.978
253.209,3.953
254.709,3.925
256.209,3.896
257.709,3.866
259.209,3.834
260.709,3.802
262.209,3.769
263.709,3.735
265.209,3.701
266.709,3.667
268.209,3.634
269.709,3.602
271.209,3.570
272.709,3.540
274.209,3.512
275.709,3.486
277.209,3.462
278.709,3.439
280.209,3.420
281.709,3.402
283.209,3.386
284.709,3.372
286.209,3.360
287.709,3.349
289.209,3.340
290.709,3.331
292.209,3.323
293.709,3.316
293.775,3.315
295.275,3.311
296.775,3.306
298.275,3.303
299.775,3.301
301.275,3.301
302.775,3.303
304.275,3.307
305.775,3.314
307.275,3.324
308.775,3.337
310.275,3.352
311.775,3.369
313.275,3.388
314.775,3.409
316.275,3.430
317.775,3.452
319.275,3.474
320.775,3.495
322.275,3.515
323.775,3.533
325.275,3.551
326.775,3.567
326.885,3.568
328.385,3.585
329.885,3.600
331.385,3.613
332.885,3.623
334.385,3.631
335.885,3.636
337.385,3.640
338.885,3.641
340.385,3.641
341.885,3.639
343.385,3.635
344.885,3.629
346.385,3.621
347.885,3.611
349.385,3.598
350.885,3.583
352.385,3.565
353.885,3.545
355.385,3.521
356.885,3.493
358.385,3.463
359.885,3.430
361.385,3.394
362.885,3.357
362.980,3.355
364.480,3.317
365.980,3.277
367.480,3.234
368.980,3.188
370.480,3.139
371.980,3.087
373.480,3.032
374.980,2.973
376.480,2.913
377.980,2.850
379.480,2.786
##END=
