##TITLE=Duroquinone
##JCAMP-DX=4.24
##DATA TYPE=UV/VIS SPECTRUM
##ORIGIN=INSTITUTE OF ENERGY PROBLEMS OF CHEMICAL PHYSICS, RAS
##OWNER=INEP CP RAS, NIST OSRD
Collection (C) 2007 copyright by the U.S. Secretary of Commerce
on behalf of the United States of America. All rights reserved.
##CAS REGISTRY NO=527-17-3
##MOLFORM=C10H12O2
##MP=111.5
##SOURCE REFERENCE=RAS UV No. 562
##$NIST SQUIB=1949DEZ263
##$NIST SOURCE=TSGMTE
##SPECTROMETER/DATA SYSTEM=Spectrophotometer SF-16
##XUNITS=Wavelength (nm)
##YUNITS=Logarithm epsilon
##XFACTOR=1.000000
##YFACTOR=1.000000
##FIRSTX=220.0000
##LASTX=289.0000
##FIRSTY=3.32
##MAXX=289
##MINX=220
##MAXY=4.29
##MINY=2.43
##NPOINTS=70
##$REF AUTHOR=Dezina, A.M.
##$REF JOURNAL=Synthesis of Organic Compounds (in Rus.)
##$REF VOLUME=2
##$REF PAGE=263
##$REF DATE=1949
##XYPOINTS=(XY..XY)
220.0000,3.320001
221.0000,3.320000
222.0000,3.320000
223.0000,3.320000
224.0000,3.320000
225.0000,3.320000
226.0000,3.310000
227.0000,3.310000
228.0000,3.330000
229.0000,3.350000
230.0000,3.369995
231.0000,3.400000
232.0000,3.430000
233.0000,3.460000
234.0000,3.490000
235.0000,3.530000
236.0000,3.570000
237.0000,3.600000
238.0000,3.640000
239.0000,3.680000
240.0000,3.720002
241.0000,3.760000
242.0000,3.800000
243.0000,3.830000
244.0000,3.870000
245.0000,3.900000
246.0000,3.930000
247.0000,3.960000
248.0000,3.990000
249.0000,4.020000
250.0000,4.049993
251.0000,4.080000
252.0000,4.100000
253.0000,4.130000
254.0000,4.150000
255.0000,4.170000
256.0000,4.190000
257.0000,4.230000
258.0000,4.240000
259.0000,4.260000
260.0000,4.270003
261.0000,4.270000
262.0000,4.270000
263.0000,4.270000
264.0000,4.270000
265.0000,4.280000
266.0000,4.280000
267.0000,4.280000
268.0000,4.290000
269.0000,4.280000
270.0000,4.280009
271.0000,4.260000
272.0000,4.240000
273.0000,4.190000
274.0000,4.120000
275.0000,4.050000
276.0000,3.980000
277.0000,3.900000
278.0000,3.810000
279.0000,3.720000
280.0000,3.620001
281.0000,3.500000
282.0000,3.390000
283.0000,3.260000
284.0000,3.120000
285.0000,2.980000
286.0000,2.840000
287.0000,2.700000
288.0000,2.550000
289.0000,2.430000
##END=
