##TITLE=alpha-(2,3-dihydro-3-oxo-1H-isoindol-1-ylidene)-1H-benzimidazole-2-acetonitrile
##JCAMP-DX=4.24
##DATA TYPE=UV/VIS SPECTRUM
##ORIGIN=INSTITUTE OF ENERGY PROBLEMS OF CHEMICAL PHYSICS, RAS
##OWNER=INEP CP RAS, NIST OSRD
Collection (C) 2007 copyright by the U.S. Secretary of Commerce
on behalf of the United States of America. All rights reserved.
##CAS REGISTRY NO=52821-73-5
##MOLFORM=C17H10N4O
##SOURCE REFERENCE=RAS UV No. 22952
##$NIST SQUIB=1977LEP/697
##$NIST SOURCE=TYUGLMTE
##SPECTROMETER/DATA SYSTEM=unknown
##XUNITS=Wavelength (nm)
##YUNITS=Logarithm epsilon
##XFACTOR=1.0
##YFACTOR=1.0
##FIRSTX=331.378
##LASTX=473.9
##FIRSTY=3.84
##MAXX=473.9
##MINX=331.378
##MAXY=4.3
##MINY=3.097
##NPOINTS=89
##$REF AUTHOR=L'Eplattenier, F.A.; et al.
##$REF JOURNAL=Helv. Chim. Acta
##$REF VOLUME=60
##$REF PAGE=697
##$REF DATE=1977
##XYPOINTS=(XY..XY)
331.378,3.840
333.378,3.854
335.378,3.870
337.378,3.887
339.378,3.907
341.378,3.927
343.378,3.947
345.378,3.968
347.378,3.988
349.378,4.009
351.378,4.029
353.378,4.048
355.378,4.068
357.378,4.087
359.378,4.105
361.378,4.124
363.378,4.141
365.378,4.159
367.378,4.176
369.378,4.192
371.378,4.208
373.378,4.223
375.378,4.237
377.378,4.249
379.378,4.259
381.378,4.267
383.378,4.271
385.254,4.274
386.754,4.276
388.254,4.279
389.754,4.283
391.254,4.287
392.754,4.290
394.254,4.294
395.754,4.297
397.254,4.299
398.754,4.300
400.254,4.300
401.754,4.298
403.254,4.294
404.754,4.288
406.254,4.280
407.754,4.270
409.254,4.258
410.754,4.245
410.910,4.245
412.410,4.230
413.910,4.217
415.410,4.204
416.910,4.193
418.410,4.183
419.910,4.173
421.410,4.163
422.910,4.153
424.410,4.143
425.910,4.131
427.410,4.117
428.910,4.102
430.410,4.085
431.910,4.065
433.410,4.042
434.910,4.016
436.098,3.995
437.598,3.962
439.098,3.931
440.598,3.898
442.098,3.863
443.598,3.826
445.098,3.787
446.598,3.745
448.098,3.701
449.598,3.657
451.098,3.615
452.598,3.578
452.900,3.570
454.400,3.533
455.900,3.497
457.400,3.463
458.900,3.429
460.400,3.397
461.900,3.364
463.400,3.331
464.900,3.298
466.400,3.265
467.900,3.231
469.400,3.196
470.900,3.162
472.400,3.129
473.900,3.097
##END=
