##TITLE=1(2H)-Naphthalenone, 3,4-dihydro-
##JCAMP-DX=4.24
##DATA TYPE=UV/VIS SPECTRUM
##ORIGIN=INSTITUTE OF ENERGY PROBLEMS OF CHEMICAL PHYSICS, RAS
##OWNER=INEP CP RAS, NIST OSRD
Collection (C) 2007 copyright by the U.S. Secretary of Commerce
on behalf of the United States of America. All rights reserved.
##CAS REGISTRY NO=529-34-0
##MOLFORM=C10H10O
##MP=8
##BP=115(6)
##SOURCE REFERENCE=RAS UV No. 551
##$NIST SQUIB=1949ORC/REG2743-2746
##$NIST SOURCE=TSGMTE
##SPECTROMETER/DATA SYSTEM=n.i.g.
##XUNITS=Wavelength (nm)
##YUNITS=Logarithm epsilon
##XFACTOR=1.000000
##YFACTOR=1.000000
##FIRSTX=210.0000
##LASTX=309.0000
##FIRSTY=4.10998
##MAXX=309
##MINX=210
##MAXY=4.10998
##MINY=2.77
##NPOINTS=100
##$REF AUTHOR=Orchin, M.; Reggel, L.; Friedel, R.A.
##$REF TITLE=Aromatic cyclodehydrogenation. IX. Further studies on ring oxygen compounds
##$REF JOURNAL=J. Am. Chem. Soc.
##$REF VOLUME=71
##$REF PAGE=2743-2746
##$REF DATE=1949
##XYPOINTS=(XY..XY)
210.0000,4.109983
211.0000,4.090000
212.0000,4.070000
213.0000,4.040000
214.0000,4.010000
215.0000,3.940000
216.0000,3.850000
217.0000,3.730000
218.0000,3.640000
219.0000,3.570000
220.0000,3.519999
221.0000,3.470000
222.0000,3.450000
223.0000,3.450000
224.0000,3.450000
225.0000,3.470000
226.0000,3.500000
227.0000,3.520000
228.0000,3.550000
229.0000,3.580000
230.0000,3.620001
231.0000,3.670000
232.0000,3.700000
233.0000,3.740000
234.0000,3.780000
235.0000,3.810000
236.0000,3.850000
237.0000,3.880000
238.0000,3.900000
239.0000,3.930000
240.0000,3.960000
241.0000,3.980000
242.0000,4.000000
243.0000,4.020000
244.0000,4.040000
245.0000,4.050000
246.0000,4.060000
247.0000,4.060000
248.0000,4.060000
249.0000,4.060000
250.0000,4.060018
251.0000,4.050000
252.0000,4.040000
253.0000,4.030000
254.0000,4.010000
255.0000,3.990000
256.0000,3.960000
257.0000,3.940000
258.0000,3.890000
259.0000,3.830000
260.0000,3.780000
261.0000,3.730000
262.0000,3.660000
263.0000,3.590000
264.0000,3.490000
265.0000,3.420000
266.0000,3.340000
267.0000,3.260000
268.0000,3.190000
269.0000,3.130000
270.0000,3.080013
271.0000,3.040000
272.0000,3.020000
273.0000,3.010000
274.0000,3.010000
275.0000,3.020000
276.0000,3.040000
277.0000,3.050000
278.0000,3.070000
279.0000,3.090000
280.0000,3.109983
281.0000,3.130000
282.0000,3.150000
283.0000,3.160000
284.0000,3.190000
285.0000,3.200000
286.0000,3.220000
287.0000,3.230000
288.0000,3.240000
289.0000,3.260000
290.0000,3.260000
291.0000,3.260000
292.0000,3.260000
293.0000,3.260000
294.0000,3.260000
295.0000,3.260000
296.0000,3.250000
297.0000,3.250000
298.0000,3.240000
299.0000,3.220000
300.0000,3.189995
301.0000,3.160000
302.0000,3.140000
303.0000,3.110000
304.0000,3.060000
305.0000,3.010000
306.0000,2.960000
307.0000,2.900000
308.0000,2.830000
309.0000,2.770000
##END=
