##TITLE=9-Fluoroanthracene
##JCAMP-DX=4.24
##DATA TYPE=UV/VIS SPECTRUM
##ORIGIN=INSTITUTE OF ENERGY PROBLEMS OF CHEMICAL PHYSICS, RAS
##OWNER=INEP CP RAS, NIST OSRD
Collection (C) 2007 copyright by the U.S. Secretary of Commerce
on behalf of the United States of America. All rights reserved.
##CAS REGISTRY NO=529-85-1
##MOLFORM=C14H9F
##MP=102-103
##SOURCE REFERENCE=RAS UV No. 15218
##$NIST SQUIB=1968LAP/1674
##$NIST SOURCE=TYUGLMTE
##SPECTROMETER/DATA SYSTEM=unknown
##XUNITS=Wavelength (nm)
##YUNITS=Logarithm epsilon
##XFACTOR=1.0
##YFACTOR=1.0
##FIRSTX=315.55
##LASTX=391.93
##FIRSTY=2.845
##MAXX=391.93
##MINX=315.55
##MAXY=3.888
##MINY=2.835
##NPOINTS=124
##$REF AUTHOR=Lapouyade, P.; et al.
##$REF JOURNAL=Compt. rend.
##$REF VOLUME=266
##$REF PAGE=1674
##$REF DATE=1968
##XYPOINTS=(XY..XY)
315.55,2.845
316.07,2.876
316.42,2.906
316.76,2.937
317.28,2.967
317.80,2.998
318.32,3.028
318.84,3.059
319.35,3.086
319.87,3.117
320.74,3.144
321.43,3.171
321.95,3.202
322.64,3.229
323.33,3.256
323.85,3.283
324.71,3.310
325.40,3.338
326.27,3.361
327.30,3.382
328.68,3.395
330.07,3.385
331.10,3.365
332.14,3.344
333.35,3.324
334.91,3.321
336.12,3.341
336.98,3.368
337.50,3.399
338.02,3.426
338.88,3.453
339.40,3.484
339.74,3.514
340.61,3.541
341.30,3.569
341.99,3.596
342.68,3.623
343.37,3.650
344.06,3.677
344.58,3.704
345.96,3.718
347.00,3.694
347.52,3.667
348.04,3.640
348.56,3.609
348.90,3.579
349.59,3.552
349.94,3.521
350.63,3.494
351.15,3.467
352.36,3.446
353.57,3.467
354.43,3.494
355.47,3.518
355.99,3.548
356.68,3.575
357.20,3.606
357.54,3.637
358.41,3.664
358.58,3.694
359.10,3.725
359.62,3.755
360.13,3.783
360.65,3.810
361.34,3.837
362.04,3.864
363.07,3.888
364.45,3.871
364.97,3.840
365.49,3.813
366.01,3.783
366.36,3.752
366.53,3.721
366.70,3.691
366.87,3.660
367.22,3.630
367.56,3.599
367.91,3.569
368.08,3.538
368.26,3.507
368.43,3.477
368.77,3.446
369.12,3.416
369.47,3.385
370.33,3.358
371.19,3.331
372.58,3.344
373.27,3.372
373.79,3.402
373.96,3.433
374.13,3.463
374.30,3.494
374.82,3.524
375.17,3.555
375.51,3.586
375.69,3.616
376.55,3.643
377.41,3.670
378.28,3.698
378.80,3.728
379.32,3.759
380.18,3.783
381.39,3.803
382.60,3.820
384.15,3.813
386.05,3.711
386.23,3.701
386.40,3.691
386.75,3.657
387.09,3.613
387.44,3.470
387.78,3.344
388.13,3.293
388.47,3.256
388.82,3.219
389.16,3.168
389.51,3.120
389.86,3.083
390.20,3.018
390.55,2.977
390.89,2.920
391.24,2.896
391.58,2.865
391.93,2.835
##END=
