##TITLE=1-(methylsulfonyl)-4-(methylthio)naphthalene
##JCAMP-DX=4.24
##DATA TYPE=UV/VIS SPECTRUM
##ORIGIN=INSTITUTE OF ENERGY PROBLEMS OF CHEMICAL PHYSICS, RAS
##OWNER=INEP CP RAS, NIST OSRD
Collection (C) 2007 copyright by the U.S. Secretary of Commerce
on behalf of the United States of America. All rights reserved.
##CAS REGISTRY NO=52959-41-8
##MOLFORM=C12H12O2S2
##MP=174-174.5
##SOURCE REFERENCE=RAS UV No. 23862
##$NIST SQUIB=1974STE/1242
##$NIST SOURCE=TYUGLMTE
##SPECTROMETER/DATA SYSTEM=SF-4
##XUNITS=Wavelength (nm)
##YUNITS=Logarithm epsilon
##XFACTOR=1.0
##YFACTOR=1.0
##FIRSTX=212.272
##LASTX=348.48
##FIRSTY=3.889
##MAXX=348.48
##MINX=212.272
##MAXY=4.15
##MINY=3.108
##NPOINTS=137
##$REF AUTHOR=Stepanov, B.I.; et al.
##$REF JOURNAL=Zhur. Organ. Khim.
##$REF VOLUME=10
##$REF PAGE=1242
##$REF DATE=1974
##XYPOINTS=(XY..XY)
212.272,3.889
213.272,3.884
214.272,3.874
215.272,3.860
216.272,3.844
217.272,3.826
218.272,3.808
219.272,3.791
220.272,3.774
221.272,3.759
222.272,3.745
223.272,3.733
224.272,3.723
225.272,3.716
226.272,3.710
227.272,3.706
228.272,3.704
229.272,3.704
230.272,3.706
231.272,3.709
232.272,3.714
233.272,3.720
234.272,3.726
235.272,3.734
236.272,3.743
237.272,3.752
238.272,3.763
239.272,3.773
240.272,3.785
241.272,3.797
242.272,3.809
243.272,3.823
244.272,3.837
245.272,3.852
246.272,3.867
247.272,3.883
248.272,3.901
249.272,3.918
250.272,3.937
251.055,3.950
252.055,3.972
253.055,3.992
254.055,4.010
255.055,4.026
256.055,4.042
257.055,4.056
258.055,4.069
259.055,4.081
260.055,4.093
261.055,4.103
262.055,4.112
263.055,4.121
264.055,4.128
265.055,4.134
266.055,4.140
267.055,4.144
268.055,4.147
269.055,4.149
270.055,4.150
271.055,4.150
272.055,4.149
273.055,4.146
274.055,4.143
275.055,4.138
276.055,4.133
277.055,4.126
278.055,4.119
279.055,4.111
280.055,4.102
281.055,4.093
282.055,4.083
283.055,4.072
283.963,4.063
285.267,4.050
286.267,4.039
287.267,4.026
288.267,4.011
289.267,3.997
290.267,3.985
291.267,3.975
292.267,3.968
293.267,3.963
294.267,3.961
295.267,3.961
296.267,3.963
297.267,3.966
298.267,3.971
299.267,3.975
300.267,3.980
301.267,3.985
302.267,3.988
303.267,3.991
304.267,3.994
305.480,3.998
306.480,4.001
307.480,4.003
308.480,4.005
309.480,4.005
310.480,4.005
311.480,4.005
312.480,4.004
313.480,4.002
314.480,3.999
315.480,3.994
316.480,3.988
317.480,3.981
318.480,3.972
319.480,3.961
320.480,3.948
321.480,3.933
322.480,3.916
323.480,3.897
324.480,3.876
325.480,3.852
326.480,3.826
327.480,3.799
328.480,3.769
329.480,3.738
330.480,3.706
331.480,3.673
332.480,3.639
333.480,3.604
334.480,3.569
335.480,3.534
336.480,3.499
337.480,3.464
338.480,3.431
339.480,3.398
340.480,3.365
341.480,3.334
342.480,3.304
343.480,3.273
344.480,3.243
345.480,3.212
346.480,3.180
347.480,3.146
348.480,3.108
##END=
