##TITLE=3-bromo-3-(1-methyl-1H-benzimidazol-2-yl)-2-propenoic acid, methyl ester
##JCAMP-DX=4.24
##DATA TYPE=UV/VIS SPECTRUM
##ORIGIN=INSTITUTE OF ENERGY PROBLEMS OF CHEMICAL PHYSICS, RAS
##OWNER=INEP CP RAS, NIST OSRD
Collection (C) 2007 copyright by the U.S. Secretary of Commerce
on behalf of the United States of America. All rights reserved.
##CAS REGISTRY NO=53004-67-4
##MOLFORM=C12H11BrN2O2
##MP=200-201
##SOURCE REFERENCE=RAS UV No. 23650
##$NIST SQUIB=1974KHI408
##$NIST SOURCE=TYUGLMTE
##SPECTROMETER/DATA SYSTEM=SF-4A
##XUNITS=Wavelength (nm)
##YUNITS=Logarithm epsilon
##XFACTOR=1.0
##YFACTOR=1.0
##FIRSTX=237.766
##LASTX=391.914
##FIRSTY=4.16
##MAXX=391.914
##MINX=237.766
##MAXY=4.388
##MINY=2.897
##NPOINTS=105
##$REF AUTHOR=Khim.Geterosikl.Soedin.
##$REF JOURNAL=Khim. Geterosikl. Soedin.
##$REF PAGE=408
##$REF DATE=1974
##XYPOINTS=(XY..XY)
237.766,4.160
239.266,4.153
240.766,4.141
242.266,4.126
243.766,4.110
245.266,4.092
246.766,4.069
248.266,4.040
249.766,4.003
251.266,3.957
252.766,3.903
254.266,3.845
255.707,3.790
257.207,3.725
258.707,3.668
260.207,3.625
261.707,3.601
263.207,3.595
264.707,3.605
266.173,3.622
267.668,3.648
269.163,3.670
270.409,3.693
271.909,3.716
273.409,3.740
274.909,3.766
276.409,3.794
277.909,3.823
279.409,3.854
280.909,3.885
282.409,3.918
283.909,3.951
285.409,3.985
286.909,4.018
288.409,4.051
289.909,4.084
291.409,4.116
292.909,4.146
294.409,4.176
295.909,4.204
297.409,4.230
298.909,4.254
300.409,4.276
301.909,4.297
303.409,4.315
304.909,4.331
306.409,4.345
307.909,4.357
309.409,4.367
310.909,4.375
312.409,4.381
313.909,4.385
315.409,4.388
316.909,4.388
318.409,4.387
319.909,4.385
321.409,4.381
322.909,4.375
324.409,4.368
325.909,4.360
327.409,4.350
328.909,4.339
330.409,4.326
331.909,4.312
333.409,4.295
334.909,4.277
336.409,4.257
337.909,4.234
339.409,4.208
340.909,4.179
342.409,4.148
343.909,4.113
345.409,4.074
345.414,4.068
346.914,4.033
348.414,3.991
349.914,3.945
351.414,3.897
352.914,3.847
354.414,3.797
355.914,3.746
357.414,3.697
358.914,3.648
360.414,3.600
361.914,3.552
363.414,3.505
364.914,3.458
366.414,3.411
367.914,3.365
369.414,3.319
370.914,3.273
372.414,3.228
373.914,3.184
375.414,3.142
376.914,3.101
378.414,3.063
379.914,3.028
381.414,2.997
382.914,2.970
384.414,2.947
385.914,2.930
387.414,2.917
388.914,2.908
390.414,2.902
391.914,2.897
##END=
