##TITLE=N-nitroso-2-benzothiazolamine
##JCAMP-DX=4.24
##DATA TYPE=UV/VIS SPECTRUM
##ORIGIN=INSTITUTE OF ENERGY PROBLEMS OF CHEMICAL PHYSICS, RAS
##OWNER=INEP CP RAS, NIST OSRD
Collection (C) 2007 copyright by the U.S. Secretary of Commerce
on behalf of the United States of America. All rights reserved.
##CAS REGISTRY NO=53004-74-3
##MOLFORM=C7H5N3OS
##SOURCE REFERENCE=RAS UV No. 23641
##$NIST SQUIB=1974SHB/367
##$NIST SOURCE=TYUGLMTE
##SPECTROMETER/DATA SYSTEM=SF-4A
##XUNITS=Wavelength (nm)
##YUNITS=Logarithm epsilon
##XFACTOR=1.0
##YFACTOR=1.0
##FIRSTX=221.036
##LASTX=386.216
##FIRSTY=4.294
##MAXX=386.216
##MINX=221.036
##MAXY=4.295
##MINY=3.048
##NPOINTS=169
##$REF AUTHOR=Shburov, V.V.; et al.
##$REF JOURNAL=Khim. Geterosikl. Soedin.
##$REF PAGE=367
##$REF DATE=1974
##XYPOINTS=(XY..XY)
221.036,4.294
222.036,4.295
223.036,4.292
224.036,4.285
225.036,4.274
226.036,4.259
227.036,4.240
228.036,4.217
229.036,4.191
230.036,4.162
231.036,4.130
232.036,4.095
233.036,4.059
234.036,4.022
235.036,3.983
236.036,3.945
237.036,3.907
238.036,3.870
239.036,3.834
240.036,3.801
241.036,3.771
242.036,3.744
243.036,3.721
244.036,3.702
245.036,3.687
245.929,3.678
246.929,3.669
247.929,3.666
248.929,3.666
249.929,3.666
250.929,3.666
251.929,3.664
252.929,3.661
253.929,3.658
254.814,3.657
255.814,3.658
256.814,3.659
257.814,3.661
258.814,3.660
259.814,3.656
260.497,3.642
261.497,3.631
262.497,3.620
263.497,3.612
264.497,3.605
265.497,3.601
266.497,3.601
267.497,3.604
268.497,3.610
269.497,3.620
270.497,3.634
271.497,3.650
272.497,3.668
273.497,3.689
274.497,3.711
275.497,3.734
276.497,3.756
277.497,3.778
278.497,3.798
279.188,3.810
280.188,3.826
281.188,3.841
282.188,3.856
283.188,3.871
284.188,3.885
285.188,3.899
286.188,3.912
287.188,3.924
288.188,3.935
289.188,3.946
290.188,3.957
291.188,3.966
292.188,3.975
293.188,3.983
294.188,3.991
295.188,3.998
296.188,4.005
297.188,4.011
298.188,4.017
299.188,4.022
300.188,4.027
301.188,4.031
302.188,4.034
303.188,4.037
304.188,4.040
305.188,4.042
306.188,4.043
307.188,4.043
308.188,4.043
309.188,4.042
310.188,4.040
311.188,4.037
312.188,4.034
313.188,4.029
314.188,4.024
315.188,4.018
316.188,4.011
317.188,4.004
318.188,3.996
319.188,3.988
320.188,3.980
320.207,3.981
321.207,3.972
322.207,3.964
323.207,3.955
324.207,3.945
325.207,3.936
326.207,3.927
327.207,3.917
328.207,3.907
329.207,3.898
330.207,3.887
331.207,3.877
332.207,3.867
333.207,3.856
334.207,3.845
335.207,3.834
336.207,3.823
337.207,3.812
338.207,3.800
339.207,3.789
340.207,3.777
341.207,3.765
342.207,3.752
343.207,3.740
344.207,3.727
345.207,3.714
346.207,3.701
347.207,3.687
348.207,3.673
349.207,3.659
350.207,3.644
351.207,3.629
352.207,3.613
353.207,3.596
354.207,3.579
354.216,3.579
355.216,3.563
356.216,3.546
357.216,3.529
358.216,3.511
359.216,3.492
360.216,3.474
361.216,3.456
362.216,3.438
363.216,3.420
364.216,3.403
365.216,3.386
366.216,3.369
367.216,3.352
368.216,3.336
369.216,3.319
370.216,3.303
371.216,3.287
372.216,3.270
373.216,3.254
374.216,3.237
375.216,3.221
376.216,3.204
377.216,3.187
378.216,3.170
379.216,3.154
380.216,3.137
381.216,3.121
382.216,3.105
383.216,3.089
384.216,3.074
385.216,3.061
386.216,3.048
##END=
