##TITLE=alpha,beta-dibromo-N,N-diethyl-1-methyl-1H-benzimidazole-2-propanamide
##JCAMP-DX=4.24
##DATA TYPE=UV/VIS SPECTRUM
##ORIGIN=INSTITUTE OF ENERGY PROBLEMS OF CHEMICAL PHYSICS, RAS
##OWNER=INEP CP RAS, NIST OSRD
Collection (C) 2007 copyright by the U.S. Secretary of Commerce
on behalf of the United States of America. All rights reserved.
##CAS REGISTRY NO=53004-68-5
##MOLFORM=C15H19Br2N3O
##MP=140(dec.)
##SOURCE REFERENCE=RAS UV No. 23649
##$NIST SQUIB=1974POP/408
##$NIST SOURCE=TYUGLMTE
##SPECTROMETER/DATA SYSTEM=SF-4A
##XUNITS=Wavelength (nm)
##YUNITS=Logarithm epsilon
##XFACTOR=1.0
##YFACTOR=1.0
##FIRSTX=222.635
##LASTX=597.548
##FIRSTY=4.355
##MAXX=597.548
##MINX=222.635
##MAXY=4.355
##MINY=3.146
##NPOINTS=377
##$REF AUTHOR=Popov, I.I.; et al.
##$REF JOURNAL=Khim. Geterosikl. Soedin.
##$REF PAGE=408
##$REF DATE=1974
##XYPOINTS=(XY..XY)
222.635,4.355
223.635,4.350
224.635,4.345
225.635,4.339
226.635,4.332
227.635,4.325
228.635,4.318
229.635,4.311
230.635,4.304
231.635,4.297
232.635,4.291
233.635,4.284
234.635,4.277
235.635,4.271
236.635,4.265
237.635,4.259
238.635,4.253
239.635,4.248
240.635,4.242
241.635,4.237
242.635,4.231
243.635,4.226
244.635,4.221
245.635,4.216
246.635,4.210
247.635,4.205
248.635,4.200
249.635,4.195
250.635,4.190
251.635,4.185
252.635,4.180
253.635,4.175
254.635,4.170
255.635,4.165
256.635,4.160
257.635,4.155
258.635,4.151
259.635,4.147
260.635,4.142
261.635,4.139
262.635,4.135
263.635,4.131
264.635,4.128
265.635,4.126
266.635,4.123
267.635,4.121
268.635,4.120
269.635,4.119
270.635,4.118
271.635,4.118
272.635,4.118
273.635,4.118
274.635,4.119
275.635,4.121
276.635,4.122
277.635,4.125
278.635,4.127
279.635,4.130
280.635,4.133
281.635,4.137
282.635,4.141
283.635,4.145
284.635,4.149
285.635,4.153
286.635,4.157
287.635,4.161
288.635,4.166
289.635,4.170
290.635,4.174
291.635,4.178
292.635,4.182
293.635,4.186
294.635,4.190
295.635,4.194
296.635,4.197
297.635,4.201
298.635,4.205
299.635,4.210
300.849,4.220
301.849,4.224
302.849,4.227
303.849,4.231
304.849,4.234
305.849,4.237
306.849,4.240
307.849,4.243
308.849,4.246
309.849,4.248
310.849,4.250
311.849,4.252
312.849,4.253
313.849,4.254
314.849,4.254
315.849,4.254
316.849,4.254
317.849,4.253
318.849,4.252
319.849,4.251
320.849,4.249
321.849,4.247
322.849,4.245
323.849,4.242
324.849,4.239
325.849,4.236
326.849,4.232
327.849,4.228
328.849,4.225
329.849,4.221
330.849,4.216
331.849,4.212
332.849,4.208
333.849,4.203
334.849,4.199
335.849,4.194
336.849,4.190
337.849,4.185
338.849,4.180
339.849,4.176
340.849,4.171
341.849,4.167
342.849,4.163
343.849,4.158
344.849,4.154
345.849,4.150
346.849,4.146
347.849,4.142
348.849,4.138
349.849,4.134
350.849,4.130
351.849,4.126
352.849,4.122
353.849,4.118
354.849,4.115
355.849,4.111
356.849,4.107
357.849,4.103
358.849,4.099
359.849,4.095
360.849,4.091
361.849,4.086
362.849,4.082
363.849,4.077
364.849,4.073
365.849,4.068
366.849,4.063
367.849,4.057
368.849,4.052
369.849,4.046
370.849,4.040
371.849,4.034
372.849,4.027
373.849,4.021
374.849,4.014
375.849,4.008
376.849,4.001
377.849,3.994
378.849,3.987
379.849,3.981
380.239,3.979
381.239,3.973
382.239,3.967
383.239,3.961
384.239,3.954
385.239,3.947
386.239,3.940
387.239,3.933
388.239,3.926
389.239,3.919
390.239,3.912
391.239,3.905
392.239,3.898
393.239,3.891
394.239,3.884
395.239,3.877
396.239,3.870
397.239,3.863
398.239,3.855
399.239,3.848
400.239,3.840
401.239,3.833
402.239,3.825
403.239,3.817
404.239,3.809
405.239,3.801
406.239,3.793
407.239,3.785
408.239,3.776
409.239,3.768
410.239,3.759
411.239,3.750
412.239,3.741
413.239,3.732
414.239,3.723
415.239,3.713
416.239,3.704
417.239,3.695
418.239,3.685
419.239,3.676
420.239,3.667
421.239,3.658
422.239,3.649
423.239,3.640
424.239,3.631
425.239,3.623
426.239,3.614
427.239,3.606
428.239,3.599
429.239,3.591
430.239,3.584
431.239,3.577
432.239,3.571
433.239,3.565
434.239,3.560
435.239,3.555
436.239,3.550
437.239,3.546
438.239,3.542
439.239,3.539
440.239,3.536
441.239,3.534
442.239,3.532
443.239,3.530
444.239,3.529
445.239,3.528
446.239,3.527
447.239,3.527
448.239,3.526
449.239,3.526
450.239,3.526
451.239,3.526
452.239,3.526
453.239,3.526
454.239,3.526
454.925,3.525
455.925,3.524
456.925,3.522
457.925,3.520
458.925,3.518
459.925,3.516
460.925,3.515
461.925,3.513
462.925,3.511
463.925,3.509
464.925,3.508
465.925,3.506
466.925,3.504
467.925,3.502
468.925,3.501
469.925,3.499
470.925,3.497
471.925,3.495
472.925,3.494
473.925,3.492
474.925,3.490
475.925,3.488
476.925,3.486
477.925,3.485
478.925,3.483
479.925,3.481
480.925,3.479
481.925,3.477
482.925,3.475
483.925,3.473
484.925,3.471
485.925,3.469
486.925,3.467
487.925,3.465
488.925,3.463
489.925,3.461
490.925,3.459
491.925,3.457
492.925,3.454
493.925,3.452
494.925,3.450
495.925,3.447
496.925,3.445
497.925,3.443
498.925,3.440
499.925,3.438
500.925,3.435
501.925,3.433
502.925,3.430
503.925,3.427
504.925,3.425
505.925,3.422
506.925,3.419
507.925,3.416
508.925,3.413
509.925,3.411
510.925,3.408
511.925,3.405
512.925,3.402
513.925,3.399
514.925,3.396
515.925,3.393
516.925,3.390
517.925,3.387
518.925,3.384
519.925,3.381
520.925,3.377
521.925,3.374
522.925,3.371
523.925,3.368
524.925,3.365
525.925,3.362
526.925,3.360
527.925,3.357
528.925,3.354
529.925,3.351
530.925,3.349
531.925,3.346
532.925,3.344
533.925,3.341
534.925,3.339
535.925,3.337
536.925,3.335
537.925,3.333
538.925,3.332
539.925,3.330
540.925,3.329
541.925,3.328
542.548,3.327
543.548,3.327
544.548,3.328
545.548,3.327
546.548,3.327
547.548,3.327
548.548,3.326
549.548,3.326
550.548,3.325
551.548,3.324
552.548,3.323
553.548,3.322
554.548,3.320
555.548,3.319
556.548,3.317
557.548,3.316
558.548,3.314
559.548,3.312
560.548,3.310
561.548,3.308
562.548,3.305
563.548,3.303
564.548,3.300
565.548,3.298
566.548,3.295
567.548,3.292
568.548,3.290
569.548,3.287
570.548,3.284
571.548,3.281
572.548,3.278
573.548,3.274
574.548,3.271
575.548,3.268
576.548,3.264
577.548,3.260
578.548,3.257
579.548,3.253
580.548,3.249
581.548,3.245
582.548,3.241
583.548,3.236
584.548,3.232
585.548,3.227
586.548,3.222
587.548,3.217
588.548,3.211
589.548,3.205
590.548,3.199
591.548,3.193
592.548,3.186
593.548,3.179
594.548,3.172
595.548,3.164
596.548,3.155
597.548,3.146
##END=
