##TITLE=Methanone, [4-(dimethylamino)phenyl]phenyl-
##JCAMP-DX=4.24
##DATA TYPE=UV/VIS SPECTRUM
##ORIGIN=INSTITUTE OF ENERGY PROBLEMS OF CHEMICAL PHYSICS, RAS
##OWNER=INEP CP RAS, NIST OSRD
Collection (C) 2007 copyright by the U.S. Secretary of Commerce
on behalf of the United States of America. All rights reserved.
##CAS REGISTRY NO=530-44-9
##MOLFORM=C15H15NO
##MP=91
##SOURCE REFERENCE=RAS UV No. 19837
##$NIST SQUIB=1966FEId11/14
##$NIST SOURCE=TYUGLMTE
##SPECTROMETER/DATA SYSTEM=Perkin- Elmer
##XUNITS=Wavelength (nm)
##YUNITS=Logarithm epsilon
##XFACTOR=1.0
##YFACTOR=1.0
##FIRSTX=210.42
##LASTX=401.92
##FIRSTY=4.362
##MAXX=401.92
##MINX=210.42
##MAXY=4.435
##MINY=1.151
##NPOINTS=270
##$REF AUTHOR=Feichtmayer, W.
##$REF JOURNAL=UV atlas of organic compounds
##$REF VOLUME=2
##$REF PAGE=D11/14
##$REF DATE=1966
##XYPOINTS=(XY..XY)
210.42,4.362
210.51,4.360
210.61,4.357
210.71,4.353
210.80,4.351
210.90,4.349
211.00,4.347
211.09,4.342
211.19,4.340
211.48,4.308
211.87,4.272
212.26,4.240
212.65,4.203
213.04,4.175
213.44,4.148
213.83,4.122
214.23,4.100
214.63,4.075
215.03,4.062
215.43,4.043
215.83,4.032
216.24,4.019
216.64,4.011
217.05,4.002
217.46,3.989
217.87,3.981
218.28,3.970
218.69,3.963
219.11,3.955
219.53,3.951
219.95,3.946
220.37,3.944
220.79,3.944
221.21,3.946
221.64,3.946
222.06,3.951
222.49,3.955
222.92,3.957
223.35,3.966
223.79,3.968
224.22,3.974
224.66,3.978
225.10,3.987
225.54,3.996
225.98,3.998
226.42,4.004
226.87,4.011
227.31,4.019
227.76,4.015
228.21,4.021
228.66,4.032
229.12,4.041
229.57,4.049
230.03,4.060
230.49,4.068
230.95,4.077
231.42,4.085
231.88,4.096
232.35,4.107
232.82,4.118
233.29,4.128
233.76,4.139
234.24,4.148
234.71,4.158
235.19,4.169
235.67,4.180
236.15,4.188
236.64,4.199
237.12,4.208
237.61,4.218
238.10,4.223
238.59,4.229
239.09,4.233
239.59,4.240
240.08,4.242
240.58,4.244
241.09,4.250
241.59,4.253
242.10,4.255
242.61,4.255
243.12,4.259
243.63,4.257
244.15,4.255
244.67,4.255
245.19,4.250
245.71,4.244
246.23,4.240
246.76,4.231
247.29,4.220
247.82,4.212
248.35,4.201
248.89,4.190
249.43,4.180
249.97,4.167
250.51,4.154
251.06,4.139
251.60,4.126
252.15,4.113
252.70,4.094
253.26,4.070
253.82,4.049
254.38,4.030
254.94,4.004
255.50,3.983
256.07,3.955
256.64,3.925
257.21,3.893
257.79,3.861
258.25,3.834
258.79,3.804
259.33,3.769
259.95,3.732
260.57,3.681
261.25,3.616
261.74,3.571
262.48,3.494
263.12,3.425
263.68,3.370
264.28,3.319
264.89,3.270
265.50,3.227
266.11,3.207
266.73,3.188
267.34,3.180
267.96,3.171
268.59,3.165
269.22,3.167
269.85,3.173
270.48,3.182
271.11,3.190
271.75,3.199
272.39,3.210
273.04,3.222
273.69,3.231
274.34,3.244
274.99,3.257
275.66,3.270
276.38,3.285
277.00,3.301
277.76,3.320
278.57,3.340
279.19,3.356
279.82,3.373
280.56,3.393
281.07,3.410
281.70,3.425
282.41,3.447
283.11,3.462
283.78,3.477
284.48,3.494
285.19,3.512
285.89,3.529
286.60,3.546
287.32,3.565
288.03,3.582
288.76,3.601
289.48,3.621
290.21,3.642
290.94,3.661
291.68,3.681
292.41,3.698
293.16,3.719
293.90,3.739
294.65,3.760
295.41,3.779
296.17,3.801
296.93,3.824
297.70,3.846
298.47,3.871
299.24,3.893
300.02,3.912
300.80,3.931
301.59,3.953
302.38,3.972
303.17,3.987
303.97,4.008
304.77,4.019
305.58,4.036
306.39,4.053
307.21,4.068
308.03,4.081
308.85,4.098
309.68,4.113
310.52,4.128
311.35,4.143
312.20,4.160
313.04,4.175
313.89,4.190
314.75,4.205
315.61,4.225
316.48,4.244
317.35,4.259
318.22,4.274
319.10,4.291
319.99,4.304
320.88,4.321
321.77,4.334
322.67,4.347
323.58,4.360
324.49,4.372
325.40,4.383
326.32,4.392
327.25,4.402
328.18,4.413
329.12,4.422
330.06,4.430
331.01,4.432
331.96,4.435
332.92,4.435
333.88,4.435
334.85,4.430
335.82,4.420
336.80,4.402
337.79,4.387
338.78,4.357
339.78,4.328
340.78,4.295
341.79,4.268
342.81,4.238
343.83,4.205
344.86,4.167
345.89,4.128
346.93,4.077
347.98,4.034
349.03,3.987
350.09,3.940
351.15,3.888
352.23,3.839
353.31,3.788
354.39,3.741
355.48,3.691
356.58,3.631
357.69,3.586
358.80,3.535
359.92,3.484
361.10,3.434
362.23,3.389
363.43,3.345
364.48,3.312
365.56,3.274
366.78,3.231
367.95,3.180
369.13,3.120
370.32,3.068
371.51,3.012
372.71,2.953
373.92,2.901
375.13,2.856
376.36,2.788
377.59,2.736
378.83,2.687
380.07,2.633
381.33,2.582
382.55,2.518
383.88,2.458
385.11,2.403
386.44,2.347
387.68,2.284
389.35,2.175
391.02,2.047
392.35,1.952
393.69,1.850
395.04,1.738
395.99,1.660
396.68,1.604
397.45,1.533
398.45,1.449
399.14,1.383
401.57,1.175
401.92,1.151
##END=
