##TITLE=Naphthalene, 1,7-dimethoxy-
##JCAMP-DX=4.24
##DATA TYPE=UV/VIS SPECTRUM
##ORIGIN=INSTITUTE OF ENERGY PROBLEMS OF CHEMICAL PHYSICS, RAS
##OWNER=INEP CP RAS, NIST OSRD
Collection (C) 2007 copyright by the U.S. Secretary of Commerce
on behalf of the United States of America. All rights reserved.
##CAS REGISTRY NO=5309-18-2
##MOLFORM=C12H12O2
##SOURCE REFERENCE=RAS UV No. 1053
##$NIST SQUIB=1955BIR/HEX263-266
##$NIST SOURCE=TSGMTE
##SPECTROMETER/DATA SYSTEM=Beckman spectophotometer
##XUNITS=Wavelength (nm)
##YUNITS=Logarithm epsilon
##XFACTOR=1.000000
##YFACTOR=1.000000
##FIRSTX=219.5270
##LASTX=339.8577
##FIRSTY=4.5087
##MAXX=339.858
##MINX=219.527
##MAXY=4.58519
##MINY=2.6344
##NPOINTS=416
##$REF AUTHOR=Birch, A.J.; Hextall, P.
##$REF TITLE=Studies of xanthorrhoea resins. II. Xanthorrhoein and hydroxypaeonol
##$REF JOURNAL=Aust. J. Chem.
##$REF VOLUME=8
##$REF PAGE=263-266
##$REF DATE=1955
##XYPOINTS=(XY..XY)
219.5270,4.508697
220.6075,4.534471
221.4141,4.548937
221.6226,4.555250
222.6005,4.570792
222.8256,4.567103
223.5698,4.580852
224.1213,4.574849
224.5587,4.585189
225.5236,4.574685
225.5956,4.583557
226.7089,4.575714
227.2551,4.569124
227.9270,4.561417
228.1678,4.553732
228.5898,4.546765
229.0158,4.539798
229.2782,4.540423
229.2782,4.540423
229.4496,4.532827
229.6261,4.530971
229.7636,4.538896
229.8048,4.530908
229.9875,4.530843
230.1408,4.535733
230.1780,4.530776
230.5488,4.527057
231.3077,4.539707
231.4204,4.540372
231.5410,4.540954
231.6654,4.541375
232.6027,4.554321
232.6603,4.553118
232.7257,4.551752
232.7279,4.554981
232.7951,4.550306
232.7951,4.550306
232.8509,4.552333
232.8531,4.555562
232.9106,4.554199
232.9781,4.555982
234.0866,4.560974
234.1470,4.562999
234.2153,4.564862
234.2874,4.566644
236.1355,4.562045
236.1871,4.559143
236.2425,4.556160
236.3057,4.553015
236.3057,4.553015
236.3126,4.560189
236.4315,4.554300
236.4937,4.558331
236.5572,4.555425
236.6827,4.556470
237.7738,4.541374
237.8340,4.543147
237.9022,4.544917
237.9743,4.546685
239.4389,4.531099
239.4910,4.528821
239.5469,4.526383
239.6107,4.523862
240.8876,4.497218
240.8876,4.497218
240.8919,4.502240
240.8963,4.507262
240.9006,4.512284
241.4970,4.494956
241.9382,4.490282
241.9882,4.493241
242.2365,4.491971
242.4845,4.490541
242.5289,4.480133
242.7229,4.477912
242.7262,4.481752
242.7294,4.485432
242.7326,4.489032
242.7326,4.489032
243.6131,4.457146
243.6708,4.456035
243.7364,4.454843
243.7383,4.457806
243.8058,4.453489
243.8058,4.453489
243.8614,4.455264
243.8635,4.458386
243.9210,4.457037
243.9885,4.458807
244.5133,4.427405
244.5133,4.427405
244.6373,4.426644
244.6391,4.428690
244.7613,4.425882
244.7647,4.429815
244.8691,4.406468
244.8691,4.406468
244.8746,4.412819
244.8800,4.419010
244.8853,4.425121
244.8853,4.425121
244.8903,4.430860
244.8903,4.430860
244.9431,4.424024
245.0037,4.417185
245.0159,4.405327
245.0684,4.410345
245.1705,4.404103
245.3289,4.402718
245.3289,4.402718
245.4126,4.395871
245.5004,4.389022
245.5960,4.382171
245.6072,4.395085
245.6571,4.390296
245.7109,4.385347
245.7466,4.350542
245.7466,4.350542
245.7718,4.353045
245.7725,4.380315
245.8050,4.355545
245.8422,4.358044
245.8718,4.351202
245.8988,4.320707
245.9303,4.356205
245.9970,4.351783
246.0222,4.354286
246.0458,4.315352
246.0977,4.324225
246.1220,4.352204
246.1918,4.313347
246.2208,4.322387
246.3438,4.320550
246.3878,4.227600
246.4136,4.257373
246.4136,4.257373
246.4158,4.259871
246.4179,4.262289
246.4199,4.264547
246.4619,4.312973
246.4619,4.312973
246.4669,4.318712
246.4983,4.225754
246.5085,4.304345
246.5591,4.295715
246.5743,4.194045
246.5939,4.259104
246.5982,4.264019
246.6167,4.223825
246.6175,4.287083
246.6272,4.298203
246.6790,4.152864
246.6790,4.152864
246.6797,4.296377
246.6812,4.155375
246.6834,4.157886
246.6856,4.160396
246.7099,4.188376
246.7099,4.188376
246.7361,4.294470
246.7389,4.221735
246.7470,4.231062
246.7781,4.260833
246.7803,4.263330
246.7915,4.195763
246.8002,4.292401
246.8041,4.229248
246.8054,4.154866
246.8098,4.159888
246.8367,4.190843
246.8691,4.227431
246.9317,4.156708
246.9339,4.159219
246.9381,4.225612
246.9635,4.193310
246.9702,4.262559
247.0158,4.110046
247.0579,4.158471
247.0773,4.113240
247.0903,4.195777
247.1466,4.116352
247.1746,4.067290
247.1746,4.067290
247.2198,4.119303
247.2669,4.071098
247.3591,4.074747
247.3649,4.070027
247.4367,4.072886
247.4513,4.078316
247.5017,4.033805
247.5017,4.033805
247.5269,4.036294
247.5269,4.036294
247.5600,4.038702
247.5600,4.038702
247.5969,4.040948
247.8126,3.961214
247.8497,4.003900
247.8682,3.962989
247.9022,4.002074
247.9278,3.964762
247.9585,4.000168
247.9648,3.931379
247.9953,3.966532
248.0224,3.930176
248.0227,3.998098
248.0878,3.928810
248.0900,3.932039
248.1313,3.897591
248.1572,3.927364
248.1572,3.927364
248.1872,3.899618
248.2130,3.929391
248.2152,3.932619
248.2468,3.901484
248.2727,3.931257
248.3143,3.903268
248.3402,3.933040
248.3482,3.863281
248.3733,3.865597
248.4731,3.860512
248.4731,3.860512
248.4989,3.863626
248.5324,3.866578
248.5699,3.869449
248.7805,3.804428
248.9058,3.805089
249.0309,3.805669
249.1560,3.806090
249.2776,3.741101
249.3131,3.706748
249.3152,3.709166
249.3378,3.742874
249.4060,3.744644
249.4410,3.703727
249.4491,3.713053
249.4781,3.746413
249.6175,3.701870
249.6197,3.704381
249.6219,3.706892
249.6241,3.709403
249.9708,3.609742
249.9728,3.612067
250.0872,3.606977
250.0949,3.615944
250.7832,3.547168
250.8388,3.548942
250.8984,3.550715
250.9659,3.552485
257.8754,3.408675
258.0000,3.408631
258.1247,3.408587
258.2493,3.408543
259.7513,3.436001
260.2736,3.438993
260.5797,3.443656
260.8697,3.452471
265.8494,3.547237
266.0692,3.553512
266.2929,3.559626
266.5244,3.565658
268.3889,3.600523
268.6929,3.601120
269.0007,3.601636
269.3163,3.601990
269.8810,3.616502
270.4498,3.618295
270.9332,3.622032
271.7456,3.630915
272.6760,3.635969
273.5952,3.648563
273.8089,3.648487
273.8889,3.651808
276.0442,3.679634
276.1694,3.680294
276.2946,3.680875
276.4196,3.681296
277.1608,3.693952
277.6151,3.699838
277.9852,3.704479
278.1902,3.710453
278.1902,3.710453
278.2789,3.709239
278.3713,3.707864
278.4716,3.706407
279.4024,3.711820
279.5276,3.712480
279.6528,3.713060
279.7778,3.713481
281.0775,3.713023
281.4860,3.709530
282.4509,3.704166
282.9890,3.699432
284.3664,3.686028
284.5654,3.689546
284.6900,3.689502
284.7694,3.684478
284.8146,3.689459
284.9389,3.682929
284.9393,3.689415
285.0202,3.680057
286.0334,3.677905
286.1580,3.677861
286.2826,3.677818
286.4073,3.677774
290.4356,3.640830
290.4356,3.640830
290.5614,3.642208
290.5614,3.642208
290.6872,3.643506
290.6872,3.643506
290.8129,3.644644
291.5347,3.635060
291.7180,3.634996
291.9092,3.634928
292.1044,3.634859
292.6401,3.616012
293.6137,3.591003
294.5644,3.567039
294.9756,3.536966
295.6862,3.514469
295.7434,3.512655
295.8084,3.510838
295.8774,3.509019
297.6707,3.423028
297.6971,3.421623
297.7273,3.424404
297.7613,3.422598
297.7954,3.420791
297.8294,3.418985
297.8294,3.418985
300.1568,3.330613
300.2093,3.328801
300.2658,3.326987
300.3302,3.325170
302.6641,3.244330
302.7856,3.240593
302.9068,3.236696
303.0280,3.232720
303.7387,3.210223
303.7639,3.212725
303.7971,3.215225
303.8342,3.217724
303.8342,3.217724
303.9229,3.216603
304.0156,3.215401
304.1159,3.214037
304.8441,3.191174
304.8956,3.188272
304.9511,3.185289
305.0143,3.182144
314.0208,3.217720
315.0381,3.240033
315.5497,3.249528
315.6134,3.246940
315.7933,3.248299
315.9771,3.249576
315.9938,3.254341
316.1687,3.250692
316.3611,3.246677
316.6331,3.246993
316.8757,3.249791
317.2965,3.257470
321.5079,3.226203
321.7227,3.227496
321.8884,3.226973
322.1472,3.224184
322.5195,3.222258
322.6092,3.222227
322.7028,3.222194
322.8044,3.222158
330.1829,3.310696
330.2894,3.318711
330.5932,3.330485
330.8659,3.338443
333.1641,3.339426
333.1981,3.337607
333.1981,3.337607
333.2321,3.335708
333.2321,3.335708
333.2659,3.333649
333.2659,3.333649
334.7393,3.259798
334.7414,3.262216
334.8556,3.257019
334.8637,3.266346
335.1811,3.201288
335.3605,3.201929
335.5436,3.202489
335.7346,3.202887
336.0016,3.079718
336.0408,3.041284
336.1177,3.023489
336.1410,3.035176
336.1465,3.041526
336.1519,3.047717
336.1572,3.053829
336.2982,3.011080
336.7756,2.904701
336.7756,2.904701
336.7778,2.907212
336.7800,2.909723
336.7822,2.912234
336.9561,2.906684
336.9605,2.911706
337.1404,2.908506
337.1426,2.911017
337.3325,2.910246
337.7891,2.800287
337.7913,2.802798
337.7934,2.805309
337.7956,2.807820
339.1231,2.634401
339.3614,2.636111
339.6076,2.637819
339.8577,2.639525
##END=
