##TITLE=7-methoxy-2H-1-benzopyran-2-one
##JCAMP-DX=4.24
##DATA TYPE=UV/VIS SPECTRUM
##ORIGIN=INSTITUTE OF ENERGY PROBLEMS OF CHEMICAL PHYSICS, RAS
##OWNER=INEP CP RAS, NIST OSRD
Collection (C) 2007 copyright by the U.S. Secretary of Commerce
on behalf of the United States of America. All rights reserved.
##CAS REGISTRY NO=531-59-9
##MOLFORM=C10H8O3
##MP=119-120
##SOURCE REFERENCE=RAS UV No. 23966
##$NIST SQUIB=1974SCH/6994
##$NIST SOURCE=TYUGLMTE
##SPECTROMETER/DATA SYSTEM=Cary 17
##XUNITS=Wavelength (nm)
##YUNITS=Logarithm epsilon
##XFACTOR=1.0
##YFACTOR=1.0
##FIRSTX=244.898
##LASTX=359.488
##FIRSTY=3.568
##MAXX=359.488
##MINX=244.898
##MAXY=4.163
##MINY=2.336
##NPOINTS=116
##$REF AUTHOR=De Schryver, F.C.; et al.
##$REF JOURNAL=J. Am. Chem. Soc.
##$REF VOLUME=96
##$REF PAGE=6994
##$REF DATE=1974
##XYPOINTS=(XY..XY)
244.898,3.568
245.898,3.494
246.898,3.459
247.898,3.450
248.898,3.455
249.898,3.465
250.898,3.473
251.898,3.474
252.898,3.465
253.898,3.445
254.898,3.414
255.898,3.373
256.898,3.325
257.898,3.274
258.898,3.224
259.898,3.179
260.898,3.144
261.898,3.125
262.898,3.126
263.813,3.147
264.813,3.195
265.813,3.240
266.813,3.282
267.813,3.322
268.813,3.360
269.813,3.396
270.813,3.430
271.813,3.462
272.813,3.493
273.813,3.522
274.813,3.550
275.813,3.577
276.813,3.602
277.813,3.626
278.813,3.649
279.813,3.672
280.813,3.693
281.813,3.714
282.813,3.734
283.813,3.754
284.813,3.773
285.813,3.791
286.813,3.809
287.593,3.825
288.593,3.838
289.593,3.852
290.593,3.867
291.593,3.882
292.593,3.896
293.593,3.909
294.593,3.920
295.593,3.931
296.593,3.939
297.593,3.947
298.593,3.954
299.593,3.960
300.593,3.966
301.593,3.972
302.593,3.978
303.593,3.986
304.593,3.994
305.593,4.004
306.593,4.016
307.593,4.029
308.593,4.044
309.593,4.060
310.593,4.076
311.593,4.093
312.593,4.110
313.512,4.122
314.537,4.133
315.434,4.141
316.434,4.146
317.434,4.151
318.473,4.158
319.373,4.163
320.434,4.161
321.434,4.162
322.434,4.163
323.434,4.163
324.434,4.161
325.434,4.159
326.434,4.155
327.434,4.150
328.434,4.143
329.434,4.135
330.434,4.125
331.434,4.113
332.434,4.100
333.434,4.085
334.434,4.068
335.434,4.049
336.434,4.028
337.434,4.005
338.434,3.980
339.380,3.954
340.350,3.925
341.350,3.891
342.350,3.859
343.350,3.826
344.350,3.792
345.350,3.756
346.350,3.716
347.350,3.670
348.350,3.618
349.350,3.559
350.350,3.491
351.350,3.413
352.350,3.324
353.350,3.222
354.350,3.106
355.350,2.975
356.488,2.812
357.488,2.662
358.488,2.503
359.488,2.336
##END=
