##TITLE=Triphenylformazan
##JCAMP-DX=4.24
##DATA TYPE=UV/VIS SPECTRUM
##ORIGIN=INSTITUTE OF ENERGY PROBLEMS OF CHEMICAL PHYSICS, RAS
##OWNER=INEP CP RAS, NIST OSRD
Collection (C) 2007 copyright by the U.S. Secretary of Commerce
on behalf of the United States of America. All rights reserved.
##CAS REGISTRY NO=531-52-2
##MOLFORM=C19H16N4
##MP=173.5
##SOURCE REFERENCE=RAS UV No. 23843
##$NIST SQUIB=1974AVR/STE1298
##$NIST SOURCE=TYUGLMTE
##SPECTROMETER/DATA SYSTEM=SF4M
##XUNITS=Wavelength (nm)
##YUNITS=Logarithm epsilon
##XFACTOR=1.0
##YFACTOR=1.0
##FIRSTX=222.151
##LASTX=579.49
##FIRSTY=4.015
##MAXX=579.49
##MINX=222.151
##MAXY=4.294
##MINY=3.092
##NPOINTS=363
##$REF AUTHOR=Avramenko, G.V.; Stepanov, B.I.
##$REF JOURNAL=Zhur. Obshchei Khim.
##$REF VOLUME=44
##$REF PAGE=1298
##$REF DATE=1974
##XYPOINTS=(XY..XY)
222.151,4.015
223.151,4.017
224.151,4.019
225.151,4.022
226.151,4.025
227.151,4.029
228.151,4.032
229.151,4.033
230.151,4.029
231.151,4.021
231.862,4.009
232.862,3.993
233.862,3.971
234.862,3.951
235.862,3.931
236.862,3.913
237.862,3.898
238.862,3.886
239.862,3.877
240.862,3.872
241.862,3.872
242.862,3.876
243.862,3.883
244.862,3.895
245.862,3.909
246.862,3.925
247.862,3.942
249.129,3.961
250.129,3.974
251.129,3.986
252.129,4.000
253.129,4.014
254.129,4.030
255.129,4.046
256.129,4.064
257.129,4.082
258.129,4.099
259.129,4.115
260.129,4.129
261.129,4.141
262.129,4.150
263.784,4.160
264.991,4.166
266.335,4.163
267.768,4.167
268.958,4.175
269.958,4.181
270.958,4.183
271.958,4.182
272.958,4.174
273.755,4.160
274.755,4.144
275.755,4.134
276.755,4.129
277.755,4.129
278.755,4.134
279.755,4.141
280.755,4.151
281.755,4.162
282.498,4.173
283.684,4.187
284.684,4.199
285.684,4.210
286.684,4.220
287.684,4.230
288.684,4.240
289.684,4.249
290.684,4.259
291.684,4.268
292.684,4.276
293.684,4.284
294.684,4.289
295.684,4.293
296.684,4.294
297.684,4.293
298.684,4.289
299.684,4.283
300.684,4.273
301.684,4.262
302.684,4.249
303.684,4.235
304.701,4.224
305.701,4.214
306.701,4.201
307.701,4.188
308.701,4.173
309.701,4.158
310.701,4.142
311.701,4.125
312.701,4.107
313.701,4.090
314.701,4.072
315.701,4.054
316.701,4.036
317.701,4.018
318.701,4.000
319.701,3.982
320.701,3.963
321.701,3.945
322.701,3.927
323.701,3.909
324.701,3.891
325.701,3.873
326.701,3.855
327.701,3.837
328.701,3.819
329.701,3.801
330.701,3.782
331.701,3.764
332.701,3.745
333.701,3.726
334.701,3.707
335.701,3.688
336.701,3.668
337.701,3.648
338.701,3.628
339.701,3.608
340.701,3.588
341.701,3.568
342.701,3.548
343.701,3.527
344.701,3.507
345.701,3.487
346.701,3.467
347.701,3.447
348.701,3.428
349.701,3.408
350.696,3.391
351.696,3.371
352.696,3.353
353.696,3.336
354.696,3.320
355.696,3.305
356.696,3.291
357.696,3.277
358.696,3.264
359.696,3.252
360.696,3.240
361.696,3.229
362.696,3.218
363.696,3.207
364.696,3.196
365.696,3.186
366.696,3.176
367.696,3.166
368.696,3.156
369.696,3.146
370.696,3.137
371.696,3.128
372.696,3.120
373.696,3.112
374.696,3.106
375.696,3.100
376.696,3.096
377.696,3.093
378.696,3.092
379.696,3.094
380.696,3.098
381.483,3.104
382.483,3.111
383.483,3.116
384.483,3.120
385.483,3.122
386.483,3.124
387.483,3.125
388.483,3.125
389.483,3.126
390.483,3.127
391.483,3.129
392.483,3.131
393.620,3.134
394.464,3.135
395.321,3.137
396.167,3.140
397.022,3.146
398.049,3.154
399.035,3.162
400.046,3.174
401.046,3.187
402.046,3.201
403.046,3.214
403.930,3.226
404.930,3.240
405.930,3.253
406.930,3.266
407.930,3.278
408.930,3.290
409.930,3.301
410.930,3.313
411.930,3.323
412.930,3.334
413.930,3.344
414.930,3.354
415.930,3.364
416.930,3.374
417.930,3.384
418.930,3.394
419.930,3.404
420.930,3.415
421.930,3.425
422.930,3.435
423.001,3.436
424.001,3.448
425.001,3.459
426.001,3.471
427.001,3.482
428.001,3.494
429.001,3.507
430.001,3.519
431.001,3.532
432.001,3.545
433.001,3.558
434.001,3.572
435.001,3.585
436.001,3.599
437.001,3.613
438.001,3.627
439.001,3.642
440.001,3.656
441.001,3.671
442.001,3.685
443.001,3.700
444.001,3.715
445.001,3.730
446.001,3.746
447.001,3.761
448.001,3.777
449.001,3.792
450.001,3.808
451.001,3.824
452.001,3.839
453.001,3.855
454.001,3.871
455.001,3.887
456.001,3.903
457.252,3.923
458.252,3.939
459.252,3.954
460.252,3.970
461.252,3.986
462.252,4.002
463.252,4.018
464.252,4.033
465.252,4.047
466.252,4.061
467.252,4.074
468.252,4.086
469.252,4.096
470.252,4.106
471.252,4.114
472.252,4.120
473.252,4.124
474.252,4.127
475.234,4.125
476.114,4.128
476.964,4.131
477.815,4.134
478.665,4.137
479.516,4.137
480.366,4.140
481.217,4.140
482.067,4.140
482.917,4.137
483.768,4.137
484.618,4.134
485.469,4.128
486.319,4.122
487.185,4.116
488.020,4.111
488.871,4.108
489.721,4.105
490.572,4.102
491.422,4.099
492.272,4.099
493.123,4.096
493.973,4.093
494.824,4.087
495.674,4.084
496.525,4.081
497.375,4.076
498.226,4.070
499.076,4.058
499.927,4.050
500.762,4.045
501.627,4.041
502.463,4.037
503.463,4.030
504.463,4.025
505.463,4.022
506.463,4.018
507.463,4.015
508.463,4.011
509.463,4.007
510.463,4.003
511.463,3.998
512.463,3.992
513.463,3.987
514.463,3.982
515.463,3.978
516.463,3.975
517.539,3.971
518.539,3.967
519.547,3.965
520.490,3.961
521.490,3.956
522.490,3.952
523.490,3.949
524.490,3.946
525.490,3.944
526.490,3.941
527.490,3.939
528.490,3.936
529.490,3.934
530.490,3.930
531.490,3.926
532.490,3.922
533.490,3.916
534.490,3.910
535.490,3.903
536.490,3.896
537.490,3.887
538.490,3.877
539.490,3.867
540.490,3.855
541.490,3.843
542.490,3.830
543.490,3.816
544.490,3.802
545.490,3.786
546.490,3.770
547.490,3.753
548.490,3.736
549.490,3.718
550.490,3.700
551.490,3.681
552.490,3.662
553.490,3.643
554.490,3.624
555.490,3.604
556.490,3.584
557.490,3.564
558.490,3.545
559.490,3.525
560.490,3.506
561.490,3.486
562.490,3.467
563.490,3.448
564.490,3.429
565.490,3.411
566.490,3.392
567.490,3.374
568.490,3.356
569.490,3.338
570.490,3.320
571.490,3.302
572.490,3.284
573.490,3.265
574.490,3.246
575.490,3.227
576.490,3.207
577.490,3.186
578.490,3.164
579.490,3.140
##END=
