##TITLE=2,3-dihydro-5,6-dimethyl-2-thioxothieno[2,3-d]pyrimidin-4(1H)-one, monopotassium salt
##JCAMP-DX=4.24
##DATA TYPE=UV/VIS SPECTRUM
##ORIGIN=INSTITUTE OF ENERGY PROBLEMS OF CHEMICAL PHYSICS, RAS
##OWNER=INEP CP RAS, NIST OSRD
Collection (C) 2007 copyright by the U.S. Secretary of Commerce
on behalf of the United States of America. All rights reserved.
##CAS REGISTRY NO=53162-51-9
##MOLFORM=C8H7KN2OS2
##MP=>350
##SOURCE REFERENCE=RAS UV No. 23657
##$NIST SQUIB=1974DOB/486
##$NIST SOURCE=TYUGLMTE
##SPECTROMETER/DATA SYSTEM=SF-4A
##XUNITS=Wavelength (nm)
##YUNITS=Logarithm epsilon
##XFACTOR=1.0
##YFACTOR=1.0
##FIRSTX=234.073
##LASTX=487.04
##FIRSTY=4.197
##MAXX=487.04
##MINX=234.073
##MAXY=4.211
##MINY=3.662
##NPOINTS=260
##$REF AUTHOR=Dobosh, A.A.; et al.
##$REF JOURNAL=Khim. Geterosikl. Soedin.
##$REF PAGE=486
##$REF DATE=1974
##XYPOINTS=(XY..XY)
234.073,4.197
234.480,4.194
235.480,4.187
236.480,4.180
237.480,4.173
238.480,4.167
239.480,4.161
240.480,4.155
241.480,4.150
242.480,4.145
243.480,4.140
244.480,4.136
245.480,4.132
246.480,4.128
247.480,4.124
248.480,4.120
249.480,4.115
250.480,4.111
251.480,4.105
252.480,4.100
253.480,4.094
254.480,4.088
255.480,4.081
256.480,4.074
257.480,4.066
258.480,4.057
259.480,4.049
260.480,4.040
261.480,4.031
262.480,4.021
263.480,4.012
264.480,4.002
265.480,3.992
266.480,3.983
267.480,3.973
268.480,3.964
269.480,3.955
270.480,3.945
271.480,3.936
272.480,3.926
273.480,3.916
274.480,3.905
275.480,3.893
276.480,3.878
277.480,3.862
278.464,3.847
279.464,3.812
280.464,3.774
281.464,3.738
282.464,3.708
283.464,3.686
284.464,3.672
285.464,3.665
286.464,3.663
287.464,3.663
288.464,3.664
288.645,3.663
289.645,3.662
290.645,3.665
291.645,3.671
292.645,3.680
293.645,3.697
294.645,3.727
295.645,3.779
296.669,3.908
296.698,3.938
296.790,3.926
297.790,3.958
298.790,3.978
299.790,3.991
300.790,4.002
301.790,4.013
302.790,4.025
303.790,4.038
304.790,4.051
305.790,4.063
306.157,4.066
307.157,4.073
308.157,4.080
309.157,4.088
310.157,4.094
311.157,4.100
312.157,4.104
313.157,4.107
314.157,4.108
315.157,4.109
316.157,4.108
317.157,4.107
318.157,4.104
319.157,4.101
320.157,4.098
321.157,4.094
322.040,4.090
323.040,4.083
324.040,4.076
325.040,4.070
326.040,4.063
327.040,4.056
328.040,4.048
329.040,4.041
330.040,4.033
331.040,4.026
332.040,4.018
333.040,4.010
334.040,4.002
335.040,3.995
336.040,3.988
337.040,3.982
338.040,3.976
339.040,3.972
340.040,3.969
341.040,3.967
342.040,3.966
343.040,3.967
344.040,3.969
345.040,3.973
346.040,3.979
347.040,3.986
348.040,3.995
348.512,4.000
349.512,4.010
350.512,4.020
351.512,4.029
352.512,4.036
353.512,4.043
354.512,4.050
355.512,4.056
356.512,4.061
357.512,4.066
358.512,4.071
359.512,4.075
360.512,4.079
361.512,4.084
362.512,4.088
363.512,4.093
364.512,4.098
365.512,4.104
366.512,4.110
367.512,4.117
368.512,4.124
369.512,4.132
370.512,4.140
371.512,4.149
371.725,4.150
372.725,4.165
373.725,4.177
374.725,4.187
375.725,4.194
376.725,4.200
377.725,4.205
378.725,4.208
379.725,4.210
380.725,4.211
381.725,4.211
382.725,4.211
383.725,4.211
384.725,4.210
385.725,4.209
386.725,4.208
387.725,4.207
388.725,4.205
389.725,4.203
390.725,4.200
391.725,4.196
392.725,4.191
393.725,4.184
394.725,4.176
395.725,4.165
396.161,4.163
397.161,4.151
398.161,4.139
399.161,4.126
400.161,4.112
401.161,4.099
402.161,4.085
403.161,4.072
404.161,4.060
405.161,4.048
406.161,4.037
407.161,4.027
408.161,4.017
409.161,4.009
410.161,4.000
411.161,3.993
412.161,3.986
413.161,3.979
414.161,3.973
415.161,3.967
416.161,3.961
417.161,3.955
418.161,3.949
419.161,3.942
420.161,3.936
421.161,3.929
422.161,3.922
423.040,3.914
424.040,3.908
425.040,3.902
426.040,3.896
427.040,3.890
428.040,3.884
429.040,3.878
430.040,3.872
431.040,3.866
432.040,3.860
433.040,3.854
434.040,3.848
435.040,3.842
436.040,3.837
437.040,3.831
438.040,3.826
439.040,3.821
440.040,3.815
441.040,3.810
442.040,3.806
443.040,3.801
444.040,3.796
445.040,3.792
446.040,3.787
447.040,3.783
448.040,3.779
449.040,3.775
450.040,3.771
451.040,3.768
452.040,3.764
453.040,3.761
454.040,3.758
455.040,3.755
456.040,3.752
457.040,3.749
458.040,3.747
459.040,3.744
460.040,3.742
461.040,3.740
462.040,3.738
463.040,3.736
464.040,3.734
465.040,3.732
466.040,3.731
467.040,3.729
468.040,3.728
469.040,3.726
470.040,3.725
471.040,3.724
472.040,3.722
473.040,3.721
474.040,3.720
475.040,3.719
476.040,3.718
477.040,3.717
478.040,3.716
479.040,3.715
480.040,3.713
481.040,3.712
482.040,3.711
483.040,3.710
484.040,3.709
485.040,3.707
486.040,3.706
487.040,3.705
##END=
