##TITLE=4-methoxy-N-(1-methyl-2-piperidinylidene)benzeneamine
##JCAMP-DX=4.24
##DATA TYPE=UV/VIS SPECTRUM
##ORIGIN=INSTITUTE OF ENERGY PROBLEMS OF CHEMICAL PHYSICS, RAS
##OWNER=INEP CP RAS, NIST OSRD
Collection (C) 2007 copyright by the U.S. Secretary of Commerce
on behalf of the United States of America. All rights reserved.
##CAS REGISTRY NO=53257-41-3
##MOLFORM=C13H18N2O
##MP=76-76.5
##SOURCE REFERENCE=RAS UV No. 23742
##$NIST SQUIB=1974GRA/1220
##$NIST SOURCE=TYUGLMTE
##SPECTROMETER/DATA SYSTEM=Hitachi EPS-3
##XUNITS=Wavelength (nm)
##YUNITS=Logarithm epsilon
##XFACTOR=1.0
##YFACTOR=1.0
##FIRSTX=229.242
##LASTX=326.644
##FIRSTY=4.044
##MAXX=326.644
##MINX=229.242
##MAXY=4.201
##MINY=2.548
##NPOINTS=98
##$REF AUTHOR=Granik, V.G.; et al.
##$REF JOURNAL=Khim. Geterosikl. Soedin.
##$REF PAGE=1220
##$REF DATE=1974
##XYPOINTS=(XY..XY)
229.242,4.044
230.242,4.062
231.242,4.079
232.242,4.096
233.242,4.112
234.242,4.127
235.242,4.141
236.242,4.155
237.242,4.167
238.242,4.178
239.242,4.187
240.242,4.194
241.242,4.199
242.242,4.201
243.242,4.200
244.242,4.195
245.242,4.188
246.242,4.177
247.242,4.163
248.242,4.146
249.242,4.126
250.242,4.103
251.471,4.075
252.471,4.054
253.471,4.035
254.471,4.019
255.471,4.006
256.471,3.995
257.471,3.986
258.471,3.978
259.471,3.972
260.471,3.968
261.471,3.964
262.471,3.961
263.471,3.959
264.471,3.957
265.471,3.956
266.471,3.955
267.471,3.953
268.471,3.952
269.471,3.950
270.471,3.949
271.471,3.946
272.471,3.944
273.471,3.941
274.471,3.937
275.471,3.933
276.471,3.929
277.471,3.924
278.471,3.920
279.471,3.914
280.471,3.909
281.471,3.904
282.471,3.898
283.471,3.893
284.471,3.887
285.471,3.882
286.471,3.876
287.471,3.871
288.471,3.865
289.644,3.860
290.644,3.853
291.644,3.846
292.644,3.839
293.644,3.832
294.644,3.824
295.644,3.816
296.644,3.807
297.644,3.799
298.644,3.789
299.644,3.779
300.644,3.769
301.644,3.758
302.644,3.747
303.644,3.734
304.644,3.721
305.644,3.707
306.644,3.691
307.644,3.675
308.644,3.656
309.644,3.636
310.644,3.613
311.644,3.588
312.644,3.560
313.644,3.529
314.644,3.494
315.644,3.456
316.644,3.412
317.644,3.363
318.644,3.308
319.644,3.246
320.644,3.176
321.644,3.098
322.644,3.011
323.644,2.914
324.644,2.805
325.644,2.683
326.644,2.548
##END=
