##TITLE=6-Chloronicotinic acid
##JCAMP-DX=4.24
##DATA TYPE=UV/VIS SPECTRUM
##ORIGIN=INSTITUTE OF ENERGY PROBLEMS OF CHEMICAL PHYSICS, RAS
##OWNER=INEP CP RAS, NIST OSRD
Collection (C) 2007 copyright by the U.S. Secretary of Commerce
on behalf of the United States of America. All rights reserved.
##CAS REGISTRY NO=5326-23-8
##MOLFORM=C6H4ClNO2
##MP=190
##BP=138.5-139.5 (4)
##SOURCE REFERENCE=RAS UV No. 71
##$NIST SQUIB=1961GOL/GOD360-362
##$NIST SOURCE=TSGMTE
##SPECTROMETER/DATA SYSTEM=n.i.g.
##XUNITS=Wavelength (nm)
##YUNITS=Logarithm epsilon
##XFACTOR=1.000000
##YFACTOR=1.000000
##FIRSTX=220.0000
##LASTX=279.0000
##FIRSTY=4.04999
##MAXX=279
##MINX=220
##MAXY=4.1
##MINY=3.07
##NPOINTS=60
##$REF AUTHOR=Gol'dfarb, Y.L.; Godovikova, S.N.
##$REF TITLE=On the structure of the two products of nicotine amidation
##$REF JOURNAL=Izv. Akad. Nauk SSSR, Ser. Khim.
##$REF PAGE=360-362
##$REF DATE=1961
##XYPOINTS=(XY..XY)
220.0000,4.049993
221.0000,4.070000
222.0000,4.080000
223.0000,4.090000
224.0000,4.100000
225.0000,4.100000
226.0000,4.100000
227.0000,4.100000
228.0000,4.090000
229.0000,4.070000
230.0000,4.049993
231.0000,4.030000
232.0000,4.010000
233.0000,3.980000
234.0000,3.950000
235.0000,3.910000
236.0000,3.860000
237.0000,3.810000
238.0000,3.750000
239.0000,3.680000
240.0000,3.600003
241.0000,3.550000
242.0000,3.510000
243.0000,3.470000
244.0000,3.440000
245.0000,3.410000
246.0000,3.400000
247.0000,3.390000
248.0000,3.390000
249.0000,3.400000
250.0000,3.410001
251.0000,3.430000
252.0000,3.440000
253.0000,3.460000
254.0000,3.470000
255.0000,3.490000
256.0000,3.510000
257.0000,3.520000
258.0000,3.540000
259.0000,3.560000
260.0000,3.580001
261.0000,3.590000
262.0000,3.610000
263.0000,3.620000
264.0000,3.640000
265.0000,3.650000
266.0000,3.660000
267.0000,3.670000
268.0000,3.670000
269.0000,3.650000
270.0000,3.620001
271.0000,3.580000
272.0000,3.560000
273.0000,3.560000
274.0000,3.560000
275.0000,3.560000
276.0000,3.540000
277.0000,3.460000
278.0000,3.260000
279.0000,3.070000
##END=
