##TITLE=(E,Z)-bis(phenylmethylene)butanedioic acid
##JCAMP-DX=4.24
##DATA TYPE=UV/VIS SPECTRUM
##ORIGIN=INSTITUTE OF ENERGY PROBLEMS OF CHEMICAL PHYSICS, RAS
##OWNER=INEP CP RAS, NIST OSRD
Collection (C) 2007 copyright by the U.S. Secretary of Commerce
on behalf of the United States of America. All rights reserved.
##CAS REGISTRY NO=53243-90-6
##MOLFORM=C18H14O4
##MP=181-183 (dec.)
##SOURCE REFERENCE=RAS UV No. 23621
##$NIST SQUIB=1974ELB1654
##$NIST SOURCE=TYUGLMTE
##SPECTROMETER/DATA SYSTEM=Perkin-Elmer 137
##XUNITS=Wavelength (nm)
##YUNITS=Logarithm epsilon
##XFACTOR=1.0
##YFACTOR=1.0
##FIRSTX=224.493
##LASTX=352.437
##FIRSTY=4.229
##MAXX=352.437
##MINX=224.493
##MAXY=4.374
##MINY=2.898
##NPOINTS=130
##$REF AUTHOR=Elbe ahd G. Kobrich, H.0L.
##$REF JOURNAL=Chem. Ber.
##$REF VOLUME=107
##$REF PAGE=1654
##$REF DATE=1974
##XYPOINTS=(XY..XY)
224.493,4.229
225.493,4.215
226.493,4.199
227.493,4.183
228.493,4.167
229.493,4.152
230.493,4.139
231.493,4.129
232.493,4.120
233.493,4.115
234.493,4.113
235.493,4.114
236.493,4.117
237.493,4.124
238.493,4.133
239.493,4.144
240.493,4.157
241.493,4.172
242.493,4.188
243.493,4.206
244.493,4.223
245.493,4.241
246.493,4.259
247.493,4.276
248.493,4.292
249.493,4.307
250.493,4.321
251.493,4.334
252.493,4.345
253.493,4.354
254.493,4.361
255.493,4.367
256.493,4.371
257.493,4.374
258.493,4.374
259.493,4.373
260.493,4.370
261.493,4.366
262.493,4.358
263.493,4.348
264.296,4.340
265.296,4.320
266.296,4.303
267.296,4.287
268.296,4.273
269.296,4.260
270.296,4.249
271.296,4.238
272.296,4.228
273.296,4.219
274.296,4.210
275.296,4.201
276.296,4.193
277.296,4.184
278.296,4.176
279.296,4.167
280.296,4.159
281.296,4.151
282.296,4.142
283.296,4.133
284.296,4.124
285.296,4.115
286.296,4.106
287.296,4.097
288.296,4.088
289.296,4.078
290.296,4.068
291.296,4.058
292.296,4.047
293.296,4.037
294.296,4.026
295.296,4.015
296.296,4.003
297.296,3.991
298.296,3.979
299.296,3.967
300.296,3.954
301.296,3.940
302.296,3.926
303.296,3.912
304.296,3.897
305.296,3.881
306.296,3.865
307.296,3.849
308.296,3.833
309.150,3.817
310.150,3.800
311.150,3.784
312.150,3.768
313.150,3.752
314.150,3.737
315.150,3.721
316.150,3.706
317.150,3.690
318.150,3.675
319.150,3.659
320.150,3.643
321.150,3.626
322.150,3.610
323.150,3.593
324.150,3.576
325.150,3.559
326.150,3.541
327.150,3.523
328.150,3.505
329.150,3.486
330.150,3.466
331.150,3.446
332.150,3.425
333.150,3.402
334.150,3.379
335.150,3.354
336.150,3.328
337.381,3.301
337.437,3.296
338.437,3.268
339.437,3.237
340.437,3.206
341.437,3.177
342.437,3.149
343.437,3.122
344.437,3.097
345.437,3.073
346.437,3.049
347.437,3.023
348.437,2.997
349.437,2.970
350.437,2.943
351.437,2.918
352.437,2.898
##END=
