##TITLE=1,2-dihydro-4-hydroxy-2-oxoazuleno[2,1-b]pyridine-10-carbonitrile
##JCAMP-DX=4.24
##DATA TYPE=UV/VIS SPECTRUM
##ORIGIN=INSTITUTE OF ENERGY PROBLEMS OF CHEMICAL PHYSICS, RAS
##OWNER=INEP CP RAS, NIST OSRD
Collection (C) 2007 copyright by the U.S. Secretary of Commerce
on behalf of the United States of America. All rights reserved.
##CAS REGISTRY NO=53299-92-6
##MOLFORM=C14H8N2O2
##MP=354-360 dec.
##SOURCE REFERENCE=RAS UV No. 23895
##$NIST SQUIB=1974NOS/1750
##$NIST SOURCE=TYUGLMTE
##SPECTROMETER/DATA SYSTEM=Hitachi EPS-3
##XUNITS=Wavelength (nm)
##YUNITS=Logarithm epsilon
##XFACTOR=1.0
##YFACTOR=1.0
##FIRSTX=218.266
##LASTX=497.574
##FIRSTY=4.285
##MAXX=497.574
##MINX=218.266
##MAXY=4.709
##MINY=2.645
##NPOINTS=142
##$REF AUTHOR=Nosoe, T.; et al.
##$REF JOURNAL=Bull. Chem. Soc. Japan
##$REF VOLUME=47
##$REF PAGE=1750
##$REF DATE=1974
##XYPOINTS=(XY..XY)
218.266,4.285
220.266,4.302
222.266,4.316
224.266,4.325
226.266,4.329
228.266,4.328
230.266,4.323
232.266,4.315
234.266,4.303
236.266,4.288
238.266,4.271
240.266,4.249
242.266,4.221
244.266,4.185
246.266,4.137
248.266,4.071
249.763,4.020
251.763,3.957
253.763,3.900
255.763,3.857
257.763,3.832
259.763,3.825
261.763,3.832
263.763,3.849
265.763,3.870
267.763,3.892
269.763,3.914
272.199,3.941
274.199,3.968
276.199,4.006
278.199,4.047
280.199,4.085
282.199,4.118
284.199,4.144
286.199,4.163
288.199,4.177
290.199,4.188
292.199,4.197
294.199,4.206
296.199,4.217
298.069,4.226
300.069,4.247
302.069,4.270
304.069,4.298
306.069,4.330
308.069,4.366
310.069,4.407
312.069,4.451
314.069,4.498
316.069,4.544
318.069,4.586
320.069,4.621
320.089,4.621
322.089,4.649
324.089,4.660
326.089,4.665
328.089,4.670
330.089,4.681
332.950,4.703
334.950,4.709
336.950,4.708
338.950,4.695
340.950,4.665
342.441,4.636
343.543,4.608
345.432,4.530
347.543,4.414
349.543,4.284
351.543,4.192
353.543,4.136
355.420,4.099
357.420,4.055
359.420,4.022
361.420,3.997
363.420,3.976
365.420,3.957
367.420,3.938
369.420,3.918
371.420,3.898
373.420,3.877
375.420,3.858
377.420,3.843
379.420,3.832
381.420,3.829
383.420,3.833
385.381,3.840
387.381,3.845
389.381,3.850
391.381,3.851
393.381,3.846
395.381,3.834
397.381,3.815
399.381,3.790
401.381,3.760
403.381,3.726
405.381,3.690
407.381,3.651
409.381,3.611
411.381,3.568
413.381,3.522
415.381,3.470
417.194,3.419
419.194,3.347
421.194,3.248
423.194,3.138
425.194,3.031
427.194,2.934
429.194,2.852
431.194,2.788
433.194,2.740
435.194,2.708
437.194,2.687
439.194,2.674
441.194,2.666
443.194,2.659
445.194,2.652
447.194,2.645
449.286,2.645
451.372,2.651
453.538,2.658
455.538,2.666
457.538,2.672
459.538,2.677
461.538,2.681
463.538,2.686
465.538,2.691
467.538,2.695
469.538,2.701
471.538,2.706
473.538,2.712
475.538,2.717
477.538,2.723
479.538,2.727
481.538,2.731
483.538,2.734
485.538,2.736
487.538,2.736
489.538,2.736
491.538,2.736
493.538,2.737
495.538,2.739
497.574,2.742
##END=
