##TITLE=2,4,6-Cycloheptatrien-1-one, 2-hydroxy-
##JCAMP-DX=4.24
##DATA TYPE=UV/VIS SPECTRUM
##ORIGIN=INSTITUTE OF ENERGY PROBLEMS OF CHEMICAL PHYSICS, RAS
##OWNER=INEP CP RAS, NIST OSRD
Collection (C) 2007 copyright by the U.S. Secretary of Commerce
on behalf of the United States of America. All rights reserved.
##CAS REGISTRY NO=533-75-5
##MOLFORM=C7H6O2
##MP=49-49.5
##SOURCE REFERENCE=RAS UV No. 19840
##$NIST SQUIB=1967AUL/FORf3/3
##$NIST SOURCE=TYUGLMTE
##SPECTROMETER/DATA SYSTEM=Beckman DU
##XUNITS=Wavelength (nm)
##YUNITS=Logarithm epsilon
##XFACTOR=1.0
##YFACTOR=1.0
##FIRSTX=199.91
##LASTX=398.65
##FIRSTY=3.557
##MAXX=398.65
##MINX=199.91
##MAXY=4.386
##MINY=1.26
##NPOINTS=413
##$REF AUTHOR=Aulin-Erdtman, G.; Forbes, E.J.
##$REF JOURNAL=UV atlas of organic compounds
##$REF VOLUME=3
##$REF PAGE=F3/3
##$REF DATE=1967
##XYPOINTS=(XY..XY)
199.91,3.557
200.00,3.559
200.09,3.562
200.17,3.564
200.26,3.566
200.35,3.568
200.44,3.570
200.52,3.572
200.61,3.574
200.70,3.581
201.22,3.600
201.48,3.606
201.75,3.615
202.01,3.624
202.28,3.634
202.54,3.641
202.81,3.647
203.08,3.656
203.35,3.662
203.62,3.671
203.89,3.677
204.16,3.688
204.70,3.711
204.97,3.718
205.24,3.724
205.52,3.737
205.79,3.761
206.07,3.769
206.34,3.776
206.62,3.784
206.90,3.793
207.18,3.810
207.46,3.818
207.74,3.827
208.02,3.840
208.30,3.851
208.58,3.865
208.86,3.878
209.43,3.906
209.72,3.917
210.00,3.930
210.29,3.943
210.58,3.953
210.86,3.962
211.15,3.973
211.44,3.985
211.73,3.998
212.03,4.013
212.32,4.024
212.61,4.041
212.91,4.047
213.20,4.058
213.50,4.069
213.79,4.077
214.09,4.090
214.39,4.097
214.69,4.110
214.99,4.122
215.29,4.135
215.59,4.144
215.89,4.157
216.19,4.161
216.50,4.172
216.80,4.178
217.11,4.187
217.41,4.199
217.72,4.210
218.03,4.217
218.34,4.225
218.65,4.232
218.96,4.242
219.27,4.251
219.58,4.259
219.90,4.266
220.21,4.274
220.53,4.283
220.84,4.287
221.16,4.300
221.48,4.304
221.80,4.311
222.12,4.317
222.44,4.324
222.76,4.330
223.08,4.339
223.41,4.343
223.73,4.349
224.06,4.354
224.38,4.360
224.71,4.364
225.04,4.369
225.37,4.373
225.70,4.375
226.03,4.377
226.36,4.379
226.70,4.381
227.03,4.384
227.37,4.381
227.70,4.379
228.04,4.377
228.38,4.373
228.72,4.371
229.06,4.369
229.40,4.366
229.74,4.369
230.08,4.373
230.43,4.375
230.77,4.379
231.12,4.384
231.47,4.386
231.70,4.384
232.03,4.381
232.52,4.375
232.87,4.369
233.22,4.366
233.57,4.369
233.93,4.375
234.28,4.377
234.64,4.377
235.00,4.375
235.36,4.369
235.72,4.364
235.96,4.362
236.44,4.360
236.81,4.358
237.19,4.355
237.59,4.349
237.90,4.345
238.27,4.341
238.64,4.339
239.01,4.339
239.38,4.339
239.76,4.336
240.13,4.330
240.39,4.328
240.88,4.326
241.26,4.326
241.64,4.326
242.02,4.326
242.37,4.325
242.78,4.324
243.19,4.320
243.55,4.315
243.93,4.306
244.32,4.294
244.71,4.283
245.10,4.268
245.49,4.251
245.88,4.242
246.27,4.240
246.66,4.235
247.06,4.227
247.46,4.223
247.86,4.219
248.26,4.199
248.66,4.176
249.06,4.142
249.47,4.114
249.87,4.069
250.28,4.011
250.68,3.938
251.09,3.844
251.50,3.756
251.91,3.677
252.33,3.594
252.74,3.489
253.16,3.405
253.57,3.356
253.99,3.273
254.41,3.210
254.83,3.148
255.26,3.097
255.68,3.063
256.10,3.041
256.53,3.016
256.96,2.973
257.39,2.949
257.82,2.926
258.25,2.902
258.69,2.885
259.12,2.866
259.56,2.855
260.00,2.842
260.44,2.836
260.88,2.834
261.32,2.832
261.76,2.825
262.21,2.825
262.66,2.821
263.11,2.821
263.56,2.823
264.01,2.823
264.46,2.827
264.92,2.832
265.37,2.838
265.83,2.844
266.29,2.851
266.75,2.857
267.21,2.866
267.68,2.866
268.14,2.877
268.61,2.885
269.08,2.892
269.55,2.898
270.03,2.909
270.50,2.917
270.98,2.928
271.45,2.939
271.93,2.947
272.41,2.958
272.90,2.969
273.38,2.981
273.87,2.992
274.36,3.007
274.85,3.020
275.34,3.035
275.83,3.065
276.32,3.082
276.82,3.097
277.32,3.110
277.82,3.123
278.32,3.140
278.83,3.155
279.33,3.168
279.84,3.178
280.35,3.193
280.86,3.213
281.37,3.230
281.89,3.243
282.41,3.255
282.92,3.273
283.45,3.285
283.97,3.303
284.49,3.309
285.02,3.326
285.55,3.341
286.08,3.360
286.61,3.371
287.15,3.384
287.68,3.401
288.22,3.422
288.76,3.437
289.30,3.452
289.85,3.469
290.39,3.489
290.94,3.495
291.49,3.512
292.05,3.525
292.60,3.538
293.16,3.553
293.72,3.568
294.28,3.577
294.84,3.589
295.41,3.600
295.98,3.611
296.55,3.621
297.12,3.630
297.69,3.645
298.27,3.654
298.85,3.662
299.43,3.675
300.01,3.690
300.60,3.701
301.19,3.711
301.78,3.722
302.37,3.731
302.96,3.735
303.56,3.746
304.16,3.752
304.76,3.761
305.37,3.767
305.97,3.776
306.58,3.782
307.19,3.788
307.81,3.793
308.42,3.797
309.04,3.801
309.67,3.803
310.29,3.810
310.92,3.814
311.54,3.816
312.18,3.818
312.81,3.823
313.45,3.827
314.09,3.831
314.73,3.836
315.37,3.838
316.02,3.842
316.67,3.846
317.32,3.853
317.98,3.857
318.64,3.861
319.30,3.865
319.96,3.868
320.63,3.870
321.30,3.870
321.97,3.870
322.64,3.865
323.32,3.865
324.00,3.861
324.68,3.859
325.37,3.855
326.06,3.851
326.75,3.844
327.44,3.838
328.14,3.829
328.84,3.818
329.55,3.806
330.25,3.799
330.96,3.788
331.68,3.780
332.39,3.771
333.11,3.765
333.83,3.761
334.56,3.752
335.29,3.746
336.02,3.737
336.75,3.733
337.49,3.726
338.23,3.724
338.98,3.724
339.72,3.722
340.48,3.722
341.23,3.720
341.99,3.718
342.75,3.718
343.51,3.718
344.28,3.720
345.05,3.720
345.83,3.722
346.61,3.726
347.39,3.731
348.17,3.735
348.96,3.743
349.76,3.746
350.55,3.750
351.35,3.761
352.15,3.765
352.96,3.767
353.77,3.771
354.59,3.778
355.41,3.780
356.23,3.778
357.05,3.771
357.88,3.765
358.72,3.763
359.56,3.756
360.40,3.741
361.24,3.731
362.09,3.724
362.95,3.716
363.80,3.707
364.66,3.703
365.53,3.696
366.40,3.696
367.27,3.694
368.15,3.696
369.03,3.701
369.92,3.707
370.81,3.707
371.71,3.699
372.61,3.675
373.51,3.647
374.42,3.604
375.33,3.568
376.25,3.472
377.17,3.412
378.09,3.341
379.03,3.247
379.96,3.138
380.90,3.029
381.84,2.900
382.79,2.772
383.75,2.669
384.21,2.631
384.98,2.576
385.40,2.536
386.02,2.488
386.51,2.448
387.29,2.401
387.61,2.363
387.94,2.331
388.25,2.298
388.59,2.260
388.92,2.226
389.24,2.187
389.57,2.142
389.90,2.106
390.23,2.085
390.56,2.044
390.89,2.005
391.22,1.995
391.55,1.975
391.89,1.941
392.22,1.911
392.55,1.877
392.89,1.838
393.22,1.806
393.56,1.766
393.89,1.733
394.23,1.710
394.56,1.663
394.90,1.629
395.24,1.618
395.58,1.596
395.92,1.556
396.26,1.507
396.60,1.494
396.94,1.451
397.28,1.402
397.62,1.367
397.96,1.327
398.31,1.288
398.65,1.260
##END=
