##TITLE=N-3-pyridinyl-2-thiophenesulfonamide
##JCAMP-DX=4.24
##DATA TYPE=UV/VIS SPECTRUM
##ORIGIN=INSTITUTE OF ENERGY PROBLEMS OF CHEMICAL PHYSICS, RAS
##OWNER=INEP CP RAS, NIST OSRD
Collection (C) 2007 copyright by the U.S. Secretary of Commerce
on behalf of the United States of America. All rights reserved.
##CAS REGISTRY NO=53442-50-5
##MOLFORM=C9H8N2O2S2
##MP=188-189
##SOURCE REFERENCE=RAS UV No. 23599
##$NIST SQUIB=1974ARC/611
##$NIST SOURCE=TYUGLMTE
##SPECTROMETER/DATA SYSTEM=Perkin-Elmer-Hitachi EPS-3T
##XUNITS=Wavelength (nm)
##YUNITS=Logarithm epsilon
##XFACTOR=1.0
##YFACTOR=1.0
##FIRSTX=210.246
##LASTX=323.809
##FIRSTY=3.866
##MAXX=323.809
##MINX=210.246
##MAXY=4.09
##MINY=2.725
##NPOINTS=116
##$REF AUTHOR=Arcoria, A.; et al.
##$REF JOURNAL=Spectrochim. Acta
##$REF VOLUME=30A
##$REF PAGE=611
##$REF DATE=1974
##XYPOINTS=(XY..XY)
210.246,3.866
211.246,3.856
212.246,3.851
213.246,3.851
214.246,3.855
215.246,3.862
216.246,3.871
217.246,3.882
218.246,3.893
219.246,3.906
220.246,3.918
221.246,3.930
222.246,3.942
223.246,3.954
224.246,3.964
225.246,3.975
226.246,3.984
227.246,3.993
228.246,4.001
229.246,4.008
230.246,4.015
231.246,4.022
232.246,4.028
233.246,4.034
234.246,4.039
235.246,4.045
236.246,4.050
237.246,4.055
238.246,4.061
239.246,4.066
240.246,4.071
241.088,4.074
242.088,4.080
243.088,4.084
244.088,4.086
245.088,4.088
246.088,4.089
247.088,4.090
248.088,4.090
249.088,4.089
250.088,4.088
251.088,4.086
252.088,4.084
253.088,4.080
254.088,4.075
255.088,4.069
256.088,4.061
257.088,4.051
258.088,4.040
259.088,4.027
260.088,4.012
261.088,3.996
262.088,3.979
263.088,3.960
264.088,3.940
265.088,3.920
266.088,3.899
267.088,3.879
268.088,3.858
269.088,3.839
270.088,3.820
271.088,3.802
272.088,3.786
273.088,3.772
274.088,3.758
275.088,3.746
276.088,3.734
277.088,3.722
277.100,3.723
278.100,3.705
279.100,3.689
280.100,3.673
281.100,3.658
282.100,3.642
283.100,3.625
284.100,3.608
285.100,3.590
286.100,3.571
287.100,3.552
288.100,3.531
289.100,3.510
290.100,3.488
291.100,3.466
292.100,3.444
293.100,3.422
294.100,3.400
295.100,3.379
296.100,3.358
297.100,3.338
298.100,3.319
299.100,3.302
300.100,3.285
300.990,3.272
301.990,3.257
302.990,3.243
303.990,3.228
304.990,3.214
305.990,3.200
306.990,3.185
307.990,3.170
308.990,3.154
309.990,3.138
310.990,3.121
311.990,3.102
312.990,3.083
313.990,3.062
314.990,3.040
315.990,3.015
316.990,2.989
317.990,2.960
318.990,2.929
319.990,2.894
320.990,2.856
321.990,2.815
322.990,2.769
323.809,2.725
##END=
