##TITLE=N-(2-nitrophenyl)-2-thiophenesulfonamide
##JCAMP-DX=4.24
##DATA TYPE=UV/VIS SPECTRUM
##ORIGIN=INSTITUTE OF ENERGY PROBLEMS OF CHEMICAL PHYSICS, RAS
##OWNER=INEP CP RAS, NIST OSRD
Collection (C) 2007 copyright by the U.S. Secretary of Commerce
on behalf of the United States of America. All rights reserved.
##CAS REGISTRY NO=53442-37-8
##MOLFORM=C10H8N2O4S2
##MP=104-105
##SOURCE REFERENCE=RAS UV No. 23592
##$NIST SQUIB=1974ARC/611
##$NIST SOURCE=TYUGLMTE
##SPECTROMETER/DATA SYSTEM=Perkin-Elmer-Hitachi EPS-3T
##XUNITS=Wavelength (nm)
##YUNITS=Logarithm epsilon
##XFACTOR=1.0
##YFACTOR=1.0
##FIRSTX=208.853
##LASTX=416.131
##FIRSTY=4.121
##MAXX=416.131
##MINX=208.853
##MAXY=4.226
##MINY=2.843
##NPOINTS=212
##$REF AUTHOR=Arcoria, A.; et al.
##$REF JOURNAL=Spectrochim. Acta
##$REF VOLUME=30A
##$REF PAGE=611
##$REF DATE=1974
##XYPOINTS=(XY..XY)
208.853,4.121
209.064,4.123
209.178,4.123
210.178,4.129
211.178,4.137
212.178,4.147
213.178,4.157
214.178,4.168
215.178,4.179
216.178,4.190
217.178,4.200
218.178,4.208
219.178,4.215
220.178,4.221
221.178,4.224
222.178,4.226
223.178,4.226
224.178,4.225
225.178,4.222
226.178,4.218
227.178,4.213
228.178,4.208
229.178,4.203
230.178,4.198
231.178,4.193
232.178,4.190
233.178,4.187
234.178,4.186
235.178,4.185
236.178,4.186
237.178,4.187
238.178,4.188
239.750,4.185
240.750,4.186
241.750,4.185
242.750,4.183
243.750,4.179
244.750,4.174
245.750,4.168
246.750,4.162
247.750,4.156
248.750,4.150
249.750,4.144
250.750,4.138
251.750,4.132
252.750,4.125
253.750,4.118
254.750,4.111
255.750,4.103
256.750,4.095
257.750,4.086
258.750,4.077
259.750,4.067
260.750,4.057
261.750,4.046
262.750,4.035
263.750,4.024
264.750,4.013
265.750,4.001
266.750,3.990
267.750,3.978
268.750,3.967
269.750,3.956
270.750,3.945
271.750,3.934
272.750,3.922
273.750,3.910
274.750,3.897
275.750,3.882
276.750,3.864
277.095,3.857
278.095,3.836
279.095,3.818
280.095,3.800
281.095,3.783
282.095,3.766
283.095,3.748
284.095,3.730
285.095,3.711
286.095,3.692
287.095,3.672
288.095,3.651
289.095,3.631
290.095,3.610
291.095,3.589
292.095,3.569
293.095,3.549
294.095,3.529
295.095,3.511
296.095,3.493
297.095,3.477
298.095,3.462
299.095,3.449
300.095,3.436
301.095,3.425
302.095,3.416
303.095,3.407
304.095,3.400
305.095,3.393
306.095,3.388
307.095,3.384
308.095,3.380
309.095,3.376
310.095,3.374
311.095,3.371
311.866,3.369
312.866,3.369
313.866,3.369
314.866,3.370
315.866,3.371
316.866,3.373
317.866,3.375
318.866,3.377
319.866,3.379
320.866,3.381
321.866,3.384
322.866,3.386
323.866,3.389
324.866,3.392
325.866,3.394
326.866,3.397
327.866,3.400
328.866,3.402
329.866,3.404
330.866,3.407
331.866,3.409
332.866,3.411
333.866,3.412
334.866,3.414
335.866,3.415
336.866,3.416
337.866,3.417
338.866,3.418
339.866,3.418
340.866,3.418
341.866,3.418
342.866,3.417
343.866,3.417
344.866,3.416
345.866,3.415
346.866,3.413
347.866,3.411
348.866,3.409
349.866,3.407
350.866,3.404
351.866,3.401
352.866,3.398
353.866,3.394
354.866,3.390
355.866,3.386
356.866,3.382
357.866,3.377
358.866,3.371
359.866,3.366
360.866,3.360
361.866,3.353
361.910,3.350
362.910,3.348
363.910,3.344
364.910,3.340
365.910,3.335
366.910,3.329
367.910,3.322
368.910,3.315
369.910,3.308
370.910,3.300
371.910,3.291
372.910,3.282
373.910,3.273
374.910,3.263
375.910,3.253
376.910,3.243
377.910,3.233
378.910,3.223
379.910,3.212
380.910,3.202
381.910,3.192
382.910,3.181
383.910,3.171
384.910,3.161
385.910,3.150
386.910,3.140
387.910,3.130
388.910,3.119
389.910,3.109
390.910,3.098
391.910,3.088
392.131,3.086
393.131,3.075
394.131,3.065
395.131,3.054
396.131,3.045
397.131,3.035
398.131,3.025
399.131,3.015
400.131,3.005
401.131,2.995
402.131,2.985
403.131,2.975
404.131,2.965
405.131,2.954
406.131,2.944
407.131,2.934
408.131,2.924
409.131,2.915
410.131,2.905
411.131,2.895
412.131,2.885
413.131,2.876
414.131,2.865
415.131,2.855
416.131,2.843
##END=
