##TITLE=3,5-Xylenol, 4-nitro-,
##JCAMP-DX=4.24
##DATA TYPE=UV/VIS SPECTRUM
##ORIGIN=INSTITUTE OF ENERGY PROBLEMS OF CHEMICAL PHYSICS, RAS
##OWNER=INEP CP RAS, NIST OSRD
Collection (C) 2007 copyright by the U.S. Secretary of Commerce
on behalf of the United States of America. All rights reserved.
##CAS REGISTRY NO=5344-97-8
##MOLFORM=C8H9NO3
##SOURCE REFERENCE=RAS UV No. 3642
##$NIST SQUIB=1953KLO/BAC185
##$NIST SOURCE=TSGMTE
##SPECTROMETER/DATA SYSTEM=n.i.g.
##XUNITS=Wavelength (nm)
##YUNITS=Logarithm epsilon
##XFACTOR=1.000000
##YFACTOR=1.000000
##FIRSTX=240.0000
##LASTX=439.0000
##FIRSTY=3.62
##MAXX=439
##MINX=240
##MAXY=3.82
##MINY=3.33
##NPOINTS=200
##$REF AUTHOR=Kloosterziel, H.; Backer, H.J.
##$REF JOURNAL=Rec. trav. chim.
##$REF VOLUME=72
##$REF PAGE=185
##$REF DATE=1953
##XYPOINTS=(XY..XY)
240.0000,3.620000
241.0000,3.590000
242.0000,3.570000
243.0000,3.550000
244.0000,3.530000
245.0000,3.520000
246.0000,3.510000
247.0000,3.510000
248.0000,3.510000
249.0000,3.510000
250.0000,3.520000
251.0000,3.520000
252.0000,3.520000
253.0000,3.520000
254.0000,3.520000
255.0000,3.520000
256.0000,3.520000
257.0000,3.520000
258.0000,3.520000
259.0000,3.530000
260.0000,3.530000
261.0000,3.530000
262.0000,3.530000
263.0000,3.530000
264.0000,3.530000
265.0000,3.530000
266.0000,3.520000
267.0000,3.520000
268.0000,3.520000
269.0000,3.520000
270.0000,3.500000
271.0000,3.490000
272.0000,3.470000
273.0000,3.460000
274.0000,3.450000
275.0000,3.430000
276.0000,3.420000
277.0000,3.400000
278.0000,3.390000
279.0000,3.380000
280.0000,3.360000
281.0000,3.360000
282.0000,3.350000
283.0000,3.340000
284.0000,3.340000
285.0000,3.340000
286.0000,3.340000
287.0000,3.340000
288.0000,3.340000
289.0000,3.340000
290.0000,3.340000
291.0000,3.340000
292.0000,3.340000
293.0000,3.340000
294.0000,3.340000
295.0000,3.340000
296.0000,3.340000
297.0000,3.340000
298.0000,3.340000
299.0000,3.340000
300.0000,3.340000
301.0000,3.330000
302.0000,3.330000
303.0000,3.330000
304.0000,3.330000
305.0000,3.330000
306.0000,3.330000
307.0000,3.330000
308.0000,3.330000
309.0000,3.330000
310.0000,3.330000
311.0000,3.340000
312.0000,3.340000
313.0000,3.340000
314.0000,3.340000
315.0000,3.350000
316.0000,3.350000
317.0000,3.350000
318.0000,3.350000
319.0000,3.360000
320.0000,3.360000
321.0000,3.360000
322.0000,3.360000
323.0000,3.370000
324.0000,3.370000
325.0000,3.370000
326.0000,3.370000
327.0000,3.380000
328.0000,3.380000
329.0000,3.380000
330.0000,3.380000
331.0000,3.390000
332.0000,3.390000
333.0000,3.390000
334.0000,3.390000
335.0000,3.400000
336.0000,3.400000
337.0000,3.400000
338.0000,3.400000
339.0000,3.410000
340.0000,3.410000
341.0000,3.410000
342.0000,3.420000
343.0000,3.430000
344.0000,3.440000
345.0000,3.450000
346.0000,3.460000
347.0000,3.470000
348.0000,3.470000
349.0000,3.480000
350.0000,3.490000
351.0000,3.500000
352.0000,3.510000
353.0000,3.520000
354.0000,3.530000
355.0000,3.540000
356.0000,3.550000
357.0000,3.550000
358.0000,3.560000
359.0000,3.570000
360.0000,3.580000
361.0000,3.590000
362.0000,3.600000
363.0000,3.610000
364.0000,3.620000
365.0000,3.630000
366.0000,3.640000
367.0000,3.650000
368.0000,3.650000
369.0000,3.660000
370.0000,3.670000
371.0000,3.680000
372.0000,3.690000
373.0000,3.700000
374.0000,3.710000
375.0000,3.710000
376.0000,3.720000
377.0000,3.730000
378.0000,3.740000
379.0000,3.740000
380.0000,3.750000
381.0000,3.750000
382.0000,3.750000
383.0000,3.750000
384.0000,3.760000
385.0000,3.760000
386.0000,3.760000
387.0000,3.760000
388.0000,3.770000
389.0000,3.770000
390.0000,3.770000
391.0000,3.770000
392.0000,3.780000
393.0000,3.780000
394.0000,3.780000
395.0000,3.790000
396.0000,3.790000
397.0000,3.790000
398.0000,3.790000
399.0000,3.800000
400.0000,3.800000
401.0000,3.800000
402.0000,3.800000
403.0000,3.810000
404.0000,3.810000
405.0000,3.810000
406.0000,3.820000
407.0000,3.820000
408.0000,3.820000
409.0000,3.810000
410.0000,3.800000
411.0000,3.800000
412.0000,3.790000
413.0000,3.780000
414.0000,3.770000
415.0000,3.760000
416.0000,3.750000
417.0000,3.740000
418.0000,3.730000
419.0000,3.720000
420.0000,3.710000
421.0000,3.700000
422.0000,3.690000
423.0000,3.680000
424.0000,3.670000
425.0000,3.660000
426.0000,3.650000
427.0000,3.640000
428.0000,3.630000
429.0000,3.630000
430.0000,3.620000
431.0000,3.610000
432.0000,3.600000
433.0000,3.590000
434.0000,3.580000
435.0000,3.570000
436.0000,3.560000
437.0000,3.550000
438.0000,3.540000
439.0000,3.530000
##END=
