##TITLE=Furan, 2-methyl-
##JCAMP-DX=4.24
##DATA TYPE=UV/VIS SPECTRUM
##ORIGIN=INSTITUTE OF ENERGY PROBLEMS OF CHEMICAL PHYSICS, RAS
##OWNER=INEP CP RAS, NIST OSRD
Collection (C) 2007 copyright by the U.S. Secretary of Commerce
on behalf of the United States of America. All rights reserved.
##CAS REGISTRY NO=534-22-5
##MOLFORM=C5H6O
##MP=-87.5
##BP=65
##SOURCE REFERENCE=RAS UV No. 3384
##$NIST SQUIB=1952RIC3193-3194
##$NIST SOURCE=TSGMTE
##SPECTROMETER/DATA SYSTEM=n.i.g.
##XUNITS=Wavelength (nm)
##YUNITS=Logarithm epsilon
##XFACTOR=1.000000
##YFACTOR=1.000000
##FIRSTX=215.3380
##LASTX=261.6744
##FIRSTY=3.8675
##MAXX=261.674
##MINX=215.338
##MAXY=3.8675
##MINY=2.14595
##NPOINTS=184
##$REF AUTHOR=Rice, H.L.
##$REF TITLE=The structure of methylenedihydrofuran
##$REF JOURNAL=J. Am. Chem. Soc.
##$REF VOLUME=74
##$REF PAGE=3193-3194
##$REF DATE=1952
##XYPOINTS=(XY..XY)
215.3380,3.867502
215.9893,3.866531
216.5384,3.864696
217.0037,3.862144
217.4035,3.859025
217.7563,3.855488
218.0804,3.851687
218.3942,3.847780
218.3942,3.847780
218.7542,3.841816
219.0870,3.835948
219.3743,3.830784
219.5980,3.826960
219.7400,3.825124
219.7400,3.825124
219.9049,3.821477
220.0671,3.817794
220.2266,3.814073
220.3836,3.810315
220.5117,3.815288
220.5118,3.815663
220.5120,3.816023
220.5121,3.816356
220.5379,3.806518
220.6670,3.805814
220.6898,3.802683
220.7421,3.805813
220.7794,3.806583
220.8158,3.803944
220.8171,3.806515
220.8193,3.805811
220.8393,3.798808
220.8441,3.804586
220.8569,3.806434
220.8723,3.805213
220.9006,3.805810
220.9006,3.805810
220.9008,3.806324
220.9864,3.794892
221.1313,3.790936
221.2739,3.786939
221.4143,3.782899
221.5527,3.778817
221.6890,3.774690
221.8234,3.770520
221.9558,3.766305
222.0865,3.762043
222.2153,3.757735
222.3424,3.753380
222.4679,3.748976
222.5918,3.744523
222.7142,3.740020
222.8352,3.735466
222.9547,3.730859
223.0730,3.726200
223.1899,3.721486
223.3057,3.716718
223.4203,3.711893
223.5339,3.707011
223.6465,3.702070
223.7581,3.697070
223.8689,3.692009
223.9788,3.686885
224.0880,3.681697
224.1965,3.676445
224.3045,3.671126
224.4118,3.665739
224.5187,3.660283
224.6251,3.654755
224.7312,3.649155
224.8370,3.643480
224.9425,3.637729
225.0479,3.631900
225.1532,3.625990
225.2584,3.619999
225.3637,3.613923
225.4690,3.607760
225.5746,3.601509
225.6803,3.595167
225.7863,3.588731
225.8926,3.582199
225.9994,3.575568
226.1067,3.568836
226.2144,3.561999
226.3228,3.555054
226.4319,3.547998
226.5417,3.540827
226.6522,3.533539
226.7637,3.526129
226.8761,3.518593
226.9894,3.510928
227.1038,3.503129
227.2193,3.495191
227.2193,3.495191
227.3591,3.487094
227.4994,3.478842
227.6401,3.470427
227.7813,3.461843
227.9230,3.453084
228.0651,3.444142
228.2078,3.435010
228.3509,3.425678
228.4945,3.416139
228.6386,3.406383
228.7832,3.396399
228.9282,3.386177
229.0738,3.375706
229.2199,3.364972
229.3665,3.353963
229.5136,3.342664
229.6612,3.331060
229.8094,3.319133
229.9580,3.306866
230.1072,3.294237
230.2569,3.281226
230.4071,3.267809
230.5579,3.253960
230.7092,3.239649
230.8610,3.224845
231.0134,3.209514
231.1663,3.193616
231.3198,3.177108
231.4738,3.159942
231.6284,3.142063
231.7835,3.123409
231.9392,3.103911
232.0954,3.083489
232.0954,3.083489
232.4823,3.064645
232.8784,3.038153
233.2691,3.008281
233.6399,2.980496
233.6399,2.980496
234.1129,2.957306
234.5795,2.934771
235.0473,2.912631
235.5238,2.890554
236.0165,2.868128
236.5330,2.844848
237.0808,2.820099
237.6675,2.793118
237.6675,2.793118
238.7351,2.758849
239.5704,2.731904
240.1825,2.711811
240.5810,2.697493
240.7751,2.687378
240.7751,2.687378
241.3429,2.674287
241.9117,2.661158
242.4816,2.647989
243.0526,2.634780
243.6245,2.621528
244.1974,2.608233
244.7713,2.594891
245.3460,2.581501
245.9217,2.568058
246.4982,2.554561
247.0754,2.541004
247.6535,2.527382
248.2323,2.513691
248.8118,2.499924
249.3920,2.486072
249.9728,2.472129
250.5543,2.458084
251.1363,2.443927
251.7189,2.429648
252.3020,2.415231
252.8855,2.400664
253.4695,2.385928
254.0540,2.371006
254.6388,2.355876
255.2239,2.340516
255.8094,2.324900
256.3952,2.308997
256.9812,2.292775
257.5674,2.276200
258.1538,2.259226
258.7404,2.241810
259.3271,2.223897
259.9139,2.205428
260.5007,2.186334
261.0876,2.166540
261.6744,2.145951
##END=
