##TITLE=Benzenamine, 3-nitro-N-(phenylmethylene)-
##JCAMP-DX=4.24
##DATA TYPE=UV/VIS SPECTRUM
##ORIGIN=INSTITUTE OF ENERGY PROBLEMS OF CHEMICAL PHYSICS, RAS
##OWNER=INEP CP RAS, NIST OSRD
Collection (C) 2007 copyright by the U.S. Secretary of Commerce
on behalf of the United States of America. All rights reserved.
##CAS REGISTRY NO=5341-44-6
##MOLFORM=C13H10N2O2
##MP=71
##SOURCE REFERENCE=RAS UV No. 19722
##$NIST SQUIB=1961LAN93
##$NIST SOURCE=TYUGLMTE
##SPECTROMETER/DATA SYSTEM=Beckman DU
##XUNITS=Wavelength (nm)
##YUNITS=Logarithm epsilon
##XFACTOR=1.0
##YFACTOR=1.0
##FIRSTX=214.46
##LASTX=449.97
##FIRSTY=4.318
##MAXX=449.97
##MINX=214.46
##MAXY=4.366
##MINY=1.258
##NPOINTS=205
##$REF AUTHOR=Lang (editor), L.
##$REF JOURNAL=Absorption Spectra in the Ultraviolet and Visible Region
##$REF VOLUME=2
##$REF PAGE=93
##$REF DATE=1961
##XYPOINTS=(XY..XY)
214.46,4.318
216.00,4.322
217.53,4.318
218.89,4.305
220.25,4.295
221.44,4.278
222.63,4.261
223.65,4.240
224.84,4.220
225.52,4.192
226.21,4.165
227.06,4.138
227.91,4.114
228.93,4.094
230.12,4.073
231.48,4.060
233.01,4.056
234.37,4.066
235.73,4.083
236.93,4.100
238.12,4.117
239.31,4.134
240.50,4.152
241.69,4.169
242.88,4.186
244.07,4.203
245.09,4.223
246.29,4.240
247.82,4.250
249.18,4.267
250.71,4.278
252.07,4.288
253.26,4.305
254.62,4.315
256.15,4.325
257.52,4.336
259.05,4.342
260.41,4.353
261.94,4.356
263.47,4.359
265.00,4.363
266.53,4.366
268.07,4.366
269.60,4.363
271.13,4.356
272.66,4.353
274.02,4.342
275.55,4.339
276.74,4.322
278.11,4.312
279.47,4.301
280.83,4.288
282.19,4.271
283.55,4.254
284.91,4.240
286.27,4.223
287.64,4.206
289.00,4.189
290.19,4.169
291.55,4.152
292.74,4.131
293.76,4.111
294.95,4.094
296.14,4.077
297.33,4.060
298.53,4.042
299.72,4.025
301.08,4.012
302.44,3.995
303.97,3.985
305.16,3.964
306.52,3.950
307.89,3.940
309.25,3.930
310.78,3.920
312.14,3.906
313.67,3.899
315.20,3.889
316.73,3.886
318.27,3.879
319.80,3.869
321.33,3.862
322.86,3.852
324.22,3.838
325.75,3.835
327.11,3.821
328.48,3.804
330.01,3.794
331.37,3.780
332.56,3.763
333.75,3.746
335.11,3.732
336.47,3.719
337.83,3.702
338.86,3.678
340.05,3.657
341.24,3.637
342.43,3.617
343.28,3.593
344.30,3.572
345.49,3.555
346.51,3.535
347.53,3.511
348.72,3.494
349.58,3.470
350.77,3.450
351.79,3.429
352.81,3.405
354.00,3.385
355.19,3.364
356.04,3.341
356.89,3.317
357.74,3.293
358.59,3.266
359.45,3.242
360.13,3.214
360.64,3.187
361.32,3.160
361.83,3.129
362.34,3.099
362.85,3.071
363.36,3.044
364.04,3.017
364.89,2.990
365.74,2.966
366.59,2.942
367.61,2.918
368.46,2.891
369.31,2.867
370.17,2.843
371.02,2.816
371.87,2.792
372.72,2.768
373.57,2.741
374.42,2.717
375.27,2.693
376.12,2.669
376.97,2.642
377.82,2.618
378.50,2.591
379.52,2.567
380.21,2.540
381.23,2.516
382.08,2.492
383.10,2.468
384.12,2.444
385.31,2.424
386.33,2.400
387.52,2.380
388.71,2.359
389.56,2.335
390.42,2.311
391.44,2.288
392.29,2.260
393.31,2.240
394.33,2.216
395.18,2.189
396.20,2.168
397.05,2.144
398.07,2.121
399.09,2.100
399.94,2.076
400.97,2.052
402.16,2.032
403.18,2.012
404.20,1.991
405.39,1.971
406.58,1.954
407.77,1.933
408.79,1.913
409.98,1.896
411.01,1.875
412.20,1.855
413.39,1.834
414.58,1.814
415.60,1.793
416.79,1.773
417.98,1.753
419.00,1.732
420.02,1.708
421.22,1.691
422.58,1.674
423.94,1.657
425.30,1.644
426.66,1.630
427.85,1.613
429.04,1.592
430.23,1.572
431.26,1.552
432.45,1.534
433.47,1.514
434.49,1.494
435.68,1.477
436.87,1.456
438.06,1.439
439.25,1.422
440.44,1.405
441.64,1.388
442.83,1.368
444.02,1.350
445.21,1.333
446.40,1.313
447.59,1.296
448.78,1.276
449.97,1.258
##END=
