##TITLE=2-Aminobenzyl alcohol
##JCAMP-DX=4.24
##DATA TYPE=UV/VIS SPECTRUM
##ORIGIN=INSTITUTE OF ENERGY PROBLEMS OF CHEMICAL PHYSICS, RAS
##OWNER=INEP CP RAS, NIST OSRD
Collection (C) 2007 copyright by the U.S. Secretary of Commerce
on behalf of the United States of America. All rights reserved.
##CAS REGISTRY NO=5344-90-1
##MOLFORM=C7H9NO
##MP=82
##SOURCE REFERENCE=RAS UV No. 19751
##$NIST SQUIB=1961LAN183
##$NIST SOURCE=TYUGLMTE
##SPECTROMETER/DATA SYSTEM=Beckman Model DU
##XUNITS=Wavelength (nm)
##YUNITS=Logarithm epsilon
##XFACTOR=1.0
##YFACTOR=1.0
##FIRSTX=212.9
##LASTX=316.94
##FIRSTY=3.701
##MAXX=316.94
##MINX=212.9
##MAXY=3.779
##MINY=1.96
##NPOINTS=136
##$REF AUTHOR=Lang (editor), L.
##$REF JOURNAL=Absorption Spectra in the Ultraviolet and Visible Region
##$REF VOLUME=2
##$REF PAGE=183
##$REF DATE=1961
##XYPOINTS=(XY..XY)
212.90,3.701
213.41,3.670
213.75,3.640
214.09,3.609
214.77,3.582
215.45,3.555
216.46,3.531
217.48,3.507
219.01,3.500
220.54,3.504
221.90,3.521
222.91,3.541
223.93,3.562
224.95,3.582
225.97,3.602
226.99,3.623
228.18,3.643
229.19,3.663
230.38,3.684
231.57,3.704
232.76,3.725
233.95,3.745
235.30,3.762
236.49,3.779
238.02,3.779
239.38,3.765
240.74,3.748
242.09,3.731
243.28,3.711
244.30,3.687
245.32,3.663
246.17,3.640
247.02,3.616
247.69,3.589
248.54,3.562
249.05,3.534
249.73,3.507
250.41,3.480
250.92,3.453
251.60,3.426
252.11,3.398
252.62,3.368
253.13,3.341
253.46,3.310
253.97,3.283
254.31,3.252
254.82,3.225
255.33,3.198
255.67,3.167
256.18,3.140
256.52,3.109
257.03,3.079
257.20,3.048
257.37,3.018
257.71,2.987
258.05,2.956
258.39,2.926
258.90,2.899
259.41,2.871
259.91,2.844
260.42,2.817
260.93,2.790
261.61,2.763
262.46,2.739
263.82,2.722
265.18,2.739
266.19,2.763
267.21,2.786
268.06,2.814
268.74,2.841
269.59,2.865
270.44,2.888
271.29,2.912
272.14,2.939
272.98,2.963
273.83,2.990
274.85,3.014
275.87,3.038
276.72,3.062
277.74,3.082
278.75,3.106
279.77,3.126
280.79,3.147
281.98,3.164
283.17,3.181
284.53,3.198
285.88,3.211
287.41,3.215
288.94,3.222
290.47,3.218
291.99,3.211
293.35,3.194
294.54,3.177
295.73,3.157
296.58,3.133
297.59,3.113
298.44,3.089
299.29,3.065
300.14,3.041
300.99,3.014
301.67,2.987
302.52,2.960
303.20,2.933
303.87,2.905
304.55,2.878
305.06,2.851
305.74,2.824
306.25,2.797
306.76,2.769
307.27,2.742
307.78,2.715
308.29,2.688
308.80,2.657
309.31,2.630
309.82,2.600
310.15,2.569
310.66,2.538
311.00,2.508
311.51,2.481
311.85,2.450
312.19,2.419
312.53,2.389
313.04,2.358
313.21,2.328
313.55,2.297
313.89,2.266
314.23,2.236
314.57,2.205
314.91,2.175
315.08,2.144
315.59,2.113
315.76,2.083
316.10,2.052
316.43,2.022
316.60,1.991
316.94,1.960
##END=
