##TITLE=N-(3-nitrophenyl)-2-thiophenesulfonamide
##JCAMP-DX=4.24
##DATA TYPE=UV/VIS SPECTRUM
##ORIGIN=INSTITUTE OF ENERGY PROBLEMS OF CHEMICAL PHYSICS, RAS
##OWNER=INEP CP RAS, NIST OSRD
Collection (C) 2007 copyright by the U.S. Secretary of Commerce
on behalf of the United States of America. All rights reserved.
##CAS REGISTRY NO=53442-38-9
##MOLFORM=C10H8N2O4S2
##MP=162-163
##SOURCE REFERENCE=RAS UV No. 23591
##$NIST SQUIB=1974ARC/611
##$NIST SOURCE=TYUGLMTE
##SPECTROMETER/DATA SYSTEM=Perkin-Elmer-Hitachi EPS-3T
##XUNITS=Wavelength (nm)
##YUNITS=Logarithm epsilon
##XFACTOR=1.0
##YFACTOR=1.0
##FIRSTX=210.174
##LASTX=365.61
##FIRSTY=4.031
##MAXX=365.61
##MINX=210.174
##MAXY=4.238
##MINY=2.684
##NPOINTS=158
##$REF AUTHOR=Arcoria, A.; et al.
##$REF JOURNAL=Spectrochim. Acta
##$REF VOLUME=30A
##$REF PAGE=611
##$REF DATE=1974
##XYPOINTS=(XY..XY)
210.174,4.031
211.174,4.051
212.174,4.071
213.174,4.091
214.174,4.110
215.174,4.128
216.174,4.145
217.174,4.160
218.174,4.174
219.174,4.186
220.174,4.197
221.174,4.207
222.174,4.215
223.174,4.221
224.174,4.227
225.174,4.231
226.174,4.234
227.174,4.236
228.174,4.238
229.174,4.238
230.174,4.238
231.174,4.238
232.174,4.237
233.174,4.235
234.174,4.233
235.174,4.231
236.174,4.229
237.174,4.226
238.174,4.223
239.174,4.220
240.174,4.217
241.174,4.213
242.174,4.210
243.174,4.206
244.174,4.201
245.174,4.197
246.174,4.192
247.174,4.186
248.174,4.181
249.174,4.175
250.174,4.170
250.830,4.165
251.830,4.161
252.830,4.158
253.830,4.156
254.830,4.155
255.830,4.154
256.830,4.153
257.830,4.152
258.830,4.150
259.830,4.147
260.830,4.143
261.830,4.138
262.830,4.131
263.830,4.123
264.830,4.114
265.830,4.104
266.830,4.092
267.830,4.079
268.830,4.064
269.830,4.048
270.830,4.031
271.830,4.013
272.830,3.994
273.830,3.973
274.830,3.951
275.830,3.929
276.830,3.905
277.830,3.880
278.830,3.855
279.830,3.828
280.830,3.801
281.830,3.773
282.830,3.745
283.830,3.716
284.830,3.687
285.830,3.657
286.830,3.628
287.830,3.599
288.830,3.570
289.036,3.559
290.036,3.537
291.036,3.514
292.036,3.489
293.036,3.464
294.036,3.440
295.036,3.416
296.036,3.393
297.036,3.371
298.036,3.351
299.036,3.333
300.036,3.317
301.036,3.302
302.036,3.289
303.036,3.277
304.036,3.267
305.036,3.259
306.036,3.251
307.036,3.244
308.036,3.239
309.036,3.234
310.036,3.229
311.036,3.225
312.036,3.222
313.036,3.218
314.036,3.215
315.036,3.212
316.036,3.209
317.036,3.205
318.036,3.202
319.036,3.199
320.036,3.195
321.036,3.192
322.036,3.188
323.036,3.185
324.036,3.181
325.036,3.178
326.036,3.174
327.036,3.171
328.036,3.168
329.036,3.164
330.036,3.160
331.036,3.155
332.036,3.150
333.036,3.143
333.610,3.138
334.610,3.131
335.610,3.123
336.610,3.116
337.610,3.108
338.610,3.100
339.610,3.091
340.610,3.083
341.610,3.074
342.610,3.064
343.610,3.054
344.610,3.044
345.610,3.033
346.610,3.022
347.610,3.010
348.610,2.997
349.610,2.984
350.610,2.971
351.610,2.957
352.610,2.942
353.610,2.926
354.610,2.910
355.610,2.894
356.610,2.877
357.610,2.859
358.610,2.840
359.610,2.821
360.610,2.800
361.610,2.779
362.610,2.757
363.610,2.734
364.610,2.709
365.610,2.684
##END=
