##TITLE=1,3-bis(4-methoxyphenyl)-5-(4-nitrophenyl)formazan
##JCAMP-DX=4.24
##DATA TYPE=UV/VIS SPECTRUM
##ORIGIN=INSTITUTE OF ENERGY PROBLEMS OF CHEMICAL PHYSICS, RAS
##OWNER=INEP CP RAS, NIST OSRD
Collection (C) 2007 copyright by the U.S. Secretary of Commerce
on behalf of the United States of America. All rights reserved.
##CAS REGISTRY NO=53451-83-5
##MOLFORM=C21H19N5O4
##SOURCE REFERENCE=RAS UV No. 23848
##$NIST SQUIB=1974AVR/STE1298
##$NIST SOURCE=TYUGLMTE
##SPECTROMETER/DATA SYSTEM=SF-4M
##XUNITS=Wavelength (nm)
##YUNITS=Logarithm epsilon
##XFACTOR=1.0
##YFACTOR=1.0
##FIRSTX=248.81
##LASTX=595.387
##FIRSTY=3.981
##MAXX=595.387
##MINX=248.81
##MAXY=4
##MINY=3.149
##NPOINTS=353
##$REF AUTHOR=Avramenko, G.V.; Stepanov, B.I.
##$REF JOURNAL=Zhur. Obshchei Khim.
##$REF VOLUME=44
##$REF PAGE=1298
##$REF DATE=1974
##XYPOINTS=(XY..XY)
248.810,3.981
249.810,3.984
250.810,3.988
251.810,3.992
252.810,3.995
253.810,3.998
254.810,3.999
255.810,4.000
256.810,3.999
257.810,3.998
258.810,3.995
259.810,3.991
260.810,3.985
261.810,3.979
262.810,3.971
263.810,3.962
264.810,3.952
265.810,3.942
266.810,3.930
267.810,3.918
268.810,3.906
269.810,3.893
270.810,3.881
271.810,3.868
272.810,3.855
273.810,3.843
274.810,3.832
275.810,3.821
276.810,3.812
277.810,3.803
278.810,3.796
279.810,3.790
280.810,3.786
281.810,3.783
282.810,3.783
283.810,3.784
283.980,3.783
284.980,3.790
285.980,3.797
286.980,3.798
287.980,3.794
288.980,3.784
289.980,3.772
290.120,3.771
291.120,3.753
292.120,3.749
293.120,3.753
294.120,3.760
295.120,3.767
296.120,3.772
297.120,3.773
298.120,3.770
299.120,3.765
300.120,3.757
301.120,3.748
302.120,3.740
303.120,3.734
304.120,3.730
305.120,3.730
305.751,3.735
306.751,3.736
307.751,3.736
308.751,3.738
309.751,3.740
310.751,3.742
311.751,3.746
312.751,3.749
313.751,3.754
314.751,3.759
315.751,3.764
316.751,3.769
317.751,3.775
318.751,3.781
319.751,3.788
320.751,3.794
321.751,3.801
322.751,3.808
323.751,3.815
324.751,3.821
325.751,3.828
326.751,3.834
327.751,3.841
328.751,3.847
329.751,3.853
330.751,3.859
331.751,3.865
332.751,3.871
333.751,3.876
334.751,3.881
335.751,3.886
336.751,3.891
337.751,3.896
338.751,3.901
339.751,3.905
340.751,3.910
341.751,3.914
342.751,3.919
343.751,3.923
344.751,3.927
345.751,3.932
346.751,3.936
347.751,3.940
348.751,3.945
349.751,3.949
350.751,3.953
351.751,3.957
352.751,3.961
353.751,3.965
354.751,3.969
355.751,3.973
356.751,3.976
357.751,3.980
358.751,3.983
359.751,3.985
360.751,3.987
361.751,3.988
362.751,3.989
363.751,3.990
364.751,3.989
365.751,3.988
366.751,3.986
367.751,3.983
368.751,3.979
369.751,3.975
370.751,3.969
371.751,3.963
372.751,3.956
373.751,3.949
373.994,3.946
374.994,3.940
375.994,3.933
376.994,3.927
377.994,3.919
378.994,3.912
379.994,3.904
380.994,3.896
381.994,3.887
382.994,3.878
383.994,3.868
384.994,3.858
385.994,3.848
386.994,3.837
387.994,3.826
388.994,3.815
389.994,3.803
390.994,3.791
391.994,3.778
392.994,3.765
393.994,3.751
394.994,3.737
395.994,3.723
396.187,3.718
397.187,3.705
398.187,3.690
399.187,3.674
400.187,3.659
401.187,3.643
402.187,3.626
403.187,3.610
404.187,3.594
405.187,3.578
406.187,3.562
407.187,3.547
408.187,3.533
409.187,3.519
410.187,3.506
411.187,3.494
412.187,3.483
413.187,3.473
414.187,3.464
415.187,3.456
416.187,3.449
417.187,3.443
418.187,3.438
419.187,3.435
420.187,3.432
421.187,3.431
422.187,3.431
423.187,3.432
424.187,3.434
425.187,3.436
426.187,3.440
427.187,3.445
428.187,3.450
429.187,3.456
430.187,3.462
431.187,3.469
432.187,3.477
433.187,3.485
434.187,3.493
435.187,3.501
436.187,3.510
437.187,3.519
438.187,3.527
439.187,3.535
440.187,3.544
441.187,3.552
442.187,3.560
443.187,3.567
444.187,3.574
445.187,3.581
446.187,3.588
447.187,3.594
447.545,3.600
448.545,3.603
449.545,3.608
450.545,3.613
451.545,3.619
452.545,3.626
453.545,3.634
454.545,3.642
455.545,3.651
456.545,3.659
457.545,3.668
458.545,3.677
459.545,3.686
460.545,3.695
461.545,3.703
462.545,3.712
463.545,3.720
464.545,3.729
465.545,3.737
466.545,3.744
467.545,3.752
468.545,3.759
469.545,3.766
470.545,3.773
471.545,3.780
472.545,3.786
473.545,3.792
474.545,3.798
475.545,3.804
476.545,3.809
477.545,3.814
478.545,3.819
479.545,3.824
480.545,3.829
481.545,3.833
482.545,3.838
483.545,3.842
484.545,3.846
485.545,3.850
486.545,3.854
487.545,3.857
488.545,3.861
489.545,3.864
490.545,3.867
491.545,3.870
492.545,3.873
493.545,3.876
494.545,3.878
495.545,3.881
496.545,3.883
497.545,3.885
498.545,3.887
499.545,3.888
500.545,3.890
501.545,3.891
502.545,3.892
503.545,3.892
504.545,3.893
505.545,3.893
506.545,3.893
507.545,3.893
508.545,3.893
509.545,3.893
510.545,3.892
511.545,3.891
512.545,3.890
513.545,3.889
514.545,3.887
515.545,3.885
516.545,3.884
517.545,3.882
518.545,3.880
519.545,3.878
520.545,3.876
521.545,3.873
522.545,3.871
523.545,3.869
524.545,3.866
525.545,3.864
526.545,3.862
527.545,3.860
528.545,3.858
529.545,3.856
530.545,3.854
531.545,3.852
532.545,3.850
533.545,3.848
534.545,3.847
535.545,3.845
536.545,3.843
537.545,3.842
538.545,3.840
539.545,3.838
540.545,3.836
541.545,3.834
542.545,3.831
543.545,3.827
544.545,3.823
545.904,3.823
546.354,3.823
547.354,3.821
548.354,3.818
549.354,3.815
550.354,3.812
551.354,3.808
552.354,3.804
553.354,3.800
554.354,3.795
555.354,3.790
556.354,3.783
557.354,3.777
558.354,3.769
559.354,3.761
560.354,3.752
561.354,3.743
562.354,3.733
563.354,3.722
564.354,3.710
565.354,3.697
566.354,3.684
567.354,3.670
568.354,3.655
569.354,3.640
570.354,3.623
571.354,3.606
572.354,3.589
573.354,3.571
574.354,3.552
575.354,3.533
576.354,3.514
577.354,3.494
578.354,3.473
579.354,3.453
580.354,3.432
581.354,3.411
582.354,3.391
583.354,3.370
584.354,3.349
585.354,3.329
586.354,3.310
587.354,3.290
587.387,3.292
588.387,3.274
589.387,3.256
590.387,3.238
591.387,3.220
592.387,3.202
593.387,3.184
594.387,3.166
595.387,3.149
##END=
