##TITLE=N-2-pyridinyl-2-thiophenesulfonamide
##JCAMP-DX=4.24
##DATA TYPE=UV/VIS SPECTRUM
##ORIGIN=INSTITUTE OF ENERGY PROBLEMS OF CHEMICAL PHYSICS, RAS
##OWNER=INEP CP RAS, NIST OSRD
Collection (C) 2007 copyright by the U.S. Secretary of Commerce
on behalf of the United States of America. All rights reserved.
##CAS REGISTRY NO=53442-49-2
##MOLFORM=C9H8N2O2S2
##MP=215
##SOURCE REFERENCE=RAS UV No. 23598
##$NIST SQUIB=1974ARC/611
##$NIST SOURCE=TYUGLMTE
##SPECTROMETER/DATA SYSTEM=Perkin-Elmer-Hitachi EPS-3T
##XUNITS=Wavelength (nm)
##YUNITS=Logarithm epsilon
##XFACTOR=1.0
##YFACTOR=1.0
##FIRSTX=209.385
##LASTX=354.795
##FIRSTY=3.775
##MAXX=354.795
##MINX=209.385
##MAXY=4.178
##MINY=2.888
##NPOINTS=149
##$REF AUTHOR=Arcoria, A.; et al.
##$REF JOURNAL=Spectrochim. Acta
##$REF VOLUME=30 A
##$REF PAGE=611
##$REF DATE=1974
##XYPOINTS=(XY..XY)
209.385,3.775
210.385,3.747
211.385,3.736
212.385,3.738
213.385,3.749
214.385,3.765
215.385,3.784
216.385,3.804
217.385,3.824
218.385,3.844
219.385,3.863
220.385,3.881
221.385,3.899
222.385,3.916
223.385,3.935
224.385,3.954
225.385,3.973
226.385,3.993
227.385,4.011
228.114,4.024
229.114,4.037
230.114,4.051
231.114,4.066
232.114,4.081
233.114,4.096
234.114,4.111
235.114,4.125
236.114,4.137
237.114,4.148
238.114,4.157
239.114,4.165
240.114,4.171
241.114,4.175
242.114,4.177
243.114,4.178
244.114,4.178
245.114,4.176
246.114,4.173
247.114,4.169
248.114,4.163
249.114,4.157
250.114,4.151
251.114,4.143
252.114,4.136
253.114,4.127
254.114,4.119
255.114,4.110
256.114,4.100
257.114,4.090
257.805,4.085
258.805,4.072
259.805,4.059
260.805,4.046
261.805,4.032
262.805,4.019
263.805,4.005
264.805,3.990
265.805,3.975
266.805,3.960
267.805,3.944
268.805,3.928
269.805,3.911
270.805,3.893
271.805,3.875
272.805,3.856
273.805,3.837
274.805,3.818
275.805,3.798
276.805,3.778
277.805,3.758
278.805,3.739
279.805,3.719
280.805,3.701
281.805,3.683
282.805,3.666
283.805,3.650
284.805,3.636
285.805,3.624
286.805,3.614
287.805,3.607
288.805,3.602
288.868,3.600
289.868,3.598
290.868,3.598
291.868,3.600
292.868,3.604
293.868,3.610
294.868,3.617
295.868,3.625
296.868,3.633
297.868,3.642
298.868,3.651
299.868,3.661
300.868,3.670
301.868,3.679
302.868,3.688
303.868,3.697
304.868,3.706
305.868,3.713
306.868,3.721
307.868,3.728
308.868,3.734
309.868,3.740
310.868,3.745
311.868,3.750
312.868,3.754
313.868,3.758
314.868,3.760
315.868,3.763
316.868,3.764
317.868,3.765
318.868,3.766
319.868,3.765
320.868,3.764
321.868,3.763
322.868,3.760
323.868,3.756
324.868,3.752
325.868,3.746
326.868,3.739
327.868,3.730
327.924,3.730
328.924,3.719
329.924,3.706
330.924,3.693
331.924,3.680
332.924,3.666
333.924,3.652
334.924,3.637
335.924,3.621
336.924,3.604
337.924,3.584
338.924,3.563
339.924,3.539
340.924,3.512
341.924,3.482
342.924,3.449
343.924,3.413
344.924,3.374
345.924,3.333
346.924,3.292
347.795,3.254
348.795,3.216
349.795,3.167
350.795,3.115
351.795,3.062
352.795,3.010
353.795,2.954
354.795,2.888
##END=
