##TITLE=4-chloro-N-(1-methyl-2-piperidinylidene)benzenamine
##JCAMP-DX=4.24
##DATA TYPE=UV/VIS SPECTRUM
##ORIGIN=INSTITUTE OF ENERGY PROBLEMS OF CHEMICAL PHYSICS, RAS
##OWNER=INEP CP RAS, NIST OSRD
Collection (C) 2007 copyright by the U.S. Secretary of Commerce
on behalf of the United States of America. All rights reserved.
##CAS REGISTRY NO=53582-83-5
##MOLFORM=C12H15ClN2
##BP=153-154/ 5 mm
##SOURCE REFERENCE=RAS UV No. 23745
##$NIST SQUIB=1974GRA/1220
##$NIST SOURCE=TYUGLMTE
##SPECTROMETER/DATA SYSTEM=Hitachi EPS-3
##XUNITS=Wavelength (nm)
##YUNITS=Logarithm epsilon
##XFACTOR=1.0
##YFACTOR=1.0
##FIRSTX=231.857
##LASTX=325.659
##FIRSTY=3.902
##MAXX=325.659
##MINX=231.857
##MAXY=4.142
##MINY=2.409
##NPOINTS=95
##$REF AUTHOR=Granik, V.G.; et al.
##$REF JOURNAL=Khim. Geterosikl. Soedin.
##$REF PAGE=1220
##$REF DATE=1974
##XYPOINTS=(XY..XY)
231.857,3.902
232.857,3.908
233.857,3.916
234.857,3.926
235.857,3.938
236.857,3.952
237.857,3.968
238.857,3.985
239.857,4.002
240.857,4.020
241.857,4.039
242.857,4.056
243.857,4.073
244.857,4.089
245.857,4.103
246.857,4.115
247.857,4.125
248.857,4.133
249.857,4.138
250.857,4.141
251.857,4.142
252.857,4.141
253.857,4.139
254.867,4.135
255.867,4.130
256.867,4.126
257.867,4.122
258.867,4.118
259.867,4.114
260.867,4.110
261.867,4.107
262.867,4.104
263.867,4.101
264.867,4.098
265.867,4.094
266.867,4.091
267.867,4.088
268.867,4.085
269.867,4.081
270.867,4.077
271.867,4.073
272.867,4.069
273.867,4.064
274.867,4.059
275.867,4.054
276.867,4.048
277.867,4.041
278.867,4.035
279.867,4.028
280.867,4.020
281.867,4.012
282.867,4.004
283.867,3.995
284.867,3.985
285.867,3.975
286.867,3.965
287.867,3.954
288.867,3.942
289.867,3.930
290.867,3.918
291.867,3.904
292.867,3.890
293.867,3.874
294.867,3.858
295.867,3.841
296.867,3.822
297.867,3.801
298.867,3.779
299.659,3.764
300.659,3.733
301.659,3.701
302.659,3.667
303.659,3.633
304.659,3.597
305.659,3.560
306.659,3.523
307.659,3.483
308.659,3.443
309.659,3.401
310.659,3.357
311.659,3.312
312.659,3.265
313.659,3.216
314.659,3.164
315.659,3.111
316.659,3.055
317.659,2.997
318.659,2.935
319.659,2.871
320.659,2.803
321.659,2.732
322.659,2.658
323.659,2.579
324.659,2.496
325.659,2.409
##END=
