##TITLE=3-(1,1-dimethylethyl)naphtho[2,1-b]pyrylium perchlorate
##JCAMP-DX=4.24
##DATA TYPE=UV/VIS SPECTRUM
##ORIGIN=INSTITUTE OF ENERGY PROBLEMS OF CHEMICAL PHYSICS, RAS
##OWNER=INEP CP RAS, NIST OSRD
Collection (C) 2007 copyright by the U.S. Secretary of Commerce
on behalf of the United States of America. All rights reserved.
##CAS REGISTRY NO=53534-09-1
##MOLFORM=C17H17ClO5
##MP=245-246
##SOURCE REFERENCE=RAS UV No. 23938
##$NIST SQUIB=1974OLE/1999
##$NIST SOURCE=TYUGLMTE
##SPECTROMETER/DATA SYSTEM=SF-4A
##XUNITS=Wavelength (nm)
##YUNITS=Logarithm epsilon
##XFACTOR=1.0
##YFACTOR=1.0
##FIRSTX=259.891
##LASTX=338.939
##FIRSTY=3.826
##MAXX=338.939
##MINX=259.891
##MAXY=4.041
##MINY=2.68
##NPOINTS=86
##$REF AUTHOR=Olehnovich, E.P.; et al.
##$REF JOURNAL=Zhur. Organ. Khim.
##$REF VOLUME=10
##$REF PAGE=1999
##$REF DATE=1974
##XYPOINTS=(XY..XY)
259.891,3.826
260.749,3.828
261.749,3.833
262.749,3.840
263.749,3.850
264.749,3.866
265.749,3.887
266.749,3.911
267.749,3.935
268.749,3.953
269.749,3.961
270.478,3.959
271.478,3.955
272.478,3.956
273.478,3.963
274.478,3.974
275.478,3.988
276.478,4.003
277.478,4.020
278.478,4.038
279.304,4.041
280.304,4.038
281.304,4.002
282.304,3.954
283.106,3.919
284.106,3.900
285.106,3.897
286.106,3.906
287.106,3.920
288.106,3.936
289.106,3.947
290.106,3.949
290.981,3.936
291.981,3.922
292.981,3.890
293.981,3.842
294.981,3.779
295.981,3.706
296.981,3.628
297.981,3.558
298.178,3.551
299.178,3.477
300.178,3.409
301.178,3.351
302.178,3.307
303.178,3.279
304.178,3.267
305.061,3.283
305.930,3.294
307.047,3.287
308.040,3.294
309.004,3.302
310.004,3.311
311.004,3.323
312.004,3.339
313.004,3.358
314.004,3.379
314.880,3.401
315.880,3.420
316.880,3.475
317.880,3.528
318.880,3.562
319.880,3.572
320.880,3.559
321.880,3.524
322.880,3.475
322.891,3.474
323.675,3.435
324.544,3.427
325.165,3.443
325.891,3.473
326.891,3.501
327.891,3.515
328.865,3.519
329.865,3.541
330.865,3.611
331.369,3.658
331.866,3.682
332.486,3.658
332.939,3.601
333.939,3.454
334.939,3.281
335.939,3.097
336.939,2.932
337.939,2.811
338.939,2.680
##END=
