##TITLE=m-Anisidine
##JCAMP-DX=4.24
##DATA TYPE=UV/VIS SPECTRUM
##ORIGIN=INSTITUTE OF ENERGY PROBLEMS OF CHEMICAL PHYSICS, RAS
##OWNER=INEP CP RAS, NIST OSRD
Collection (C) 2007 copyright by the U.S. Secretary of Commerce
on behalf of the United States of America. All rights reserved.
##CAS REGISTRY NO=536-90-3
##MOLFORM=C7H9NO
##MP=-1
##BP=251
##SOURCE REFERENCE=RAS UV No. 431
##$NIST SQUIB=1951GRA220-226
##$NIST SOURCE=TSGMTE
##SPECTROMETER/DATA SYSTEM=n.i.g.
##XUNITS=Wavelength (nm)
##YUNITS=Logarithm epsilon
##XFACTOR=1.000000
##YFACTOR=1.000000
##FIRSTX=320.3169
##LASTX=223.0185
##FIRSTY=0.534851
##MAXX=320.317
##MINX=223.018
##MAXY=3.9342
##MINY=0.516006
##NPOINTS=516
##$REF AUTHOR=Grammaticakis, P.
##$REF TITLE=Contribution a l'etude de l'absorption dans l'ultraviolet moyen et le visible des arylamines isomeres et de leurs derives N substitues (Premier memoire)
##$REF JOURNAL=Bull. Soc. Chim. Fr.
##$REF VOLUME=18
##$REF PAGE=220-226
##$REF DATE=1951
##XYPOINTS=(XY..XY)
320.3169,0.534851
320.3169,0.534851
320.2517,0.528570
320.1969,0.536546
320.1945,0.522275
320.1533,0.516006
320.0607,0.538486
319.9166,0.540530
319.9166,0.540530
319.8193,0.574101
319.7338,0.601223
319.6406,0.626402
319.5203,0.654128
319.3533,0.688891
319.1204,0.735192
318.8024,0.797531
318.8024,0.797531
318.4797,0.820201
318.1575,0.852401
317.5606,0.921723
317.5606,0.921723
317.3529,0.958435
317.1452,0.995381
316.9376,1.032437
316.9376,1.032437
316.8201,1.034139
316.6868,1.036070
316.5458,1.038115
316.5458,1.038115
316.4380,1.074209
316.3408,1.102516
316.2235,1.129284
316.0556,1.160745
315.8068,1.203139
315.4470,1.262707
315.4470,1.262707
315.3323,1.273295
315.2096,1.284117
315.0715,1.295050
315.0715,1.295050
315.0077,1.317518
314.9284,1.339982
314.8414,1.362445
314.8414,1.362445
314.7255,1.364146
314.5939,1.366077
314.4547,1.368123
314.4547,1.368123
314.3842,1.388526
314.3155,1.406542
314.2332,1.424774
314.1221,1.445827
313.9671,1.472307
313.7529,1.506817
313.4648,1.551962
313.0879,1.610348
312.6077,1.684577
312.6077,1.684577
312.4809,1.699184
312.3105,1.720712
312.1022,1.748203
311.8617,1.780704
311.5946,1.817259
311.3065,1.856911
311.0031,1.898707
310.6899,1.941689
310.3725,1.984902
310.0562,2.027392
309.7467,2.068201
309.4492,2.106376
309.4492,2.106376
309.0736,2.144097
308.6838,2.182049
308.2874,2.220115
308.2874,2.220115
308.2591,2.247894
308.2009,2.266722
308.0630,2.292737
307.7177,2.308875
307.7106,2.317781
307.7035,2.326802
307.6961,2.336056
307.6961,2.336056
307.5853,2.337757
307.4597,2.339688
307.3268,2.341733
307.3268,2.341733
306.9036,2.374740
306.4815,2.407979
306.0604,2.441334
306.0604,2.441334
306.0017,2.461865
305.9283,2.482626
305.8475,2.503502
305.8475,2.503502
305.7380,2.505203
305.6139,2.507134
305.4825,2.509180
305.4825,2.509180
305.3651,2.532313
305.2402,2.555678
305.1009,2.579156
305.1009,2.579156
304.8726,2.579110
304.6446,2.579065
304.4169,2.579019
304.3913,2.611949
304.2829,2.624474
304.1674,2.636997
304.0375,2.649518
304.0375,2.649518
303.9294,2.651219
303.8067,2.653150
303.6769,2.655196
303.6769,2.655196
303.4552,2.678657
303.1984,2.701646
302.9775,2.725107
302.9775,2.725107
302.8701,2.726808
302.7483,2.728739
302.6194,2.730784
302.6194,2.730784
302.5656,2.800826
302.5656,2.800826
302.5628,2.804485
302.5600,2.808144
302.5571,2.811803
302.5571,2.811803
302.5110,2.744897
302.3955,2.759124
302.3410,2.800780
302.3326,2.811757
302.2657,2.773580
302.2657,2.773580
302.1588,2.775282
302.1168,2.800734
302.1084,2.811711
302.0376,2.777213
301.9092,2.779258
301.9092,2.779258
301.9039,2.786208
301.8984,2.793390
301.8929,2.800689
301.8929,2.800689
301.8845,2.811665
301.8845,2.811665
301.8817,2.815324
301.8789,2.818983
301.8761,2.822642
301.8761,2.822642
301.6725,2.825892
301.4548,2.829371
301.2303,2.832965
301.2303,2.832965
300.5987,2.883913
300.2819,2.912039
300.0069,2.941451
300.0069,2.941451
299.9024,2.942107
299.7838,2.942993
299.6581,2.943993
299.6581,2.943993
299.6446,2.961920
299.6310,2.980079
299.6172,2.998354
299.6172,2.998354
299.3950,3.000921
299.1732,3.003489
298.9516,3.006057
298.9516,3.006057
298.6260,3.021169
298.2941,3.036396
297.9489,3.051852
297.9489,3.051852
297.9039,3.058116
297.8450,3.064377
297.7793,3.070636
297.7793,3.070636
297.6756,3.072338
297.5579,3.074269
297.4334,3.076314
297.4334,3.076314
297.2210,3.099426
296.9950,3.122768
296.7624,3.146225
295.1531,3.162089
295.1090,3.168372
295.0511,3.174769
294.9864,3.181396
294.9864,3.181396
293.9305,3.208373
293.2773,3.225794
292.8869,3.234790
292.8869,3.234790
292.4167,3.248202
291.8678,3.262178
291.6035,3.270059
289.9242,3.296350
289.1399,3.305993
288.2213,3.319089
287.4461,3.328732
287.4461,3.328732
287.0945,3.334926
286.7437,3.341120
286.3938,3.347314
286.3938,3.347314
285.4377,3.350871
285.0516,3.352816
284.9004,3.354814
284.0278,3.344158
283.5776,3.343027
283.1349,3.342015
282.7060,3.341237
282.7060,3.341237
282.4083,3.338186
282.1235,3.335370
281.8453,3.332671
281.8453,3.332671
281.7446,3.328988
281.6564,3.325308
281.5743,3.321629
281.5743,3.321629
281.3235,3.319634
281.2598,3.335148
281.1216,3.334438
280.9866,3.318200
280.9837,3.333495
280.8460,3.332436
280.2770,3.316095
280.2770,3.316095
279.2677,3.298371
278.7914,3.290532
278.4354,3.285857
276.9204,3.244714
276.7896,3.239087
276.6588,3.233692
276.5280,3.228413
276.5280,3.228413
276.3417,3.226431
276.1554,3.224682
275.9693,3.223048
275.9693,3.223048
275.7829,3.211502
275.6754,3.206596
275.5546,3.204127
275.3009,3.184722
275.2986,3.188380
275.2962,3.192039
275.2939,3.195698
275.2939,3.195698
275.1080,3.195652
274.9223,3.195607
274.7369,3.195561
274.7369,3.195561
274.5540,3.191856
274.3714,3.188152
274.1890,3.184447
274.1890,3.184447
274.1396,3.180795
274.0959,3.177260
274.0639,3.173960
274.0639,3.173960
273.2940,3.157195
272.5399,3.140665
271.7957,3.124252
271.0149,3.091642
270.8895,3.090816
270.6130,3.085189
269.9603,3.053733
269.9603,3.053733
269.9571,3.058980
269.9538,3.064342
269.9504,3.069937
269.9504,3.069937
269.6086,3.044388
269.2577,3.035275
268.9076,3.026278
268.9076,3.026278
268.7891,3.012656
268.6707,2.999033
268.5524,2.985410
268.5524,2.985410
268.4110,2.980688
268.2810,2.976085
268.1565,2.971715
268.1565,2.971715
268.1108,2.965430
268.0707,2.959146
268.0418,2.952865
268.0418,2.952865
267.8199,2.946534
267.6040,2.940205
267.4127,2.911925
267.4127,2.911925
267.4083,2.919243
267.4039,2.926561
267.3996,2.933878
267.3996,2.933878
267.2395,2.908220
267.0665,2.904516
266.8937,2.900811
266.8937,2.900811
266.6165,2.874193
266.2002,2.840916
265.9245,2.814298
265.9245,2.814298
265.7859,2.809576
265.6584,2.804973
265.5363,2.800603
265.5363,2.800603
265.4528,2.786989
265.3803,2.773378
265.3133,2.759768
265.3133,2.759768
265.1748,2.756071
265.0473,2.752378
264.9254,2.748686
264.6761,2.754371
263.9642,2.754858
263.2507,2.755577
262.5301,2.756409
262.5301,2.756409
261.6240,2.778836
261.0031,2.795880
260.3640,2.812802
260.3640,2.812802
260.3275,2.822725
260.2805,2.832644
260.2282,2.842563
260.2282,2.842563
259.5941,2.883765
258.9159,2.925071
258.4659,2.955518
258.4659,2.955518
258.4187,2.956182
258.3713,2.957079
258.3239,2.958092
257.7032,2.982489
257.6809,2.991602
257.5532,3.004172
257.2113,3.030970
257.2113,3.030970
256.6940,3.063507
256.0960,3.107406
255.3415,3.163225
255.3415,3.163225
255.2653,3.164927
255.1787,3.166858
255.0871,3.168903
255.0871,3.168903
254.4843,3.208965
254.2332,3.227054
254.1170,3.238677
254.1170,3.238677
254.0414,3.240378
253.9557,3.242309
253.8650,3.244355
253.8650,3.244355
253.7602,3.258671
253.6013,3.271231
253.2526,3.292796
253.2526,3.292796
252.9229,3.300813
252.7397,3.306316
252.5457,3.314024
252.5457,3.314024
252.4711,3.326568
252.3915,3.339227
252.3019,3.352115
252.3019,3.352115
251.0809,3.415090
250.4728,3.448039
250.0498,3.468030
250.0498,3.468030
250.0494,3.468708
250.0490,3.469618
250.0484,3.470644
249.3593,3.491872
249.3292,3.495522
249.2893,3.499170
249.2446,3.502816
249.2446,3.502816
249.0903,3.506429
248.9362,3.510042
248.7823,3.513655
248.7823,3.513655
248.7128,3.520585
248.6383,3.527746
248.5543,3.535021
248.5543,3.535021
248.3553,3.539956
248.0865,3.550447
247.5192,3.575484
247.5192,3.575484
247.3397,3.578043
247.1510,3.580600
246.9578,3.583155
246.9578,3.583155
246.8888,3.591130
246.8149,3.599336
246.7315,3.607656
246.7315,3.607656
246.4707,3.615573
246.2057,3.623720
245.9317,3.631981
245.9317,3.631981
245.9300,3.635272
245.9282,3.638796
245.9264,3.642435
245.9264,3.642435
245.4825,3.657749
245.0918,3.673079
244.8078,3.682866
244.8078,3.682866
244.4261,3.699960
244.1462,3.710928
243.9092,3.720748
243.9092,3.720748
243.7527,3.724882
243.6423,3.729726
243.4833,3.739435
242.6065,3.752751
242.4599,3.757041
242.3135,3.761564
242.1671,3.766203
242.1671,3.766203
242.1388,3.769486
242.1013,3.772998
242.0592,3.776625
242.0592,3.776625
240.9976,3.807265
239.8461,3.839036
239.0742,3.862445
239.0742,3.862445
238.9060,3.866727
238.7290,3.871239
238.5477,3.875866
238.5477,3.875866
238.2683,3.876451
237.9895,3.877270
237.7112,3.878205
237.7112,3.878205
237.6304,3.886097
237.5515,3.890273
237.4067,3.894310
237.4067,3.894310
236.9898,3.901142
236.5782,3.909022
236.1772,3.915858
236.1772,3.915858
236.1115,3.918450
236.0372,3.921039
235.9585,3.923627
235.9585,3.923627
235.3017,3.927647
234.9887,3.930388
234.7490,3.934199
234.7490,3.934199
234.2479,3.933351
233.7491,3.932271
233.2524,3.931075
233.2524,3.931075
232.0768,3.896613
231.5090,3.880364
231.3103,3.873422
231.3103,3.873422
230.9069,3.861780
230.7588,3.856849
230.7385,3.854402
229.9667,3.832174
229.8374,3.831103
229.7082,3.830147
229.5790,3.829424
229.5790,3.829424
229.3656,3.823075
229.1480,3.818119
228.7401,3.810306
228.7401,3.810306
228.6138,3.805575
228.4876,3.800961
228.3614,3.796579
228.3614,3.796579
228.1077,3.791802
227.8545,3.787142
227.6017,3.782714
227.6017,3.782714
227.2611,3.773336
226.9214,3.764191
226.5826,3.755161
225.9454,3.733495
225.6656,3.737382
225.4698,3.740834
225.1902,3.746811
225.1902,3.746811
224.9767,3.747410
224.7635,3.748242
224.5507,3.749189
224.5507,3.749189
224.4931,3.747445
224.4278,3.745465
224.3587,3.743368
224.3587,3.743368
224.2476,3.743327
224.1288,3.743283
224.0062,3.743237
223.9970,3.765190
223.8754,3.761486
223.7540,3.757781
223.6327,3.754077
223.3675,3.759728
223.3296,3.766665
223.2916,3.773834
223.2536,3.781120
223.2536,3.781120
223.0185,3.787983
##END=
