##TITLE=Pyridine, 4-ethyl-
##JCAMP-DX=4.24
##DATA TYPE=UV/VIS SPECTRUM
##ORIGIN=INSTITUTE OF ENERGY PROBLEMS OF CHEMICAL PHYSICS, RAS
##OWNER=INEP CP RAS, NIST OSRD
Collection (C) 2007 copyright by the U.S. Secretary of Commerce
on behalf of the United States of America. All rights reserved.
##CAS REGISTRY NO=536-75-4
##MOLFORM=C7H9N
##MP=-90.5
##BP=168.3
##SOURCE REFERENCE=RAS UV No. 944
##$NIST SQUIB=1955COL/FUO5472-5476
##$NIST SOURCE=TSGMTE
##SPECTROMETER/DATA SYSTEM=Beckman DU
##XUNITS=Wavelength (nm)
##YUNITS=Logarithm epsilon
##XFACTOR=1.000000
##YFACTOR=1.000000
##FIRSTX=212.1707
##LASTX=267.8437
##FIRSTY=4.35267
##MAXX=267.844
##MINX=212.171
##MAXY=4.35267
##MINY=3.37881
##NPOINTS=378
##$REF AUTHOR=Coleman, B.D.; Fuoss, R.M.
##$REF TITLE=Quaternization kinetics. I. Some pyridine derivatives in tetramethylene sulfone
##$REF JOURNAL=J. Am. Chem. Soc.
##$REF VOLUME=77
##$REF PAGE=5472-5476
##$REF DATE=1955
##XYPOINTS=(XY..XY)
212.1707,4.352666
212.2111,4.351301
212.2588,4.349918
212.3101,4.348504
212.3243,4.342210
212.4212,4.337285
212.5255,4.332276
212.6333,4.327193
212.6452,4.321645
212.6864,4.319828
212.7348,4.317974
212.7624,4.304754
212.7775,4.307322
212.7869,4.316098
212.7999,4.309860
212.8885,4.280142
212.9246,4.284765
212.9724,4.288877
213.1422,4.276745
213.1422,4.276745
213.1465,4.274506
213.1508,4.272223
213.1552,4.269910
213.4267,4.263661
213.4310,4.261354
213.4354,4.259000
213.4398,4.256616
213.4516,4.250161
213.4571,4.247094
213.4626,4.244005
213.4682,4.240895
213.4801,4.234118
213.5225,4.231183
213.5721,4.228228
213.6253,4.225252
213.9154,4.216886
213.9201,4.214082
213.9248,4.211241
213.9296,4.208343
214.0725,4.200338
214.1248,4.198138
214.1770,4.195926
214.2293,4.193703
214.3709,4.186239
214.3749,4.183690
214.3788,4.181125
214.3828,4.178545
214.3970,4.169205
214.4390,4.166076
214.4882,4.162904
214.5411,4.159666
214.7002,4.150703
214.7057,4.146843
214.7113,4.142949
214.7168,4.139019
214.7322,4.127949
214.7733,4.125107
214.8217,4.122201
214.8738,4.119252
214.8869,4.109396
214.9288,4.105804
214.9780,4.102157
215.0309,4.098431
215.0451,4.087173
215.0487,4.084313
215.0522,4.081433
215.0558,4.078535
215.2149,4.067707
215.2577,4.063033
215.3077,4.058308
215.3614,4.053532
215.3803,4.036825
215.4235,4.031415
215.4739,4.025938
215.5280,4.020391
215.5386,4.010299
215.5940,4.003857
215.6494,3.997318
215.7047,3.990679
215.7167,3.978548
215.7582,3.974091
215.8071,3.969522
215.8596,3.964871
215.8714,3.952142
215.9125,3.947876
215.9609,3.943498
216.0130,3.939040
216.1721,3.924039
216.1761,3.919365
216.1801,3.914640
216.1841,3.909863
216.4591,3.890954
216.5109,3.886992
216.5628,3.882953
216.6147,3.878794
216.8874,3.861529
216.9393,3.857295
216.9911,3.853019
217.0429,3.848701
217.3156,3.830170
217.4494,3.825356
217.5868,3.820395
217.7315,3.815331
218.1532,3.790813
218.2427,3.785137
218.3394,3.779335
218.4399,3.773350
218.9873,3.753473
219.1210,3.747723
219.2584,3.741785
219.4031,3.735709
219.9499,3.715061
220.0227,3.711555
220.2180,3.708342
220.7031,3.702636
221.9883,3.696985
222.4309,3.697891
222.8807,3.698796
223.3341,3.699700
224.3501,3.712467
224.8182,3.717372
225.2864,3.722223
225.7545,3.727020
226.6233,3.741028
227.2933,3.752176
227.5554,3.757234
227.6346,3.760707
228.6987,3.772770
228.7544,3.777042
228.8581,3.779584
229.0985,3.782589
229.0985,3.782589
229.5752,3.794402
230.2514,3.810559
231.0043,3.825052
231.7115,3.832587
231.7115,3.832587
232.0129,3.840884
232.2639,3.848932
232.2949,3.856767
233.1648,3.865684
233.3123,3.870227
233.4670,3.874682
233.6254,3.879010
234.5723,3.892700
234.8915,3.898006
235.2792,3.903332
235.5019,3.907353
235.8338,3.918121
236.0741,3.922614
236.3180,3.926989
236.5692,3.931284
237.1572,3.945472
237.3488,3.949689
237.5440,3.953796
237.7465,3.957831
238.1417,3.969234
238.3160,3.974263
238.4940,3.979169
238.6793,3.983988
239.2673,3.996578
239.5060,4.001862
239.7484,4.007021
239.9980,4.012090
240.5211,4.023898
240.6470,4.028108
240.7765,4.032279
240.9133,4.036410
241.3095,4.044942
241.4360,4.048451
241.5661,4.051905
241.7035,4.055278
241.9712,4.062357
242.1453,4.066091
242.3195,4.069768
242.4937,4.073360
242.6760,4.083611
242.7858,4.086678
242.8957,4.089673
243.0056,4.092622
243.5456,4.101903
243.7194,4.105614
243.8932,4.109244
244.0670,4.112821
244.4597,4.122623
244.7891,4.129766
244.9615,4.132900
245.1248,4.134787
245.5164,4.144911
245.6422,4.147701
245.7681,4.150451
245.8941,4.153141
246.2855,4.162946
246.4109,4.166387
246.5398,4.169802
246.6760,4.173190
247.0711,4.180171
247.1538,4.182260
247.2438,4.184299
247.3375,4.186309
247.6016,4.193792
247.7268,4.197060
247.8557,4.200265
247.9919,4.203428
248.1754,4.210277
248.2845,4.213022
248.3936,4.215750
248.5026,4.218461
248.9621,4.225091
249.1574,4.227558
249.3601,4.229976
249.5664,4.232362
250.6937,4.237444
250.8923,4.238017
251.0981,4.238590
251.3075,4.239162
252.1089,4.244866
252.2829,4.247404
252.4569,4.249928
252.6309,4.252437
252.9616,4.257950
253.0216,4.260636
253.0816,4.263288
253.1416,4.265890
253.5379,4.270940
253.6191,4.273454
253.7075,4.275921
253.7996,4.278357
254.3240,4.284141
254.4502,4.286293
254.5801,4.288403
254.7172,4.290487
255.1107,4.296671
255.2007,4.299427
255.3344,4.301936
255.6314,4.304021
255.6314,4.304021
256.0621,4.302684
256.1744,4.300091
256.1975,4.296994
256.3367,4.292331
256.3773,4.290673
256.4252,4.288976
256.4767,4.287258
256.6328,4.282125
256.7075,4.279564
256.8535,4.277482
256.9711,4.275093
257.0635,4.269211
257.1337,4.266408
257.2040,4.263552
257.2743,4.260661
257.2743,4.260661
257.3880,4.260586
257.4813,4.253690
257.5018,4.260495
257.5060,4.249357
257.5166,4.243429
257.5197,4.257024
257.5586,4.240793
257.6078,4.238124
257.6157,4.260369
257.6157,4.260369
257.6607,4.235402
257.8023,4.228627
257.8926,4.226129
257.9901,4.223579
258.0913,4.220997
258.2342,4.213224
258.2865,4.211088
258.3387,4.208941
258.3909,4.206784
258.5339,4.198750
258.6245,4.195830
258.7224,4.192871
258.8240,4.189852
259.0967,4.181502
259.1866,4.178994
259.2837,4.176430
259.3844,4.173831
259.6548,4.166781
259.6571,4.165231
259.6595,4.163633
259.6619,4.162007
260.2256,4.153897
260.4207,4.154099
260.6195,4.154280
260.8255,4.154418
260.8255,4.154418
260.8892,4.155660
260.9566,4.156856
261.0312,4.158028
261.3422,4.167247
261.4043,4.169517
261.4701,4.171754
261.5431,4.173939
262.2153,4.180186
262.5246,4.172499
262.7037,4.164964
262.7877,4.155691
262.8007,4.146637
262.8415,4.144145
262.8896,4.141640
262.9412,4.139120
263.1002,4.129821
263.1045,4.126678
263.1089,4.123465
263.1133,4.120205
263.2538,4.112212
263.2962,4.108317
263.3458,4.104363
263.3991,4.100324
263.5558,4.091954
263.5993,4.086961
263.6501,4.081884
263.7046,4.076695
263.7152,4.067844
263.8013,4.064221
263.8910,4.060515
263.9880,4.056750
264.0022,4.044343
264.0318,4.017206
264.0564,4.039409
264.1106,4.034419
264.1237,4.011644
264.1649,4.029371
264.2228,4.005949
264.3255,4.000148
264.4671,3.988435
264.5375,3.983503
264.6116,3.978449
264.6929,3.973303
264.6929,3.973303
264.8070,3.972867
264.9210,3.972430
264.9531,3.948892
264.9864,3.961138
265.0350,3.971994
265.0350,3.971994
265.3248,3.939293
265.3248,3.939293
265.4216,3.917847
265.5070,3.897963
265.5816,3.879700
265.6461,3.863090
265.7012,3.848129
265.7475,3.834778
265.7856,3.822962
265.8163,3.812571
265.8402,3.803463
265.8579,3.795467
265.8657,3.751568
265.8702,3.788383
265.8724,3.758373
265.8776,3.781994
265.8777,3.764526
265.8807,3.770327
265.8809,3.776060
265.9620,3.693245
265.9753,3.708241
265.9959,3.722737
266.0201,3.736765
266.0509,3.677436
266.1394,3.663457
266.2314,3.649014
266.3306,3.634075
266.3413,3.609090
266.4793,3.590551
266.6208,3.571186
266.7696,3.550918
266.9252,3.523856
267.0132,3.505101
267.1049,3.485399
267.2038,3.464549
267.4892,3.431336
267.6074,3.414525
267.7256,3.397036
267.8437,3.378813
##END=
