##TITLE=3-bromo-1-propyl-1H-pyrrole-2,5-dione
##JCAMP-DX=4.24
##DATA TYPE=UV/VIS SPECTRUM
##ORIGIN=INSTITUTE OF ENERGY PROBLEMS OF CHEMICAL PHYSICS, RAS
##OWNER=INEP CP RAS, NIST OSRD
Collection (C) 2007 copyright by the U.S. Secretary of Commerce
on behalf of the United States of America. All rights reserved.
##CAS REGISTRY NO=53633-29-7
##MOLFORM=C7H8BrNO2
##SOURCE REFERENCE=RAS UV No. 23875
##$NIST SQUIB=1974SCH/399
##$NIST SOURCE=TYUGLMTE
##SPECTROMETER/DATA SYSTEM=Perkin-Elmer 124
##XUNITS=Wavelength (nm)
##YUNITS=Logarithm epsilon
##XFACTOR=1.0
##YFACTOR=1.0
##FIRSTX=262.14
##LASTX=374.277
##FIRSTY=3.003
##MAXX=374.277
##MINX=262.14
##MAXY=3.003
##MINY=0.899
##NPOINTS=119
##$REF AUTHOR=De Schryver, F.C.; et al.
##$REF JOURNAL=Macromolecules
##$REF VOLUME=7
##$REF PAGE=399
##$REF DATE=1974
##XYPOINTS=(XY..XY)
262.140,3.003
262.311,3.003
262.483,3.003
262.654,3.003
262.654,2.958
262.699,2.984
263.444,2.869
264.444,2.680
265.444,2.526
266.444,2.423
267.444,2.367
268.444,2.343
269.444,2.334
270.444,2.334
271.444,2.341
272.018,2.346
273.018,2.352
274.018,2.359
275.018,2.368
276.018,2.377
277.018,2.387
278.018,2.397
279.018,2.407
280.018,2.417
281.018,2.426
282.018,2.435
283.018,2.444
284.018,2.452
285.018,2.460
286.018,2.467
287.018,2.474
288.018,2.480
289.018,2.486
290.018,2.491
291.018,2.496
292.018,2.500
293.018,2.504
294.018,2.507
295.018,2.510
296.018,2.513
297.018,2.515
298.018,2.517
299.018,2.518
300.018,2.520
301.018,2.520
302.018,2.521
303.018,2.521
304.018,2.520
305.018,2.519
305.752,2.521
306.752,2.516
307.752,2.513
308.752,2.511
309.752,2.510
310.752,2.509
311.752,2.508
312.752,2.506
313.752,2.504
314.752,2.500
315.752,2.496
316.752,2.491
317.752,2.485
318.752,2.478
319.752,2.470
320.752,2.461
321.752,2.451
322.752,2.440
323.752,2.429
324.752,2.417
325.752,2.405
326.752,2.392
327.752,2.379
328.752,2.365
329.752,2.351
330.752,2.337
331.752,2.321
332.752,2.305
333.752,2.288
334.752,2.269
335.385,2.255
336.385,2.233
337.385,2.212
338.385,2.191
339.385,2.170
340.385,2.149
341.385,2.127
342.385,2.105
343.385,2.082
344.385,2.059
345.385,2.034
346.385,2.008
347.385,1.981
348.385,1.953
349.385,1.923
350.385,1.892
351.385,1.859
352.385,1.825
353.385,1.789
354.385,1.751
355.385,1.712
356.385,1.671
357.385,1.629
358.385,1.587
359.385,1.544
360.385,1.502
361.385,1.460
362.385,1.420
363.385,1.382
364.277,1.356
365.277,1.322
366.277,1.281
367.277,1.236
368.277,1.191
369.277,1.146
370.277,1.104
371.277,1.063
372.277,1.022
373.277,0.972
374.277,0.899
##END=
