##TITLE=Pyridine, 3-ethyl-
##JCAMP-DX=4.24
##DATA TYPE=UV/VIS SPECTRUM
##ORIGIN=INSTITUTE OF ENERGY PROBLEMS OF CHEMICAL PHYSICS, RAS
##OWNER=INEP CP RAS, NIST OSRD
Collection (C) 2007 copyright by the U.S. Secretary of Commerce
on behalf of the United States of America. All rights reserved.
##CAS REGISTRY NO=536-78-7
##MOLFORM=C7H9N
##MP=-76.9
##BP=165
##SOURCE REFERENCE=RAS UV No. 429
##$NIST SQUIB=1952COU/HAL71-77
##$NIST SOURCE=TSGMTE
##SPECTROMETER/DATA SYSTEM=n.i.g.
##XUNITS=Wavelength (nm)
##YUNITS=Logarithm epsilon
##XFACTOR=1.000000
##YFACTOR=1.000000
##FIRSTX=240.6476
##LASTX=279.7054
##FIRSTY=2.94889
##MAXX=279.705
##MINX=240.648
##MAXY=3.74965
##MINY=2.52328
##NPOINTS=578
##$REF AUTHOR=Coulson, E.A.; Hales, J.L.; Holt, E.C.; Ditchham, J.B.
##$REF TITLE=Studies in the coal-tar bases. IV. Lutidine and collidine fractions
##$REF JOURNAL=J. Appl. Chem.
##$REF VOLUME=2
##$REF PAGE=71-77
##$REF DATE=1952
##XYPOINTS=(XY..XY)
240.6476,2.948891
240.7249,2.954913
240.7534,2.957505
240.7575,2.958943
241.1922,2.980223
241.3064,2.989207
241.3485,2.992835
241.3545,2.994335
241.7054,3.012286
241.8417,3.019659
241.8919,3.022684
241.8991,3.024034
242.2762,3.040822
242.3301,3.044007
242.3863,3.047226
242.4437,3.050537
242.4437,3.050537
242.4596,3.052684
242.4766,3.054935
242.4960,3.057231
242.9568,3.079170
243.0003,3.079487
243.0461,3.079912
243.0931,3.080390
243.5274,3.111929
243.6047,3.117798
243.6332,3.120212
243.6373,3.121291
244.2079,3.149061
244.3405,3.156604
244.3894,3.159599
244.3963,3.160696
244.8570,3.183265
244.8937,3.183847
244.9303,3.184470
244.9670,3.185177
244.9670,3.185177
245.0060,3.188057
245.0344,3.189624
245.0769,3.191226
245.0769,3.191226
245.1582,3.192694
245.2139,3.194196
245.2917,3.197013
245.2917,3.197013
245.3089,3.199836
245.3284,3.202722
245.3491,3.205629
245.3491,3.205629
245.4268,3.209213
245.4824,3.212331
245.5636,3.217630
245.5636,3.217630
245.6633,3.221856
245.7641,3.226081
245.8672,3.230341
245.8672,3.230341
245.8740,3.231539
245.8831,3.232735
245.8933,3.233927
245.8933,3.233927
246.1432,3.245715
246.2558,3.250583
246.3278,3.252907
246.3278,3.252907
246.3655,3.256019
246.3858,3.257359
246.4062,3.258087
246.6783,3.270463
246.7750,3.275617
246.8171,3.278294
246.8404,3.280817
247.1124,3.296416
247.1491,3.297741
247.1857,3.299061
247.2223,3.300378
247.2223,3.300378
247.2382,3.302125
247.2552,3.303866
247.2745,3.305600
247.5465,3.319651
247.5637,3.321323
247.5833,3.322989
247.6040,3.324649
248.0645,3.342239
248.1412,3.347189
248.1900,3.349831
248.2528,3.352458
248.4411,3.361810
248.4583,3.361975
248.4779,3.362195
248.4987,3.362444
248.4987,3.362444
248.5145,3.364212
248.5315,3.365972
248.5509,3.367726
248.5509,3.367726
248.5943,3.369634
248.6400,3.371589
248.6869,3.373562
248.9065,3.385605
248.9258,3.386608
248.9393,3.388032
248.9586,3.391087
248.9586,3.391087
248.9952,3.392305
249.0319,3.393573
249.0685,3.394862
249.2830,3.403238
249.3044,3.406425
249.3328,3.408908
249.3926,3.412806
249.6123,3.420956
249.6453,3.423529
249.6854,3.425940
249.7219,3.428845
249.9888,3.437875
250.0230,3.440028
250.0643,3.442218
250.0985,3.444419
250.3707,3.452004
250.3773,3.453955
250.3863,3.455897
250.3965,3.457831
250.3965,3.457831
250.4345,3.459348
250.4562,3.460030
250.4802,3.460465
250.6947,3.468766
250.7702,3.471360
250.8388,3.473764
250.9144,3.475939
251.0764,3.483473
251.1566,3.486460
251.2054,3.488649
251.2646,3.491913
251.2646,3.491913
251.2910,3.492571
251.3185,3.493227
251.3484,3.493882
251.5628,3.501574
251.5695,3.502335
251.5786,3.503136
251.5888,3.503955
251.5888,3.503955
251.6152,3.504712
251.6427,3.505509
251.6726,3.506324
251.8344,3.516558
251.8344,3.516558
251.8344,3.515608
251.8345,3.514695
251.8346,3.513800
251.8710,3.517179
251.9077,3.517800
251.9443,3.518419
251.9443,3.518419
251.9615,3.519921
251.9810,3.521438
252.0017,3.522988
252.2161,3.530186
252.2228,3.530959
252.2319,3.531731
252.2421,3.532501
252.2421,3.532501
252.3574,3.536233
252.4076,3.537704
252.4357,3.538195
252.5400,3.545145
252.5400,3.545145
252.5401,3.544563
252.5401,3.543981
252.5402,3.543398
252.5893,3.546301
252.6303,3.547802
252.6760,3.549445
252.6760,3.549445
252.6828,3.550020
252.6918,3.550594
252.7021,3.551168
252.8694,3.556705
252.9023,3.558239
252.9375,3.559768
252.9739,3.561292
252.9739,3.561292
253.0106,3.561852
253.0472,3.562412
253.0838,3.564641
253.0838,3.564085
253.0838,3.563528
253.0839,3.562971
253.0839,3.562971
253.1936,3.567886
253.2094,3.569777
253.2263,3.571676
253.2455,3.573602
253.5177,3.580015
253.5349,3.580268
253.5545,3.580555
253.5753,3.580858
253.5753,3.580858
253.5974,3.582657
253.6313,3.584195
253.7058,3.586786
253.7058,3.586786
253.7163,3.586884
253.7268,3.587015
253.7373,3.587163
253.8417,3.591814
253.8680,3.593232
253.8955,3.594662
253.9252,3.596120
253.9252,3.596120
253.9516,3.596732
253.9791,3.597377
254.0090,3.598037
254.1710,3.604099
254.1924,3.605226
254.2209,3.606013
254.2808,3.607136
254.2808,3.607136
254.2966,3.608361
254.3136,3.609598
254.3329,3.610864
254.6047,3.619701
254.6047,3.619701
254.6048,3.618933
254.6049,3.618180
254.6049,3.617457
254.6414,3.620141
254.6780,3.620613
254.7146,3.622561
254.7146,3.622074
254.7146,3.621587
254.7147,3.621099
254.7147,3.621099
254.9290,3.627950
255.0256,3.631476
255.0676,3.632851
255.0910,3.633273
255.2530,3.639267
255.3068,3.641003
255.3630,3.642732
255.4203,3.644454
255.6347,3.649580
255.7000,3.651868
255.7664,3.653712
255.7968,3.654646
256.0165,3.659335
256.0689,3.661310
256.1225,3.663277
256.1784,3.665234
256.3929,3.669811
256.4293,3.671095
256.4855,3.672651
256.5602,3.674955
256.8271,3.679432
256.8485,3.680618
256.8770,3.681531
256.9368,3.682954
256.9368,3.682954
257.0142,3.684283
257.0427,3.684846
257.0467,3.685127
257.3189,3.689798
257.3450,3.690512
257.3711,3.691225
257.3973,3.691937
257.3973,3.691937
257.4603,3.692945
257.5244,3.693965
257.5909,3.695008
257.8056,3.698058
257.9602,3.700857
258.0172,3.701954
258.0253,3.702303
258.2399,3.705934
258.3766,3.707666
258.4539,3.708820
258.5382,3.710388
258.5382,3.710388
258.5646,3.710462
258.5922,3.710561
258.6221,3.710673
258.8943,3.714180
258.9011,3.714573
258.9102,3.714967
258.9204,3.715360
258.9204,3.715360
258.9571,3.715753
258.9937,3.716146
259.0304,3.716538
259.0304,3.716538
259.0371,3.716930
259.0462,3.717321
259.0565,3.717712
259.3810,3.722324
259.4909,3.723830
259.6009,3.725356
259.7108,3.726888
259.9831,3.729724
260.1149,3.731483
260.2107,3.732912
260.3076,3.734264
260.5799,3.737053
260.6942,3.738414
260.7362,3.738980
260.7422,3.739238
261.3654,3.745311
261.5581,3.746454
261.6355,3.746875
261.6641,3.746935
261.9941,3.749644
262.0467,3.749645
262.1005,3.749646
262.1566,3.749646
262.5921,3.746947
262.6184,3.746845
262.6446,3.746754
262.6708,3.746687
262.6708,3.746687
262.6917,3.746321
262.7113,3.745956
262.7286,3.745590
262.9178,3.742598
262.9740,3.741861
263.0279,3.741122
263.0806,3.740381
263.0806,3.740381
263.0909,3.739906
263.1001,3.739443
263.1070,3.739002
263.3016,3.734303
263.3222,3.732660
263.3427,3.731709
263.3807,3.730635
263.5752,3.725844
263.5967,3.724756
263.6240,3.723787
263.6805,3.722105
263.9014,3.716603
263.9210,3.715429
263.9382,3.714264
263.9543,3.713121
264.0649,3.708358
264.0865,3.707993
264.1152,3.706764
264.1751,3.707789
264.1756,3.703601
264.2118,3.707790
264.2485,3.707790
264.2852,3.707791
264.3912,3.697566
264.4082,3.697040
264.4497,3.695966
264.5017,3.694222
264.6649,3.688353
264.6671,3.688107
264.6820,3.687782
264.7227,3.687098
264.7227,3.687098
264.7423,3.685556
264.7560,3.684839
264.7754,3.684335
264.9385,3.679549
264.9620,3.679148
265.0043,3.677755
265.1016,3.674156
265.3225,3.668008
265.3793,3.665468
265.4079,3.664373
265.4330,3.663796
265.5384,3.658777
265.5620,3.658344
265.6043,3.656799
265.7016,3.652794
265.7016,3.652794
265.7224,3.652537
265.7420,3.652295
265.7593,3.652081
265.9748,3.647319
265.9748,3.646862
265.9749,3.646419
265.9749,3.646005
265.9749,3.646005
266.0175,3.645176
266.0462,3.644286
266.0854,3.642570
266.3586,3.636292
266.3954,3.635216
266.4322,3.634153
266.4690,3.633118
266.7423,3.626356
266.8054,3.625047
266.8684,3.623733
266.9315,3.622416
267.3410,3.616192
267.3512,3.615756
267.4220,3.614346
267.6142,3.610733
267.8873,3.605855
267.8963,3.605433
267.9589,3.604158
268.1289,3.600922
268.4335,3.596006
268.4438,3.595489
268.4530,3.594971
268.4598,3.594453
268.4598,3.594453
268.5620,3.592421
268.6396,3.591010
268.7592,3.589013
268.9746,3.584262
269.0013,3.583255
269.0653,3.581517
269.2216,3.577536
269.4108,3.572267
269.4477,3.570081
269.4846,3.567901
269.5214,3.565745
269.7947,3.558242
269.8143,3.556304
269.8315,3.554357
269.8476,3.552402
270.0160,3.545491
270.0727,3.539800
270.1002,3.536168
270.1219,3.531496
270.1219,3.531496
270.1427,3.531157
270.1623,3.530836
270.1797,3.530554
270.1797,3.530554
270.1798,3.528750
270.1799,3.526957
270.1801,3.525196
270.3959,3.514195
270.3961,3.511358
270.3963,3.508543
270.3965,3.505730
270.5596,3.497194
270.5807,3.493591
270.6005,3.489999
270.6181,3.486398
270.7287,3.478437
270.7855,3.471604
270.8129,3.468816
270.8343,3.467755
270.9450,3.457820
270.9785,3.453486
271.0190,3.449707
271.0559,3.445987
271.1667,3.435000
271.1871,3.434418
271.2076,3.432832
271.2457,3.428860
271.3303,3.417982
271.3499,3.413732
271.3673,3.409441
271.3834,3.405107
271.4940,3.397827
271.5135,3.395021
271.5308,3.392196
271.5469,3.389353
271.5469,3.389353
271.5677,3.388882
271.5873,3.388437
271.6046,3.388045
271.6577,3.376692
271.6793,3.375862
271.7080,3.372896
271.7684,3.365161
271.8790,3.354605
271.8987,3.350504
271.9160,3.346422
271.9321,3.342330
271.9849,3.333906
272.0151,3.329432
272.0428,3.324942
272.0695,3.320467
272.2065,3.304871
272.2400,3.299231
272.2804,3.294668
272.3172,3.291978
272.3704,3.275456
272.3919,3.274460
272.4206,3.271075
272.4810,3.262283
272.5864,3.248861
272.6082,3.242852
272.6370,3.236984
272.6974,3.226102
272.7556,3.213280
272.7753,3.205734
272.7926,3.198095
272.8088,3.190402
272.9195,3.174521
272.9391,3.169679
272.9563,3.164871
272.9724,3.160054
273.1932,3.140694
273.2036,3.136947
273.2129,3.133264
273.2198,3.129596
273.2198,3.129596
273.2392,3.129173
273.2563,3.128797
273.2722,3.128517
273.2722,3.128517
273.2826,3.125909
273.2918,3.123285
273.2987,3.120645
273.3568,3.106517
273.3795,3.098447
273.4151,3.091223
273.4939,3.078509
273.6307,3.059123
273.6521,3.057587
273.6794,3.052732
273.7361,3.040159
273.7361,3.040159
273.7660,3.037773
273.7937,3.035434
273.8201,3.033202
274.3404,2.981107
274.3474,2.979448
274.3965,2.974914
274.5295,2.963420
274.9392,2.927108
274.9587,2.925383
274.9758,2.923651
274.9918,2.921912
275.3173,2.897553
275.3390,2.890322
275.3676,2.884747
275.4278,2.876011
275.4278,2.876011
275.5464,2.867322
275.6172,2.863001
275.7007,2.859443
275.7007,2.859443
275.7375,2.855822
275.7742,2.852262
275.8110,2.848856
276.1365,2.822521
276.2465,2.813226
276.3554,2.803728
276.4620,2.794018
276.7927,2.764014
276.8397,2.762027
276.8856,2.760143
276.9291,2.758477
276.9291,2.758477
277.0289,2.749399
277.1286,2.740363
277.2283,2.731256
277.5537,2.708534
277.6116,2.705724
277.7127,2.698129
277.8266,2.686952
278.2098,2.644236
278.2659,2.640927
278.3198,2.637593
278.3724,2.634232
278.3724,2.634232
278.4092,2.629477
278.4459,2.624670
278.4827,2.619809
278.9182,2.578083
278.9548,2.576576
278.9901,2.575236
279.0231,2.574236
279.0231,2.574236
279.1057,2.567615
279.1697,2.561242
279.2698,2.549517
279.6789,2.526818
279.7054,2.523280
##END=
