##TITLE=(E) 1-Ethoxy-2-(ethylthio)ethene
##JCAMP-DX=4.24
##DATA TYPE=UV/VIS SPECTRUM
##ORIGIN=INSTITUTE OF ENERGY PROBLEMS OF CHEMICAL PHYSICS, RAS
##OWNER=INEP CP RAS, NIST OSRD
Collection (C) 2007 copyright by the U.S. Secretary of Commerce
on behalf of the United States of America. All rights reserved.
##CAS REGISTRY NO=53715-47-2
##MOLFORM=C6H12OS
##SOURCE REFERENCE=RAS UV No. 23364
##$NIST SQUIB=1975TUR/PRO2099
##$NIST SOURCE=TYUGLMTE
##SPECTROMETER/DATA SYSTEM=Unicam SP 700
##XUNITS=Wavelength (nm)
##YUNITS=Logarithm epsilon
##XFACTOR=1.0
##YFACTOR=1.0
##FIRSTX=201.972
##LASTX=261.826
##FIRSTY=3.85
##MAXX=261.826
##MINX=201.972
##MAXY=3.857
##MINY=3.157
##NPOINTS=121
##$REF AUTHOR=Turecek, F.; Prochazka, M.
##$REF JOURNAL=Coll. Czech. Chem. Comm.
##$REF VOLUME=40
##$REF PAGE=2099
##$REF DATE=1975
##XYPOINTS=(XY..XY)
201.972,3.850
202.549,3.854
203.115,3.855
203.592,3.857
204.093,3.857
204.571,3.857
205.093,3.855
205.593,3.854
206.093,3.852
206.593,3.850
207.093,3.848
207.593,3.845
208.093,3.842
208.593,3.838
209.093,3.833
209.593,3.828
210.093,3.823
210.593,3.817
211.093,3.811
211.593,3.804
212.093,3.797
212.593,3.790
213.093,3.782
213.593,3.774
214.093,3.767
214.593,3.759
215.093,3.750
215.593,3.742
216.093,3.734
216.593,3.725
217.093,3.716
217.593,3.707
218.093,3.697
218.593,3.688
219.093,3.677
219.593,3.667
220.093,3.655
220.593,3.644
221.093,3.631
221.593,3.618
222.093,3.605
222.593,3.590
223.093,3.575
223.593,3.560
224.093,3.543
224.593,3.526
225.093,3.509
225.593,3.492
226.093,3.474
226.593,3.456
227.093,3.439
227.593,3.422
228.037,3.412
228.537,3.393
229.037,3.374
229.537,3.357
230.037,3.341
230.537,3.326
231.037,3.312
231.537,3.299
232.037,3.288
232.537,3.278
233.037,3.270
233.537,3.262
234.037,3.256
234.537,3.252
235.037,3.248
235.537,3.246
236.037,3.245
236.537,3.245
237.037,3.246
237.537,3.248
238.037,3.251
238.537,3.255
239.037,3.260
239.537,3.266
240.037,3.273
240.537,3.280
241.037,3.288
241.537,3.297
242.037,3.306
242.537,3.316
243.037,3.326
243.537,3.336
244.037,3.347
244.537,3.357
245.037,3.368
245.537,3.379
246.037,3.390
246.537,3.401
246.957,3.409
247.457,3.421
247.957,3.434
248.457,3.448
248.957,3.462
249.457,3.475
249.957,3.486
250.457,3.495
250.957,3.502
251.457,3.506
251.957,3.508
252.457,3.506
252.957,3.503
253.457,3.496
253.957,3.487
254.457,3.476
254.957,3.463
255.457,3.449
255.957,3.432
256.457,3.415
256.957,3.396
257.457,3.377
257.957,3.356
258.457,3.335
258.957,3.312
259.457,3.289
259.957,3.264
260.326,3.244
260.826,3.216
261.326,3.187
261.826,3.157
##END=
