##TITLE=Dibenz[a,h]anthracene
##JCAMP-DX=4.24
##DATA TYPE=UV/VIS SPECTRUM
##ORIGIN=INSTITUTE OF ENERGY PROBLEMS OF CHEMICAL PHYSICS, RAS
##OWNER=INEP CP RAS, NIST OSRD
Collection (C) 2007 copyright by the U.S. Secretary of Commerce
on behalf of the United States of America. All rights reserved.
##CAS REGISTRY NO=53-70-3
##MOLFORM=C22H14
##MP=262
##SOURCE REFERENCE=RAS UV No. 19836
##$NIST SQUIB=1967PERe5/6
##$NIST SOURCE=TYUGLMTE
##SPECTROMETER/DATA SYSTEM=Zeiss PMQ II
##XUNITS=Wavelength (nm)
##YUNITS=Logarithm epsilon
##XFACTOR=1.0
##YFACTOR=1.0
##FIRSTX=183.98
##LASTX=402.51
##FIRSTY=4.567
##MAXX=402.51
##MINX=183.98
##MAXY=5.251
##MINY=1.599
##NPOINTS=556
##$REF AUTHOR=Perkampus, H.-H.
##$REF JOURNAL=UV atlas of organic compounds
##$REF VOLUME=3
##$REF PAGE=E5/6
##$REF DATE=1967
##XYPOINTS=(XY..XY)
183.98,4.567
184.57,4.575
185.16,4.584
185.76,4.592
186.35,4.601
186.88,4.614
187.41,4.626
187.86,4.641
188.32,4.654
188.78,4.667
189.17,4.682
189.63,4.695
190.10,4.707
190.65,4.718
191.28,4.727
191.99,4.731
192.63,4.737
193.35,4.742
194.08,4.737
194.49,4.722
194.98,4.707
195.23,4.690
195.56,4.673
195.80,4.656
195.97,4.637
196.22,4.618
196.39,4.599
196.55,4.580
196.72,4.560
196.89,4.541
197.05,4.522
197.22,4.503
197.39,4.484
197.56,4.464
197.73,4.445
197.90,4.426
198.07,4.407
198.32,4.390
198.49,4.371
198.74,4.354
199.00,4.337
199.17,4.317
199.43,4.300
199.69,4.281
199.95,4.264
200.21,4.245
200.55,4.228
200.73,4.209
201.16,4.194
201.69,4.179
202.39,4.168
203.19,4.164
203.91,4.174
204.45,4.187
204.99,4.202
205.53,4.217
206.08,4.232
206.51,4.246
207.00,4.264
207.37,4.281
207.84,4.296
208.21,4.313
208.68,4.330
209.15,4.347
209.53,4.364
210.01,4.379
210.48,4.396
210.96,4.413
211.25,4.430
211.73,4.447
212.03,4.467
212.41,4.484
212.80,4.501
213.10,4.520
213.39,4.539
213.69,4.558
213.98,4.577
214.18,4.597
214.34,4.611
214.46,4.623
214.64,4.633
214.95,4.639
215.38,4.641
215.48,4.641
215.58,4.641
215.68,4.641
215.98,4.641
216.28,4.641
216.59,4.641
216.89,4.637
217.19,4.633
217.50,4.629
217.81,4.626
218.11,4.624
218.42,4.626
218.73,4.631
219.04,4.641
219.35,4.654
219.67,4.663
220.04,4.678
220.29,4.699
220.61,4.748
220.92,4.782
221.24,4.803
221.56,4.808
221.88,4.801
222.19,4.788
222.49,4.770
222.84,4.746
223.18,4.716
223.48,4.686
223.74,4.661
224.13,4.622
224.46,4.590
224.78,4.554
225.07,4.524
225.44,4.499
225.77,4.479
226.10,4.469
226.43,4.460
226.76,4.452
227.10,4.445
227.43,4.439
227.77,4.432
228.10,4.428
228.44,4.426
228.78,4.424
229.12,4.422
229.46,4.426
229.80,4.430
230.14,4.435
230.49,4.443
230.83,4.445
231.18,4.452
231.52,4.456
231.87,4.460
232.22,4.462
232.57,4.462
232.90,4.459
233.27,4.452
233.62,4.435
233.98,4.409
234.33,4.375
234.69,4.337
235.05,4.279
235.41,4.211
235.76,4.160
236.13,4.121
236.49,4.079
236.85,4.030
237.21,3.998
237.58,3.963
237.94,3.936
238.31,3.914
238.68,3.897
239.05,3.887
239.42,3.876
239.79,3.870
240.16,3.865
240.54,3.863
240.91,3.859
241.29,3.857
241.67,3.859
242.05,3.865
242.43,3.870
242.81,3.870
243.19,3.867
243.57,3.861
243.96,3.855
244.35,3.846
244.73,3.840
245.12,3.833
246.82,3.827
248.01,3.831
249.07,3.840
250.02,3.853
250.69,3.867
251.37,3.885
251.92,3.902
252.47,3.919
253.02,3.936
253.71,3.953
254.41,3.970
254.83,3.987
255.39,4.004
256.10,4.021
256.52,4.038
257.23,4.055
257.81,4.072
258.38,4.089
259.11,4.106
259.54,4.123
260.12,4.140
260.71,4.157
261.15,4.174
261.74,4.192
262.33,4.209
263.02,4.226
263.68,4.238
264.58,4.253
265.34,4.270
266.10,4.285
266.71,4.302
267.48,4.319
267.95,4.337
268.41,4.356
269.04,4.373
269.51,4.392
269.84,4.406
270.29,4.430
270.61,4.450
270.89,4.461
271.26,4.479
271.71,4.501
272.20,4.526
272.52,4.545
272.84,4.565
273.35,4.588
273.66,4.600
273.99,4.613
274.28,4.624
274.62,4.629
274.77,4.630
274.89,4.630
275.11,4.629
275.43,4.626
275.76,4.622
276.09,4.618
276.42,4.614
276.76,4.611
277.08,4.614
277.41,4.620
277.75,4.626
278.08,4.635
278.41,4.644
278.75,4.648
279.09,4.650
279.42,4.650
279.76,4.646
280.10,4.639
280.44,4.629
280.78,4.622
281.12,4.622
281.46,4.624
281.80,4.629
282.14,4.641
282.49,4.658
282.83,4.673
283.13,4.685
283.53,4.701
283.85,4.719
284.22,4.748
284.57,4.791
284.92,4.825
285.27,4.859
285.62,4.887
285.98,4.929
286.33,4.948
286.68,4.959
287.04,4.970
287.40,4.972
287.75,4.970
288.11,4.968
288.47,4.965
288.83,4.963
289.19,4.957
289.55,4.953
289.91,4.942
290.28,4.933
290.64,4.912
291.01,4.895
291.37,4.874
291.74,4.852
292.11,4.831
292.48,4.818
292.85,4.810
293.22,4.806
293.59,4.803
293.96,4.803
294.33,4.806
294.71,4.810
295.08,4.818
295.46,4.831
295.84,4.850
296.36,4.897
296.86,4.970
297.34,5.040
297.78,5.099
298.12,5.140
298.51,5.185
298.89,5.226
299.28,5.240
299.67,5.249
300.05,5.251
300.44,5.238
300.68,5.215
300.92,5.177
301.22,5.130
301.69,5.041
302.30,4.910
302.68,4.808
303.00,4.729
303.20,4.682
303.59,4.620
303.99,4.571
304.39,4.526
304.79,4.486
305.19,4.452
305.60,4.422
306.00,4.409
306.40,4.396
306.81,4.386
307.22,4.377
307.63,4.375
308.03,4.366
308.44,4.362
308.86,4.356
309.27,4.347
309.68,4.343
310.10,4.332
310.51,4.322
310.93,4.309
311.35,4.292
311.77,4.277
312.17,4.257
312.61,4.232
313.03,4.194
313.45,4.164
313.88,4.140
314.30,4.132
314.73,4.130
315.16,4.130
315.59,4.136
316.02,4.143
316.45,4.157
316.88,4.185
317.32,4.206
317.75,4.228
318.19,4.247
318.63,4.255
319.07,4.260
319.51,4.268
319.95,4.275
320.39,4.279
320.83,4.281
321.28,4.287
321.73,4.287
322.17,4.287
322.62,4.287
323.07,4.281
323.52,4.273
323.98,4.260
324.43,4.234
324.88,4.194
325.34,4.162
325.80,4.132
326.26,4.087
326.72,4.044
327.18,4.027
327.64,4.021
328.11,4.019
328.57,4.019
329.04,4.021
329.51,4.030
329.98,4.036
330.45,4.044
330.92,4.059
331.40,4.082
331.68,4.105
331.92,4.128
332.26,4.158
332.57,4.181
332.89,4.205
333.15,4.220
333.54,4.232
333.78,4.236
334.26,4.238
334.74,4.241
335.23,4.236
335.72,4.232
336.20,4.219
336.69,4.206
337.18,4.189
337.67,4.170
338.17,4.140
338.58,4.108
339.16,4.038
339.50,3.979
339.87,3.925
340.40,3.853
340.69,3.831
341.15,3.814
341.66,3.808
342.16,3.804
342.67,3.804
343.18,3.804
343.69,3.812
344.21,3.826
344.71,3.846
345.22,3.867
345.74,3.895
346.25,3.923
346.77,3.948
347.29,3.974
347.81,4.008
348.46,4.066
348.86,4.119
349.39,4.168
349.92,4.189
350.44,4.194
350.98,4.192
351.51,4.162
352.04,4.123
352.55,4.058
353.07,3.972
353.46,3.868
353.90,3.754
354.45,3.612
355.07,3.452
355.53,3.349
356.03,3.235
356.65,3.140
357.32,3.040
358.43,2.890
359.14,2.812
359.98,2.718
360.47,2.671
361.10,2.642
361.66,2.637
362.23,2.635
362.80,2.635
363.36,2.637
363.76,2.658
363.99,2.681
364.21,2.696
364.51,2.703
364.79,2.703
365.08,2.703
365.37,2.703
365.66,2.699
366.14,2.683
366.59,2.653
366.95,2.591
367.40,2.520
367.69,2.499
367.92,2.490
368.26,2.485
368.52,2.487
368.82,2.493
369.16,2.500
369.46,2.512
369.74,2.533
370.09,2.565
370.34,2.590
370.63,2.633
370.93,2.678
371.23,2.723
371.52,2.770
371.68,2.798
371.94,2.846
372.12,2.874
372.46,2.920
372.72,2.944
373.02,2.964
373.32,2.972
373.62,2.972
373.92,2.974
374.22,2.974
374.53,2.970
374.83,2.966
375.11,2.948
375.41,2.898
375.74,2.844
376.05,2.782
376.35,2.701
376.56,2.650
376.97,2.580
377.22,2.530
377.40,2.496
377.69,2.442
377.89,2.402
378.07,2.365
378.35,2.332
378.69,2.316
379.17,2.307
379.48,2.305
379.74,2.308
380.00,2.313
380.36,2.319
380.66,2.325
381.00,2.335
381.30,2.347
381.62,2.367
381.89,2.399
382.27,2.482
382.57,2.541
382.89,2.571
383.17,2.591
383.52,2.605
383.84,2.620
384.16,2.622
384.47,2.627
384.79,2.627
385.11,2.620
385.43,2.605
385.73,2.592
386.08,2.571
386.33,2.545
386.61,2.503
386.95,2.454
387.23,2.415
387.68,2.349
388.06,2.286
388.34,2.256
388.67,2.237
388.99,2.230
389.28,2.227
389.63,2.225
389.95,2.227
390.29,2.228
390.65,2.234
390.97,2.242
391.29,2.256
391.52,2.285
391.98,2.368
392.28,2.435
392.62,2.509
392.88,2.561
393.29,2.648
393.59,2.720
393.96,2.808
394.49,2.942
394.96,3.049
395.36,3.081
395.60,3.086
396.00,3.079
396.32,3.047
396.56,2.960
396.74,2.893
396.94,2.819
397.12,2.749
397.33,2.677
397.53,2.605
397.81,2.503
398.07,2.411
398.31,2.334
398.69,2.234
399.26,2.112
399.92,2.006
400.43,1.917
400.77,1.868
401.12,1.817
401.47,1.765
401.82,1.710
402.16,1.646
402.51,1.599
##END=
