##TITLE=1,4-Benzenediamine, N-(4-aminophenyl)-
##JCAMP-DX=4.24
##DATA TYPE=UV/VIS SPECTRUM
##ORIGIN=INSTITUTE OF ENERGY PROBLEMS OF CHEMICAL PHYSICS, RAS
##OWNER=INEP CP RAS, NIST OSRD
Collection (C) 2007 copyright by the U.S. Secretary of Commerce
on behalf of the United States of America. All rights reserved.
##CAS REGISTRY NO=537-65-5
##MOLFORM=C12H13N3
##SOURCE REFERENCE=RAS UV No. 16645
##$NIST SQUIB=1972ZAC/NES1303
##$NIST SOURCE=TYUGLMTE
##SPECTROMETER/DATA SYSTEM=Optica (Milano) CF-4
##XUNITS=Wavelength (nm)
##YUNITS=Logarithm epsilon
##XFACTOR=1.0
##YFACTOR=1.0
##FIRSTX=192.25
##LASTX=343.03
##FIRSTY=3.503
##MAXX=343.03
##MINX=192.25
##MAXY=4.053
##MINY=2.593
##NPOINTS=116
##$REF AUTHOR=Zach, P.; Nespurek, S.
##$REF JOURNAL=Coll. Czech. Chem. Comm.
##$REF VOLUME=37
##$REF PAGE=1303
##$REF DATE=1972
##XYPOINTS=(XY..XY)
192.25,3.503
192.39,3.508
192.77,3.524
193.24,3.541
193.88,3.572
194.57,3.614
195.45,3.676
196.32,3.730
197.19,3.807
198.07,3.847
198.94,3.884
199.81,3.921
200.69,3.967
201.56,3.997
202.43,4.029
203.31,4.053
204.18,4.052
205.05,4.024
205.93,3.991
206.80,3.950
207.67,3.924
208.55,3.877
209.42,3.815
210.29,3.758
211.17,3.734
212.04,3.707
212.91,3.694
213.79,3.681
214.66,3.676
215.53,3.667
216.41,3.665
217.28,3.665
218.15,3.665
219.03,3.667
219.90,3.667
220.77,3.676
221.65,3.681
222.52,3.694
223.39,3.710
224.27,3.730
225.14,3.744
226.01,3.769
226.89,3.782
227.76,3.798
228.63,3.811
229.51,3.828
230.38,3.840
231.25,3.853
232.12,3.865
233.00,3.877
233.87,3.889
234.74,3.902
235.62,3.910
236.49,3.918
237.36,3.926
238.24,3.932
239.11,3.935
239.98,3.937
240.86,3.938
241.73,3.940
242.60,3.940
243.48,3.938
244.35,3.937
245.22,3.934
246.10,3.927
246.97,3.921
247.84,3.912
248.72,3.891
249.59,3.870
250.46,3.851
251.31,3.828
252.21,3.801
253.23,3.776
254.39,3.739
255.57,3.692
257.23,3.631
259.47,3.533
261.63,3.428
264.04,3.306
265.49,3.241
267.54,3.175
269.83,3.120
271.52,3.086
273.57,3.057
275.35,3.044
277.54,3.044
279.82,3.056
282.23,3.079
284.40,3.110
286.27,3.138
288.45,3.183
290.64,3.223
292.82,3.267
295.00,3.301
297.19,3.326
299.37,3.350
301.55,3.361
303.74,3.372
305.92,3.383
308.10,3.388
310.29,3.383
312.47,3.378
314.65,3.356
316.84,3.338
319.02,3.307
321.20,3.267
323.39,3.223
325.58,3.172
327.73,3.119
329.94,3.055
331.93,2.996
334.30,2.923
336.46,2.852
338.67,2.778
340.43,2.698
343.03,2.593
##END=
