##TITLE=2-Acetyl-5-bromothiophene
##JCAMP-DX=4.24
##DATA TYPE=UV/VIS SPECTRUM
##ORIGIN=INSTITUTE OF ENERGY PROBLEMS OF CHEMICAL PHYSICS, RAS
##OWNER=INEP CP RAS, NIST OSRD
Collection (C) 2007 copyright by the U.S. Secretary of Commerce
on behalf of the United States of America. All rights reserved.
##CAS REGISTRY NO=5370-25-2
##MOLFORM=C6H5BrOS
##MP=94.5
##BP=103(4)
##SOURCE REFERENCE=RAS UV No. 77
##$NIST SQUIB=1961VOL/LOP1879-1883
##$NIST SOURCE=TSGMTE
##SPECTROMETER/DATA SYSTEM=n.i.g.
##XUNITS=Wavelength (nm)
##YUNITS=Logarithm epsilon
##XFACTOR=1.000000
##YFACTOR=1.000000
##FIRSTX=204.2422
##LASTX=319.7715
##FIRSTY=3.39061
##MAXX=319.772
##MINX=204.242
##MAXY=4.11189
##MINY=2.35079
##NPOINTS=175
##$REF AUTHOR=Vol'kenstein, Y.B.; Lopatin, B.V.; Petukhov, V.A.
##$REF TITLE=Study of product distribution of bromination of 2-thienyl ketones in the pressure of the excess of aluminum chloride
##$REF JOURNAL=Izv. Akad. Nauk SSSR, Ser. Khim.
##$REF PAGE=1879-1883
##$REF DATE=1961
##XYPOINTS=(XY..XY)
204.2422,3.390608
204.3794,3.394380
204.5204,3.397986
204.6693,3.401295
206.2379,3.445388
206.8904,3.458257
207.5385,3.464144
208.3698,3.464115
209.9684,3.442767
210.7068,3.425090
211.4528,3.406667
212.2027,3.387430
213.8802,3.335828
214.5788,3.313582
215.2775,3.289786
215.9762,3.264425
217.6537,3.194502
218.4728,3.164547
219.2921,3.131870
220.1114,3.096260
222.1307,3.009294
222.8265,2.982407
223.5261,2.953752
224.2333,2.923084
226.6080,2.851865
226.8671,2.850114
227.1264,2.847873
227.3857,2.844647
227.6112,2.836237
228.1289,2.843789
228.6505,2.850741
229.1799,2.856651
231.5403,2.895443
233.0124,2.952713
233.6216,2.978507
233.8900,2.999008
235.6702,3.081942
236.3532,3.120214
237.0402,3.155151
237.7349,3.187049
240.8304,3.337532
240.9192,3.344542
241.0158,3.351293
241.1163,3.357645
242.5262,3.413811
243.1357,3.440431
243.7453,3.465396
244.3550,3.488784
245.3346,3.528566
246.1546,3.554227
246.5932,3.568875
247.0263,3.585614
248.2939,3.625508
248.7540,3.640956
249.2218,3.655801
249.6935,3.670010
250.8728,3.705516
251.6700,3.727429
251.9797,3.736409
252.0670,3.740851
253.6056,3.774376
254.4104,3.793337
254.7723,3.802392
255.0016,3.809760
256.4032,3.837610
257.0119,3.848430
257.6209,3.858893
258.2298,3.869064
259.3604,3.889479
260.0570,3.900872
260.8903,3.912954
261.7533,3.919994
261.7533,3.919994
261.8461,3.919033
261.9467,3.917989
262.0512,3.916901
262.4481,3.929211
263.1740,3.935789
263.8284,3.938668
264.8842,3.939912
266.6081,3.929862
267.1377,3.925235
267.6752,3.920518
268.2165,3.915668
270.3732,3.904152
271.3136,3.906198
271.8707,3.907961
272.5221,3.910946
274.0737,3.924883
274.6232,3.930994
275.1259,3.937485
275.3403,3.944301
277.0276,3.969897
277.2144,3.974644
277.5291,3.980996
277.9943,3.991323
279.0334,4.009809
279.6767,4.020066
279.9454,4.024962
280.0702,4.028832
281.2624,4.047074
281.6534,4.052983
282.0521,4.058784
282.4548,4.064450
283.4980,4.078081
284.2552,4.086502
284.6722,4.090465
285.1065,4.093462
286.5136,4.105663
287.3669,4.108447
288.1527,4.110546
289.0898,4.111890
290.8244,4.108147
291.4558,4.103618
292.0872,4.098986
292.7187,4.094278
294.1752,4.082950
294.6063,4.077230
295.0452,4.071377
295.4880,4.065416
296.5354,4.050532
297.0316,4.041013
297.3627,4.035544
297.5720,4.031575
298.3087,4.015423
298.5800,4.008713
298.8553,4.001830
299.1382,3.994803
299.8082,3.975731
300.0634,3.967259
300.3185,3.958582
300.5738,3.949651
301.3139,3.927725
301.5158,3.919720
301.7216,3.911524
301.9352,3.903086
302.6795,3.875356
302.8617,3.863641
303.1412,3.850420
303.5196,3.837596
303.7495,3.817603
304.0047,3.805296
304.2600,3.792519
304.5154,3.779299
305.1150,3.748866
305.2652,3.736712
305.4192,3.724144
305.5810,3.711071
306.1827,3.672647
306.4384,3.654788
306.6940,3.636162
306.9496,3.616702
307.4060,3.579795
307.6087,3.559539
307.8114,3.538094
308.0142,3.515431
308.6118,3.462057
308.7826,3.440452
308.9612,3.417589
309.1437,3.393183
309.1437,3.393183
309.2249,3.352027
309.5543,3.299940
310.0711,3.242367
310.7141,3.188450
311.8998,3.060147
312.0944,3.035701
312.2889,3.009797
312.4834,2.982249
314.5147,2.756871
315.3042,2.688482
318.4114,2.609560
318.7052,2.512865
319.1463,2.437660
319.7715,2.350788
##END=
