##TITLE=N-(2-amino-4-nitrophenyl)acetamide
##JCAMP-DX=4.24
##DATA TYPE=UV/VIS SPECTRUM
##ORIGIN=INSTITUTE OF ENERGY PROBLEMS OF CHEMICAL PHYSICS, RAS
##OWNER=INEP CP RAS, NIST OSRD
Collection (C) 2007 copyright by the U.S. Secretary of Commerce
on behalf of the United States of America. All rights reserved.
##CAS REGISTRY NO=53987-32-9
##MOLFORM=C8H9N3O3
##MP=183-185
##SOURCE REFERENCE=RAS UV No. 23931
##$NIST SQUIB=1974MYS/MAK1916
##$NIST SOURCE=TYUGLMTE
##SPECTROMETER/DATA SYSTEM=Ultrametr A8-S
##XUNITS=Wavelength (nm)
##YUNITS=Logarithm epsilon
##XFACTOR=1.0
##YFACTOR=1.0
##FIRSTX=268.162
##LASTX=459.365
##FIRSTY=3.749
##MAXX=459.365
##MINX=268.162
##MAXY=3.749
##MINY=2.432
##NPOINTS=159
##$REF AUTHOR=Mysyk, D.D.; Maksimenko, N.N.
##$REF JOURNAL=Zhur. Organ. Khim.
##$REF VOLUME=10
##$REF PAGE=1916
##$REF DATE=1974
##XYPOINTS=(XY..XY)
268.162,3.749
269.162,3.739
270.162,3.727
271.162,3.713
272.162,3.697
273.162,3.682
274.162,3.666
275.162,3.651
276.162,3.637
277.162,3.624
278.162,3.613
279.162,3.603
280.162,3.596
281.162,3.590
282.162,3.586
283.162,3.583
284.162,3.582
285.162,3.583
286.162,3.584
287.162,3.587
288.162,3.590
289.162,3.594
290.162,3.599
291.162,3.603
292.162,3.608
293.162,3.612
294.162,3.616
295.162,3.619
296.162,3.622
297.162,3.624
298.162,3.625
299.162,3.625
300.162,3.625
301.162,3.623
302.162,3.621
303.162,3.617
304.162,3.614
305.162,3.609
306.980,3.599
307.980,3.588
308.980,3.579
309.980,3.572
310.980,3.566
311.980,3.560
312.980,3.554
313.980,3.546
314.980,3.538
315.980,3.528
316.980,3.516
317.980,3.504
318.980,3.490
319.980,3.475
320.980,3.460
321.980,3.444
322.980,3.427
323.980,3.411
324.980,3.396
325.980,3.381
326.980,3.367
327.980,3.355
328.980,3.343
329.980,3.334
330.980,3.326
331.980,3.319
332.980,3.315
333.980,3.312
334.980,3.311
335.980,3.311
336.980,3.312
337.980,3.315
338.980,3.318
339.980,3.322
340.980,3.326
341.980,3.330
342.898,3.335
343.898,3.336
344.898,3.339
345.898,3.341
346.898,3.344
347.898,3.347
348.898,3.350
349.898,3.353
350.898,3.357
351.898,3.361
352.898,3.364
353.898,3.368
354.898,3.373
355.898,3.377
356.898,3.381
357.898,3.385
358.898,3.389
359.898,3.393
360.898,3.397
361.898,3.401
362.898,3.404
363.898,3.408
364.898,3.411
365.898,3.414
366.898,3.416
367.898,3.419
368.898,3.421
369.898,3.423
370.898,3.424
371.898,3.425
372.898,3.426
373.898,3.426
374.898,3.426
375.898,3.426
376.898,3.425
377.898,3.424
378.898,3.423
379.898,3.421
380.898,3.419
381.898,3.417
382.898,3.415
383.898,3.412
384.898,3.409
385.898,3.405
386.898,3.402
387.898,3.398
388.898,3.394
389.898,3.390
390.898,3.385
391.898,3.381
392.898,3.376
393.898,3.371
394.898,3.366
395.898,3.360
396.898,3.355
397.898,3.349
398.898,3.343
432.365,2.910
433.365,2.893
434.365,2.876
435.365,2.859
436.365,2.842
437.365,2.825
438.365,2.808
439.365,2.790
440.365,2.773
441.365,2.756
442.365,2.739
443.365,2.722
444.365,2.705
445.365,2.687
446.365,2.670
447.365,2.653
448.365,2.635
449.365,2.618
450.365,2.600
451.365,2.582
452.365,2.564
453.365,2.546
454.365,2.528
455.365,2.509
456.365,2.491
457.365,2.472
458.365,2.452
459.365,2.432
##END=
