##TITLE=3-methyl-1H-indole-2-acetic acid methyl ester
##JCAMP-DX=4.24
##DATA TYPE=UV/VIS SPECTRUM
##ORIGIN=INSTITUTE OF ENERGY PROBLEMS OF CHEMICAL PHYSICS, RAS
##OWNER=INEP CP RAS, NIST OSRD
Collection (C) 2007 copyright by the U.S. Secretary of Commerce
on behalf of the United States of America. All rights reserved.
##CAS REGISTRY NO=54008-85-4
##MOLFORM=C12H13NO2
##MP=77-78
##SOURCE REFERENCE=RAS UV No. 23818
##$NIST SQUIB=1974JON/957
##$NIST SOURCE=TYUGLMTE
##SPECTROMETER/DATA SYSTEM=Unicam SP 800
##XUNITS=Wavelength (nm)
##YUNITS=Logarithm epsilon
##XFACTOR=1.0
##YFACTOR=1.0
##FIRSTX=226.427
##LASTX=306.457
##FIRSTY=4.373
##MAXX=306.457
##MINX=226.427
##MAXY=4.391
##MINY=2.976
##NPOINTS=83
##$REF AUTHOR=Jones, C.F.; et al.
##$REF JOURNAL=Tetrahedron
##$REF VOLUME=30
##$REF PAGE=957
##$REF DATE=1974
##XYPOINTS=(XY..XY)
226.427,4.373
227.427,4.387
228.427,4.391
229.427,4.385
230.427,4.368
231.427,4.342
232.427,4.306
233.474,4.262
234.474,4.204
235.474,4.139
236.474,4.068
237.474,3.994
238.474,3.920
239.474,3.848
240.474,3.778
241.474,3.713
242.474,3.652
243.474,3.597
244.474,3.547
245.474,3.504
246.474,3.467
247.474,3.436
248.474,3.411
249.474,3.392
250.474,3.379
251.474,3.370
252.474,3.366
253.474,3.367
254.474,3.372
255.474,3.381
256.474,3.395
257.474,3.413
258.423,3.432
259.423,3.463
260.423,3.495
261.423,3.526
262.423,3.557
263.423,3.587
264.423,3.617
265.423,3.646
266.423,3.673
267.423,3.700
268.423,3.725
269.423,3.748
270.423,3.770
271.423,3.790
272.423,3.808
273.423,3.824
274.423,3.838
275.423,3.849
276.423,3.857
277.318,3.863
278.318,3.866
279.318,3.870
280.318,3.874
281.318,3.878
282.318,3.884
283.364,3.890
284.364,3.896
285.364,3.899
286.364,3.897
287.364,3.888
288.364,3.872
289.403,3.845
290.403,3.825
291.403,3.815
292.308,3.816
293.076,3.826
293.826,3.823
294.308,3.808
294.896,3.783
295.457,3.754
296.457,3.697
297.457,3.639
298.457,3.579
299.457,3.518
300.457,3.456
301.457,3.390
302.457,3.322
303.457,3.248
304.457,3.167
305.457,3.077
306.457,2.976
##END=
