##TITLE=Cyclobutyl phenyl ketone
##JCAMP-DX=4.24
##DATA TYPE=UV/VIS SPECTRUM
##ORIGIN=INSTITUTE OF ENERGY PROBLEMS OF CHEMICAL PHYSICS, RAS
##OWNER=INEP CP RAS, NIST OSRD
Collection (C) 2007 copyright by the U.S. Secretary of Commerce
on behalf of the United States of America. All rights reserved.
##CAS REGISTRY NO=5407-98-7
##MOLFORM=C11H12O
##BP=260
##SOURCE REFERENCE=RAS UV No. 5578
##$NIST SQUIB=1952MAR/RAU521-524
##$NIST SOURCE=TSGMTE
##SPECTROMETER/DATA SYSTEM=n.i.g.
##XUNITS=Wavelength (nm)
##YUNITS=Logarithm epsilon
##XFACTOR=1.000000
##YFACTOR=1.000000
##FIRSTX=210.0580
##LASTX=295.4963
##FIRSTY=2.40573
##MAXX=295.496
##MINX=210.058
##MAXY=4.09378
##MINY=2.40445
##NPOINTS=187
##$REF AUTHOR=Mariella, R.P.; Raube, R.R.
##$REF TITLE=Ultraviolet absorption spectra of alicyclic compounds. III. Phenyl cycloalkyl and styryl cycloalkyl ketones
##$REF JOURNAL=J. Am. Chem. Soc.
##$REF VOLUME=74
##$REF PAGE=521-524
##$REF DATE=1952
##XYPOINTS=(XY..XY)
210.0580,2.405733
210.3590,2.404447
220.0012,3.377537
220.3173,3.391720
220.6316,3.405912
220.9444,3.420111
221.2559,3.434316
221.5664,3.448526
221.8760,3.462742
222.1850,3.476961
222.4935,3.491184
222.8018,3.505409
223.1101,3.519635
223.4187,3.533863
223.7277,3.548090
224.0373,3.562317
224.3478,3.576542
224.6594,3.590765
224.9723,3.604985
225.2867,3.619201
225.6029,3.633412
225.9210,3.647617
226.2412,3.661816
226.5638,3.676009
226.8891,3.690193
227.2171,3.704368
227.5481,3.718535
227.8824,3.732690
228.2202,3.746835
228.5616,3.760968
228.9069,3.775089
229.2564,3.789196
229.6101,3.803288
229.9684,3.817366
230.3314,3.831428
230.6994,3.845474
231.0726,3.859502
231.4512,3.873512
231.8353,3.887502
232.2254,3.901474
232.6214,3.915424
233.0238,3.929354
233.4326,3.943261
233.8481,3.957145
234.2705,3.971006
234.7000,3.984842
235.1369,3.998653
235.1369,3.998653
235.6174,4.010090
236.1325,4.022349
236.6927,4.034961
237.3086,4.047457
237.9907,4.059369
238.7494,4.070229
239.5954,4.079568
240.5392,4.086919
241.5911,4.091811
242.7619,4.093778
244.0620,4.092351
245.5020,4.087061
245.5020,4.087061
246.5385,4.074366
247.4506,4.060264
248.2543,4.045051
248.9653,4.029017
249.5995,4.012458
250.1730,3.995666
250.7014,3.978933
251.2008,3.962554
251.2008,3.962554
251.5315,3.948567
251.8548,3.934553
252.1710,3.920511
252.4802,3.906443
252.7826,3.892350
253.0784,3.878232
253.3677,3.864089
253.6507,3.849924
253.9276,3.835736
254.1985,3.821526
254.4636,3.807295
254.7231,3.793044
254.9772,3.778774
255.2259,3.764485
255.4696,3.750179
255.7082,3.735855
255.9421,3.721515
256.1714,3.707159
256.3963,3.692788
256.6168,3.678403
256.8333,3.664006
257.0458,3.649595
257.2545,3.635173
257.4596,3.620740
257.6613,3.606297
257.8597,3.591844
258.0551,3.577383
258.2475,3.562914
258.4371,3.548438
258.6241,3.533955
258.8087,3.519467
258.9911,3.504974
259.1714,3.490477
259.3497,3.475976
259.5263,3.461473
259.7013,3.446969
259.8749,3.432463
260.0473,3.417957
260.2185,3.403452
260.3889,3.388948
260.5585,3.374447
260.7275,3.359948
260.8962,3.345453
261.0646,3.330962
261.2329,3.316476
261.4014,3.301997
261.5701,3.287524
261.7392,3.273058
261.9090,3.258601
262.0795,3.244153
262.2509,3.229714
262.4235,3.215286
262.5974,3.200870
262.5974,3.200870
262.8719,3.185193
263.1525,3.169604
263.4418,3.154092
263.7428,3.138645
264.0581,3.123250
264.3905,3.107896
264.7429,3.092571
265.1180,3.077264
265.5186,3.061962
265.9475,3.046654
266.4075,3.031327
266.9013,3.015970
267.4318,3.000572
268.0017,2.985120
268.0017,2.985120
268.9945,2.975347
269.9345,2.971363
271.5682,2.970176
271.5682,2.970176
273.2177,2.978676
274.8295,2.987066
276.4754,2.994231
278.2271,2.999058
280.1563,3.000436
280.1563,3.000436
281.3611,2.989301
282.4260,2.978110
283.3706,2.966774
284.2145,2.955204
284.5057,2.960669
284.6844,2.957765
284.8682,2.954806
284.9774,2.943311
285.0620,2.951740
285.6787,2.931007
286.3381,2.918203
286.9753,2.904810
287.6097,2.890738
288.2611,2.875900
288.9490,2.860207
288.9490,2.860207
289.4099,2.844094
289.8713,2.827948
290.3340,2.811775
290.7985,2.795582
291.2656,2.779375
291.7359,2.763160
291.7359,2.763160
291.9866,2.747446
292.2373,2.731732
292.4880,2.716019
292.7387,2.700305
292.9894,2.684591
293.2401,2.668877
293.4908,2.653163
293.7415,2.637450
293.9922,2.621736
294.2429,2.606022
294.4935,2.590308
294.7442,2.574595
294.9949,2.558881
295.2456,2.543167
295.4963,2.527453
##END=
