##TITLE=1H-Pyrrole-2,5-dione
##JCAMP-DX=4.24
##DATA TYPE=UV/VIS SPECTRUM
##ORIGIN=INSTITUTE OF ENERGY PROBLEMS OF CHEMICAL PHYSICS, RAS
##OWNER=INEP CP RAS, NIST OSRD
Collection (C) 2007 copyright by the U.S. Secretary of Commerce
on behalf of the United States of America. All rights reserved.
##CAS REGISTRY NO=541-59-3
##MOLFORM=C4H3NO2
##SOURCE REFERENCE=RAS UV No. 15978
##$NIST SQUIB=1973SCH662
##$NIST SOURCE=TYUGLMTE
##SPECTROMETER/DATA SYSTEM=Cary 14
##XUNITS=Wavelength (nm)
##YUNITS=Logarithm epsilon
##XFACTOR=1.0
##YFACTOR=1.0
##FIRSTX=203.16
##LASTX=379.6
##FIRSTY=4.127
##MAXX=379.6
##MINX=203.16
##MAXY=4.23
##MINY=0.055
##NPOINTS=224
##$REF AUTHOR=Scharf ahd H. Laismann, H.D.
##$REF JOURNAL=Z. Naturforsch.
##$REF VOLUME=28 b
##$REF PAGE=662
##$REF DATE=1973
##XYPOINTS=(XY..XY)
203.16,4.127
203.30,4.133
203.45,4.133
203.59,4.133
203.74,4.138
203.89,4.138
204.03,4.138
204.18,4.144
204.33,4.144
204.48,4.150
204.62,4.150
204.92,4.144
205.37,4.150
205.81,4.161
206.26,4.167
206.71,4.173
207.17,4.179
207.62,4.184
208.08,4.190
208.54,4.196
209.00,4.196
209.47,4.207
209.93,4.213
210.40,4.213
210.87,4.219
211.34,4.219
211.82,4.219
212.29,4.219
212.77,4.225
213.25,4.225
213.73,4.230
214.22,4.230
214.71,4.230
215.20,4.230
215.69,4.230
216.18,4.230
216.68,4.225
217.18,4.225
217.68,4.219
218.18,4.213
218.69,4.207
219.19,4.196
219.70,4.190
220.22,4.190
220.73,4.184
221.25,4.184
221.77,4.179
222.29,4.167
222.81,4.150
223.34,4.133
223.87,4.104
224.40,4.098
224.94,4.081
225.48,4.052
226.02,4.018
226.56,3.989
227.10,3.949
227.65,3.920
228.20,3.892
228.75,3.874
229.31,3.846
229.87,3.823
230.43,3.794
230.99,3.759
231.56,3.719
232.13,3.685
232.70,3.639
233.28,3.576
233.85,3.501
234.43,3.444
235.02,3.386
235.60,3.340
236.19,3.317
236.79,3.306
237.38,3.271
237.98,3.242
238.58,3.220
239.19,3.191
239.79,3.036
240.40,2.973
241.02,2.944
241.63,2.927
242.25,2.915
242.88,2.892
243.50,2.886
244.13,2.881
244.77,2.881
245.40,2.886
246.04,2.892
246.69,2.898
247.33,2.904
247.98,2.909
248.63,2.915
249.29,2.927
249.95,2.921
250.61,2.932
251.28,2.944
251.95,2.950
252.63,2.967
253.30,2.973
253.99,2.984
254.67,2.996
255.36,3.001
256.05,3.007
256.75,3.013
257.45,3.024
258.15,3.024
258.86,3.030
259.57,3.036
260.29,3.041
261.01,3.047
261.73,3.053
262.46,3.053
263.19,3.053
263.93,3.059
264.67,3.059
265.41,3.053
266.16,3.053
266.91,3.053
267.67,3.059
268.43,3.059
269.19,3.059
269.96,3.059
270.74,3.053
271.52,3.047
272.30,3.041
273.09,3.030
273.88,3.024
274.68,3.018
275.48,3.018
276.28,3.013
277.10,3.013
277.91,3.001
278.73,2.996
279.56,2.967
280.39,2.955
281.22,2.938
282.06,2.921
282.91,2.909
283.76,2.886
284.61,2.875
285.47,2.863
286.34,2.858
287.21,2.852
288.09,2.840
288.97,2.823
289.86,2.800
290.75,2.772
291.65,2.749
292.55,2.714
293.46,2.691
294.38,2.657
295.30,2.622
296.22,2.588
297.16,2.571
298.09,2.548
299.04,2.536
299.99,2.519
300.94,2.496
301.91,2.473
302.88,2.438
303.85,2.358
304.83,2.312
305.82,2.278
306.81,2.232
307.81,2.186
308.82,2.140
309.83,2.123
310.85,2.105
311.88,2.100
312.91,2.088
313.95,2.077
315.00,2.059
316.06,2.031
317.12,1.962
318.19,1.870
319.26,1.761
320.35,1.686
321.44,1.634
322.54,1.600
323.64,1.560
324.75,1.525
325.88,1.508
327.00,1.496
328.14,1.496
329.29,1.491
330.44,1.468
331.60,1.451
332.77,1.439
333.94,1.416
335.13,1.410
336.32,1.399
337.53,1.387
338.74,1.376
339.96,1.376
341.19,1.376
342.42,1.370
343.67,1.359
344.93,1.370
346.19,1.364
347.46,1.347
348.75,1.290
350.04,1.244
351.34,1.227
352.66,1.198
353.98,1.158
355.31,1.135
356.65,1.112
358.01,1.071
359.37,1.054
360.74,1.020
362.13,1.014
363.52,1.008
364.92,0.974
366.34,0.928
367.77,0.870
369.21,0.807
370.66,0.750
372.12,0.721
373.59,0.704
375.07,0.623
376.57,0.440
378.08,0.250
379.60,0.055
##END=
