##TITLE=1,3,4,5-tetrahydro-4-methyl-8-nitro-2H-1,5-benzodiazepin-2-one
##JCAMP-DX=4.24
##DATA TYPE=UV/VIS SPECTRUM
##ORIGIN=INSTITUTE OF ENERGY PROBLEMS OF CHEMICAL PHYSICS, RAS
##OWNER=INEP CP RAS, NIST OSRD
Collection (C) 2007 copyright by the U.S. Secretary of Commerce
on behalf of the United States of America. All rights reserved.
##CAS REGISTRY NO=54167-26-9
##MOLFORM=C10H11N3O3
##MP=247-248
##SOURCE REFERENCE=RAS UV No. 23671
##$NIST SQUIB=1974PUO/TAL833
##$NIST SOURCE=TYUGLMTE
##SPECTROMETER/DATA SYSTEM=SF-4A
##XUNITS=Wavelength (nm)
##YUNITS=Logarithm epsilon
##XFACTOR=1.0
##YFACTOR=1.0
##FIRSTX=226.069
##LASTX=478.96
##FIRSTY=4.114
##MAXX=478.96
##MINX=226.069
##MAXY=4.162
##MINY=2.36
##NPOINTS=255
##$REF AUTHOR=Puodzhyunaite, B.A.; Talaikite, Z.A.
##$REF JOURNAL=Khim. Geterosikl. Soedin.
##$REF PAGE=833
##$REF DATE=1974
##XYPOINTS=(XY..XY)
226.069,4.114
227.069,4.096
228.069,4.076
229.069,4.054
230.069,4.031
231.069,4.008
232.069,3.985
233.069,3.964
234.069,3.944
235.069,3.925
236.069,3.909
237.069,3.896
238.069,3.885
239.069,3.877
240.069,3.872
241.069,3.869
242.069,3.871
243.069,3.875
244.069,3.882
245.069,3.892
246.069,3.905
247.069,3.920
248.069,3.938
249.069,3.957
250.069,3.978
251.069,3.999
252.069,4.020
253.065,4.044
254.065,4.054
255.065,4.066
256.065,4.077
257.065,4.088
258.065,4.099
259.065,4.110
260.065,4.120
261.065,4.129
262.065,4.137
263.065,4.144
264.065,4.150
265.065,4.155
266.065,4.159
267.065,4.161
268.065,4.162
269.065,4.162
270.065,4.160
271.065,4.158
272.065,4.154
273.065,4.149
274.065,4.144
275.065,4.138
276.065,4.131
277.065,4.123
278.065,4.115
279.065,4.106
280.065,4.097
281.065,4.088
282.065,4.079
283.065,4.070
284.065,4.060
285.065,4.051
286.065,4.043
287.065,4.034
288.065,4.026
289.065,4.018
290.065,4.011
291.065,4.005
292.065,3.999
293.065,3.993
294.065,3.988
295.065,3.984
296.065,3.980
297.065,3.977
298.065,3.974
299.065,3.971
300.065,3.970
301.065,3.968
302.065,3.967
303.065,3.965
304.065,3.964
305.065,3.963
306.065,3.962
307.065,3.961
308.065,3.959
309.065,3.957
310.065,3.954
311.065,3.951
312.065,3.947
313.065,3.943
314.065,3.938
315.065,3.931
316.065,3.924
317.065,3.916
318.065,3.908
319.065,3.898
320.065,3.887
321.065,3.876
322.065,3.865
323.065,3.853
324.065,3.840
324.923,3.831
325.923,3.820
326.923,3.809
327.923,3.796
328.923,3.783
329.923,3.770
330.923,3.756
331.923,3.743
332.923,3.729
333.923,3.715
334.923,3.702
335.923,3.689
336.923,3.676
337.923,3.663
338.923,3.651
339.923,3.639
340.923,3.628
341.923,3.617
342.923,3.607
343.923,3.597
344.923,3.588
345.923,3.580
346.923,3.572
347.923,3.564
348.923,3.557
349.923,3.551
350.923,3.545
351.923,3.540
352.923,3.535
353.923,3.531
354.923,3.527
355.923,3.523
356.923,3.520
357.923,3.517
358.923,3.514
359.923,3.512
360.923,3.510
361.923,3.508
362.923,3.506
363.923,3.505
364.923,3.504
365.923,3.502
366.923,3.501
367.923,3.500
368.923,3.498
369.923,3.497
370.923,3.496
371.923,3.494
372.923,3.493
373.923,3.491
374.923,3.489
375.923,3.488
376.923,3.486
377.923,3.483
378.923,3.481
379.923,3.479
380.923,3.476
381.923,3.473
382.923,3.470
383.923,3.467
384.923,3.463
385.923,3.460
386.923,3.456
387.923,3.452
388.923,3.448
389.923,3.444
390.923,3.440
391.923,3.435
392.923,3.431
393.923,3.426
394.923,3.421
395.923,3.416
396.923,3.411
397.923,3.406
398.923,3.401
399.923,3.395
400.923,3.389
401.923,3.383
402.923,3.377
403.923,3.371
404.923,3.364
405.923,3.357
406.308,3.353
407.308,3.346
408.308,3.339
409.308,3.331
410.308,3.323
411.308,3.316
412.308,3.308
413.308,3.300
414.308,3.292
415.308,3.284
416.308,3.275
417.308,3.267
418.308,3.259
419.308,3.251
420.308,3.242
421.308,3.234
422.308,3.225
423.308,3.216
424.308,3.208
425.308,3.199
426.308,3.190
427.308,3.181
428.308,3.172
429.308,3.162
430.308,3.153
431.308,3.143
432.308,3.133
433.308,3.123
434.308,3.113
435.308,3.103
436.308,3.092
437.308,3.081
438.308,3.070
439.308,3.059
440.308,3.048
441.308,3.036
442.308,3.024
443.308,3.012
444.308,3.000
445.308,2.988
446.308,2.975
447.308,2.962
448.308,2.949
449.308,2.935
450.308,2.922
451.308,2.908
452.308,2.894
453.308,2.879
454.308,2.865
455.308,2.850
456.308,2.835
457.308,2.820
458.308,2.804
459.308,2.789
460.308,2.772
461.308,2.756
462.308,2.739
463.308,2.722
464.308,2.705
465.308,2.687
466.308,2.668
467.308,2.649
468.308,2.629
469.308,2.609
470.308,2.588
471.308,2.566
472.308,2.543
473.308,2.519
474.308,2.493
475.308,2.467
476.308,2.438
477.308,2.409
478.308,2.377
478.960,2.360
##END=
