##TITLE=1,3-Cyclopentadiene
##JCAMP-DX=4.24
##DATA TYPE=UV/VIS SPECTRUM
##ORIGIN=INSTITUTE OF ENERGY PROBLEMS OF CHEMICAL PHYSICS, RAS
##OWNER=INEP CP RAS, NIST OSRD
Collection (C) 2007 copyright by the U.S. Secretary of Commerce
on behalf of the United States of America. All rights reserved.
##CAS REGISTRY NO=542-92-7
##MOLFORM=C5H6
##MP=- 85
##BP=41
##SOURCE REFERENCE=RAS UV No. 10963
##$NIST SQUIB=1948POW/EDS510
##$NIST SOURCE=TYUGLMTE
##SPECTROMETER/DATA SYSTEM=Beckman quartz photoelectric spectrophotometer
##XUNITS=Wavelength (nm)
##YUNITS=Logarithm epsilon
##XFACTOR=1.0
##YFACTOR=1.0
##FIRSTX=210.49
##LASTX=272.64
##FIRSTY=2.986
##MAXX=272.64
##MINX=210.49
##MAXY=3.51
##MINY=1.918
##NPOINTS=201
##$REF AUTHOR=Powell, J.S.; Edson, K.C.
##$REF JOURNAL=Anal. Chem.
##$REF VOLUME=20
##$REF PAGE=510
##$REF DATE=1948
##XYPOINTS=(XY..XY)
210.49,2.986
210.57,2.988
210.65,2.989
210.74,2.990
210.82,2.991
210.90,2.991
210.98,2.992
211.06,2.994
211.14,2.995
211.23,2.996
211.31,2.997
211.39,2.998
211.47,2.998
211.55,2.999
211.80,3.002
212.13,3.006
212.45,3.011
212.78,3.018
213.11,3.022
213.43,3.027
213.76,3.032
214.09,3.037
214.42,3.043
214.74,3.050
215.07,3.055
215.40,3.061
215.72,3.067
216.05,3.072
216.38,3.079
216.71,3.085
217.03,3.091
217.36,3.099
217.69,3.105
218.01,3.111
218.34,3.118
218.67,3.125
219.00,3.132
219.32,3.138
219.65,3.144
219.98,3.153
220.30,3.159
220.63,3.167
220.96,3.175
221.29,3.185
221.61,3.192
221.94,3.200
222.27,3.208
222.59,3.219
222.92,3.227
223.25,3.235
223.57,3.244
223.90,3.255
224.23,3.265
224.56,3.274
224.88,3.288
225.21,3.299
225.54,3.315
225.86,3.325
226.19,3.333
226.52,3.345
226.85,3.353
227.17,3.360
227.50,3.369
227.83,3.375
228.15,3.381
228.48,3.388
228.81,3.395
229.14,3.400
229.46,3.405
229.79,3.409
230.12,3.413
230.44,3.420
230.77,3.425
231.10,3.430
231.43,3.436
231.75,3.441
232.08,3.446
232.41,3.451
232.73,3.457
233.06,3.461
233.39,3.466
233.71,3.470
234.04,3.473
234.37,3.480
234.70,3.484
235.02,3.488
235.35,3.491
235.68,3.495
236.00,3.497
236.33,3.499
236.66,3.501
236.99,3.503
237.31,3.504
237.64,3.505
237.97,3.506
238.29,3.507
238.62,3.508
238.95,3.509
239.28,3.509
239.60,3.510
239.93,3.510
240.26,3.510
240.58,3.509
240.91,3.508
241.24,3.507
241.57,3.504
241.89,3.502
242.22,3.499
242.55,3.496
242.87,3.493
243.20,3.491
243.53,3.488
243.86,3.484
244.18,3.481
244.51,3.477
244.84,3.474
245.16,3.471
245.49,3.467
245.82,3.463
246.14,3.458
246.47,3.454
246.80,3.450
247.13,3.445
247.45,3.439
247.78,3.433
248.11,3.428
248.43,3.421
248.76,3.413
249.09,3.408
249.42,3.399
249.74,3.390
250.07,3.382
250.40,3.375
250.72,3.360
251.05,3.350
251.38,3.340
251.71,3.332
252.03,3.321
252.36,3.311
252.69,3.303
253.01,3.290
253.34,3.281
253.67,3.269
254.00,3.256
254.32,3.247
254.65,3.233
254.98,3.218
255.30,3.207
255.63,3.191
255.96,3.179
256.29,3.162
256.61,3.143
256.94,3.127
257.27,3.107
257.59,3.090
257.92,3.066
258.25,3.048
258.57,3.025
258.90,3.003
259.23,2.986
259.56,2.963
259.88,2.940
260.21,2.921
260.54,2.892
260.86,2.874
261.19,2.853
261.52,2.828
261.85,2.801
262.17,2.773
262.50,2.747
262.83,2.723
263.15,2.694
263.48,2.665
263.81,2.644
264.14,2.622
264.46,2.594
264.79,2.566
265.12,2.544
265.44,2.516
265.77,2.498
266.10,2.468
266.43,2.444
266.75,2.418
267.08,2.390
267.41,2.361
267.73,2.330
268.06,2.302
268.39,2.272
268.71,2.246
269.04,2.219
269.37,2.182
269.70,2.151
270.02,2.125
270.33,2.105
270.68,2.080
271.00,2.050
271.33,2.029
271.66,2.006
271.99,1.971
272.24,1.949
272.64,1.918
##END=
