##TITLE=1,3,5-Cycloheptatriene
##JCAMP-DX=4.24
##DATA TYPE=UV/VIS SPECTRUM
##ORIGIN=INSTITUTE OF ENERGY PROBLEMS OF CHEMICAL PHYSICS, RAS
##OWNER=INEP CP RAS, NIST OSRD
Collection (C) 2007 copyright by the U.S. Secretary of Commerce
on behalf of the United States of America. All rights reserved.
##CAS REGISTRY NO=544-25-2
##MOLFORM=C7H8
##MP=-79.5
##BP=117; 60.5(122)
##SOURCE REFERENCE=RAS UV No. 6493
##$NIST SQUIB=1972DAU/DIE1212-1216
##$NIST SOURCE=TSGMTE
##SPECTROMETER/DATA SYSTEM=Durrem-JACSO Model /ORD/UV/CD-5
##XUNITS=Wavelength (nm)
##YUNITS=Logarithm epsilon
##XFACTOR=1.000000
##YFACTOR=1.000000
##FIRSTX=219.7934
##LASTX=326.8761
##FIRSTY=3.44449
##MAXX=326.876
##MINX=219.793
##MAXY=3.62717
##MINY=2.02006
##NPOINTS=129
##$REF AUTHOR=Dauben, W.G.; Dietsche, T.J.
##$REF TITLE=Stereospecific introduction of functionalized angular methyl groups via the claisen rearrangement. The octalin and hydrindenyl ring systems
##$REF JOURNAL=J. Org. Chem.
##$REF VOLUME=37
##$REF NUMBER=8
##$REF PAGE=1212-1216
##$REF DATE=1972
##XYPOINTS=(XY..XY)
219.7934,3.444488
219.9448,3.437254
220.1029,3.429788
220.2744,3.421967
221.2965,3.380336
221.5760,3.365692
221.8688,3.350405
222.1684,3.334287
223.0402,3.299076
223.3196,3.283436
223.6125,3.267051
223.9120,3.249692
224.7838,3.199869
225.1534,3.179895
225.5365,3.158548
225.9262,3.135881
226.7980,3.088746
227.1598,3.063068
227.5284,3.035504
227.9103,3.005489
230.0447,2.998883
230.5925,2.999721
230.9199,3.005537
231.3074,3.020943
233.4117,3.046731
234.2847,3.065063
235.1643,3.082163
236.0572,3.098380
238.4322,3.148324
239.2149,3.164042
240.0043,3.179017
240.8071,3.193113
241.7992,3.226678
242.4617,3.245940
243.1308,3.264384
243.8134,3.282077
244.8054,3.321178
245.2263,3.333489
245.6472,3.345195
246.0681,3.356463
247.1804,3.396086
247.3908,3.404382
247.6013,3.412294
247.8117,3.419952
249.0743,3.450647
249.4050,3.459033
249.7357,3.467259
250.0664,3.475333
251.5695,3.502465
251.9904,3.511130
252.4113,3.519536
252.8321,3.527607
253.8242,3.537347
254.0658,3.541565
254.3141,3.545742
254.5758,3.549879
256.3194,3.568202
257.3159,3.578784
257.8381,3.583300
258.3336,3.585784
259.9570,3.600021
261.1183,3.607697
261.6716,3.610492
262.0914,3.610889
263.8350,3.621809
264.4073,3.622748
264.9863,3.623615
265.5786,3.624339
268.3444,3.627168
270.6024,3.620067
271.9586,3.614500
273.5753,3.605654
275.3490,3.591603
276.1005,3.584044
276.8521,3.576274
277.6037,3.568202
278.8362,3.549879
279.3261,3.541565
279.8294,3.533089
280.3393,3.524444
281.6020,3.500373
282.0529,3.491774
282.5038,3.482807
282.9548,3.473552
284.3377,3.448289
284.8276,3.437254
285.3308,3.425821
285.8408,3.413852
287.3439,3.380336
287.7648,3.370265
288.1857,3.359955
288.6065,3.349394
291.3422,3.288274
291.5838,3.279785
291.8321,3.270811
292.0938,3.261485
295.1000,3.185384
295.3105,3.177255
295.5209,3.168569
295.7314,3.159502
298.1063,3.098380
298.8579,3.074402
299.6094,3.048758
300.3610,3.020943
302.3752,2.952572
302.9853,2.933969
303.6089,2.913814
304.2391,2.892301
306.1029,2.806003
306.6441,2.786268
307.1852,2.764579
307.7263,2.741214
310.1313,2.665037
310.5823,2.653398
311.0332,2.641438
311.4841,2.629139
314.1296,2.523770
314.7398,2.507572
315.3633,2.490746
315.9935,2.473241
318.1279,2.367599
318.7381,2.344199
319.3616,2.319466
319.9918,2.293239
322.1263,2.195070
322.8266,2.159782
323.5403,2.121371
324.2607,2.079231
326.8761,2.020062
##END=
