##TITLE=Anthra[2,3-c][1,2,5]thiadiazole-5,10-dione
##JCAMP-DX=4.24
##DATA TYPE=UV/VIS SPECTRUM
##ORIGIN=INSTITUTE OF ENERGY PROBLEMS OF CHEMICAL PHYSICS, RAS
##OWNER=INEP CP RAS, NIST OSRD
Collection (C) 2007 copyright by the U.S. Secretary of Commerce
on behalf of the United States of America. All rights reserved.
##CAS REGISTRY NO=54490-64-1
##MOLFORM=C14H6N2O2S
##MP=248-248.5
##SOURCE REFERENCE=RAS UV No. 23750
##$NIST SQUIB=1974GOR/LOM1220
##$NIST SOURCE=TYUGLMTE
##SPECTROMETER/DATA SYSTEM=Perkin-Elmer 402
##XUNITS=Wavelength (nm)
##YUNITS=Logarithm epsilon
##XFACTOR=1.0
##YFACTOR=1.0
##FIRSTX=185.074
##LASTX=358.474
##FIRSTY=4.055
##MAXX=358.474
##MINX=185.074
##MAXY=4.645
##MINY=3.186
##NPOINTS=168
##$REF AUTHOR=Gorelik, M.V.; Lomzakova, V.I.
##$REF JOURNAL=Khim. Geterosikl. Soedin.
##$REF PAGE=1220
##$REF DATE=1974
##XYPOINTS=(XY..XY)
185.074,4.055
186.074,4.099
187.074,4.156
188.074,4.218
189.074,4.277
190.074,4.328
191.074,4.369
192.074,4.398
193.074,4.414
194.074,4.420
195.074,4.415
196.074,4.404
197.074,4.388
198.074,4.369
199.074,4.351
200.074,4.334
201.074,4.320
202.074,4.309
203.074,4.298
204.109,4.284
205.109,4.266
206.109,4.247
207.109,4.228
208.109,4.210
209.109,4.191
210.109,4.173
211.109,4.156
212.109,4.139
213.109,4.123
214.109,4.107
215.109,4.092
216.109,4.078
217.109,4.064
218.109,4.050
219.109,4.036
220.109,4.022
221.109,4.009
222.109,3.995
223.109,3.982
224.109,3.969
225.109,3.957
226.109,3.945
227.109,3.934
228.109,3.924
229.109,3.915
230.109,3.908
231.109,3.903
232.109,3.900
233.109,3.899
234.109,3.901
235.109,3.907
236.109,3.915
237.109,3.926
238.109,3.941
239.109,3.959
240.109,3.980
241.109,4.003
241.817,4.022
242.508,4.042
243.508,4.071
244.508,4.099
245.508,4.124
246.508,4.147
247.508,4.168
248.508,4.187
249.508,4.205
250.508,4.221
251.508,4.236
252.508,4.249
253.508,4.262
254.508,4.273
255.508,4.283
256.508,4.293
257.508,4.302
258.508,4.311
259.508,4.319
260.508,4.326
261.508,4.334
262.508,4.341
263.508,4.348
264.508,4.355
265.508,4.363
266.508,4.370
267.508,4.378
268.508,4.386
269.508,4.395
270.508,4.405
271.508,4.415
272.508,4.426
273.508,4.438
274.508,4.450
275.508,4.464
276.508,4.478
276.569,4.477
277.569,4.494
278.569,4.510
279.569,4.525
280.569,4.540
281.569,4.555
282.569,4.569
283.569,4.582
284.569,4.594
285.569,4.606
286.569,4.616
287.569,4.626
288.569,4.633
289.569,4.639
290.569,4.643
291.569,4.645
292.569,4.643
293.569,4.639
294.569,4.631
295.569,4.620
296.569,4.603
297.569,4.583
298.569,4.556
299.569,4.524
300.569,4.485
301.612,4.448
302.612,4.378
303.612,4.320
304.612,4.273
305.612,4.233
306.612,4.202
307.612,4.176
308.612,4.155
309.612,4.138
310.612,4.125
311.612,4.114
312.612,4.105
313.612,4.098
314.612,4.092
315.612,4.087
316.612,4.082
317.612,4.077
318.612,4.073
319.612,4.069
320.612,4.064
320.636,4.064
322.136,4.056
323.636,4.048
325.136,4.039
326.636,4.029
328.136,4.018
329.636,4.005
331.136,3.989
332.636,3.971
334.136,3.949
335.636,3.924
337.136,3.895
338.636,3.862
340.136,3.823
341.636,3.780
343.136,3.730
344.636,3.675
346.136,3.612
347.474,3.564
348.474,3.526
349.474,3.488
350.474,3.450
351.474,3.413
352.474,3.377
353.474,3.342
354.474,3.308
355.474,3.275
356.474,3.244
357.474,3.214
358.474,3.186
##END=
