##TITLE=Anthra[2,3-c][1,2,5]selenadiazole-5,10-dione
##JCAMP-DX=4.24
##DATA TYPE=UV/VIS SPECTRUM
##ORIGIN=INSTITUTE OF ENERGY PROBLEMS OF CHEMICAL PHYSICS, RAS
##OWNER=INEP CP RAS, NIST OSRD
Collection (C) 2007 copyright by the U.S. Secretary of Commerce
on behalf of the United States of America. All rights reserved.
##CAS REGISTRY NO=54490-65-2
##MOLFORM=C14H6N2O2Se
##MP=280-281
##SOURCE REFERENCE=RAS UV No. 23749
##$NIST SQUIB=1974GOR/LOM1275
##$NIST SOURCE=TYUGLMTE
##SPECTROMETER/DATA SYSTEM=Perkin-Elmer 402
##XUNITS=Wavelength (nm)
##YUNITS=Logarithm epsilon
##XFACTOR=1.0
##YFACTOR=1.0
##FIRSTX=200.236
##LASTX=400.411
##FIRSTY=4.406
##MAXX=400.411
##MINX=200.236
##MAXY=4.495
##MINY=3.095
##NPOINTS=204
##$REF AUTHOR=Gorelik, M.V.; Lomzakova, V.I.
##$REF JOURNAL=Khim. Geterosikl. Soedin.
##$REF PAGE=1275
##$REF DATE=1974
##XYPOINTS=(XY..XY)
200.236,4.406
201.236,4.398
202.236,4.389
203.236,4.381
204.236,4.372
205.236,4.363
206.236,4.354
207.236,4.344
208.236,4.335
209.236,4.325
210.236,4.314
211.236,4.304
212.236,4.294
213.236,4.283
214.236,4.272
215.236,4.261
216.236,4.250
217.236,4.239
218.236,4.228
219.236,4.217
220.236,4.205
221.236,4.194
222.236,4.183
223.236,4.171
224.236,4.160
225.236,4.148
226.236,4.137
227.236,4.126
228.236,4.114
229.236,4.103
230.236,4.092
231.236,4.081
232.236,4.070
233.236,4.059
234.236,4.048
235.236,4.037
236.060,4.030
237.060,4.019
238.060,4.006
239.060,3.993
240.060,3.980
241.060,3.967
242.060,3.955
243.060,3.945
244.060,3.937
245.060,3.931
246.060,3.928
247.060,3.927
248.060,3.929
249.060,3.934
250.060,3.941
251.060,3.951
252.060,3.963
253.060,3.977
254.060,3.993
255.060,4.010
256.060,4.028
257.060,4.047
258.060,4.065
259.060,4.081
259.315,4.084
260.315,4.100
261.315,4.118
262.315,4.134
263.315,4.151
264.315,4.166
265.315,4.179
266.315,4.191
267.315,4.201
268.315,4.209
269.315,4.214
270.315,4.218
271.315,4.219
272.315,4.219
273.315,4.216
274.315,4.213
275.315,4.208
276.315,4.202
277.315,4.196
278.315,4.189
279.315,4.183
280.315,4.177
280.998,4.172
281.998,4.172
282.998,4.171
283.998,4.169
284.998,4.167
285.998,4.166
286.998,4.165
287.998,4.164
288.998,4.165
289.998,4.166
290.998,4.168
291.998,4.172
292.998,4.177
293.998,4.183
294.998,4.190
295.998,4.199
296.998,4.210
297.998,4.221
298.998,4.234
299.998,4.248
300.998,4.263
301.998,4.279
302.998,4.295
303.998,4.311
304.998,4.328
305.998,4.345
306.998,4.361
307.998,4.376
308.651,4.382
309.651,4.400
310.651,4.416
311.651,4.432
312.651,4.445
313.651,4.457
314.651,4.467
315.651,4.476
316.651,4.483
317.651,4.488
318.651,4.492
319.651,4.495
320.651,4.495
321.651,4.494
322.651,4.492
323.651,4.487
324.651,4.480
325.651,4.471
326.651,4.459
327.651,4.445
328.651,4.427
329.651,4.405
330.649,4.384
331.649,4.342
332.649,4.304
333.649,4.271
334.649,4.241
335.649,4.216
336.649,4.194
337.649,4.176
338.649,4.161
339.649,4.149
340.649,4.139
341.649,4.132
342.649,4.127
343.649,4.124
344.649,4.123
345.649,4.123
346.649,4.123
347.649,4.125
348.649,4.126
349.649,4.128
350.649,4.130
351.649,4.131
352.649,4.132
353.649,4.133
354.649,4.132
355.649,4.131
356.649,4.129
357.649,4.126
358.649,4.123
359.649,4.118
360.649,4.114
361.649,4.109
361.759,4.108
362.759,4.103
363.759,4.100
364.759,4.097
365.759,4.094
366.759,4.089
367.759,4.082
368.759,4.072
369.759,4.059
370.759,4.043
371.759,4.024
372.759,4.002
373.759,3.978
374.759,3.951
375.759,3.922
376.759,3.892
377.759,3.861
378.759,3.829
379.759,3.798
380.759,3.766
381.759,3.735
382.759,3.704
383.759,3.673
384.759,3.643
385.759,3.612
386.759,3.581
387.681,3.551
388.681,3.513
389.681,3.475
390.681,3.437
391.681,3.399
392.681,3.363
393.681,3.328
394.681,3.293
395.681,3.260
396.681,3.227
397.681,3.194
398.681,3.160
399.681,3.123
400.411,3.095
##END=
