##TITLE=9-Hydro-9-oxo-10-phenylacridine
##JCAMP-DX=4.24
##DATA TYPE=UV/VIS SPECTRUM
##ORIGIN=INSTITUTE OF ENERGY PROBLEMS OF CHEMICAL PHYSICS, RAS
##OWNER=INEP CP RAS, NIST OSRD
Collection (C) 2007 copyright by the U.S. Secretary of Commerce
on behalf of the United States of America. All rights reserved.
##CAS REGISTRY NO=5472-23-1
##MOLFORM=C19H13NO
##MP=273-275
##SOURCE REFERENCE=RAS UV No. 16113
##$NIST SQUIB=1971HEL/MEL1001
##$NIST SOURCE=TYUGLMTE
##SPECTROMETER/DATA SYSTEM=Unicam SP 800
##XUNITS=Wavelength (nm)
##YUNITS=Logarithm epsilon
##XFACTOR=1.0
##YFACTOR=1.0
##FIRSTX=247.08
##LASTX=418.12
##FIRSTY=4.139
##MAXX=418.12
##MINX=247.08
##MAXY=4.701
##MINY=2.438
##NPOINTS=151
##$REF AUTHOR=Hellwinkel, D.; Melan, M.
##$REF JOURNAL=Chem. Ber.
##$REF VOLUME=104
##$REF PAGE=1001
##$REF DATE=1971
##XYPOINTS=(XY..XY)
247.08,4.139
247.34,4.144
247.59,4.149
248.10,4.190
249.11,4.286
250.12,4.398
251.13,4.496
252.14,4.570
253.16,4.689
254.17,4.699
255.18,4.701
256.19,4.701
257.20,4.691
259.23,4.663
260.24,4.648
261.25,4.636
264.29,4.595
265.30,4.575
266.31,4.562
268.34,4.522
269.35,4.491
270.36,4.428
271.37,4.362
272.39,4.256
273.40,4.185
275.42,4.124
276.43,4.099
278.46,4.051
279.47,4.025
280.48,4.000
281.49,3.949
283.52,3.823
284.53,3.719
285.54,3.635
286.55,3.590
287.57,3.552
288.58,3.499
289.59,3.471
290.60,3.471
291.44,3.488
292.23,3.511
293.64,3.544
294.15,3.560
294.65,3.567
295.20,3.560
295.76,3.549
297.69,3.466
298.70,3.405
299.71,3.334
300.72,3.286
302.75,3.202
303.76,3.200
304.77,3.255
305.78,3.344
306.80,3.385
307.81,3.397
308.82,3.319
309.83,3.220
310.84,3.139
311.86,3.015
312.87,2.916
313.88,2.828
314.89,2.782
315.90,2.708
317.93,2.658
318.94,2.650
319.95,2.650
320.96,2.650
322.99,2.676
324.00,2.683
325.01,2.708
327.04,2.749
328.05,2.767
330.07,2.812
331.08,2.838
332.10,2.858
333.11,2.888
334.12,2.901
335.13,2.929
337.16,2.977
338.17,3.002
339.18,3.045
340.19,3.058
341.20,3.083
342.22,3.121
343.23,3.147
344.24,3.162
345.25,3.202
346.27,3.235
347.28,3.263
348.29,3.291
349.30,3.331
350.31,3.357
351.33,3.395
352.34,3.412
354.36,3.473
355.37,3.499
356.39,3.516
357.40,3.552
358.41,3.580
359.42,3.597
361.45,3.633
362.46,3.648
363.47,3.666
364.48,3.683
365.49,3.696
366.51,3.721
368.53,3.762
369.54,3.785
371.57,3.835
372.58,3.856
373.59,3.871
375.61,3.914
376.63,3.939
378.65,3.987
379.66,3.997
380.67,3.997
381.69,3.990
382.70,3.977
384.72,3.947
385.73,3.942
386.75,3.942
387.76,3.952
389.78,3.980
390.80,3.995
391.81,4.005
392.82,4.033
393.83,4.053
395.86,4.081
396.87,4.094
397.88,4.100
398.89,4.094
399.90,4.081
400.92,4.056
401.93,4.030
402.94,4.003
403.95,3.934
404.96,3.848
405.98,3.721
406.99,3.597
408.00,3.486
409.01,3.359
410.02,3.268
411.04,3.177
412.05,3.091
413.06,2.964
414.07,2.838
415.08,2.724
416.10,2.622
417.11,2.526
418.12,2.438
##END=
