##TITLE=2-Chloro-3-nitropyridine
##JCAMP-DX=4.24
##DATA TYPE=UV/VIS SPECTRUM
##ORIGIN=INSTITUTE OF ENERGY PROBLEMS OF CHEMICAL PHYSICS, RAS
##OWNER=INEP CP RAS, NIST OSRD
Collection (C) 2007 copyright by the U.S. Secretary of Commerce
on behalf of the United States of America. All rights reserved.
##CAS REGISTRY NO=5470-18-8
##MOLFORM=C5H3ClN2O2
##SOURCE REFERENCE=RAS UV No. 14579
##$NIST SQUIB=1968TOM/SKR1427
##$NIST SOURCE=TYUGLMTE
##SPECTROMETER/DATA SYSTEM=Unicam SP 700
##XUNITS=Wavelength (nm)
##YUNITS=Logarithm epsilon
##XFACTOR=1.0
##YFACTOR=1.0
##FIRSTX=196.73
##LASTX=362.45
##FIRSTY=3.652
##MAXX=362.45
##MINX=196.73
##MAXY=4.059
##MINY=2.27
##NPOINTS=126
##$REF AUTHOR=Tomazik, P.; Skrowaczewska, Z.
##$REF JOURNAL=Roczniki Chem.
##$REF VOLUME=42
##$REF PAGE=1427
##$REF DATE=1968
##XYPOINTS=(XY..XY)
196.73,3.652
197.34,3.677
197.96,3.824
198.57,3.958
199.19,3.995
199.82,4.020
200.45,4.039
201.08,4.047
201.72,4.052
202.36,4.059
204.96,4.059
206.96,4.047
207.64,4.034
208.32,4.020
209.00,4.000
209.69,3.973
210.38,3.954
211.08,3.939
211.78,3.907
212.49,3.878
213.20,3.843
213.91,3.816
214.64,3.780
215.36,3.743
216.09,3.711
216.83,3.694
217.57,3.667
218.31,3.650
219.07,3.628
219.82,3.615
220.58,3.603
221.35,3.593
222.12,3.581
222.90,3.571
224.47,3.566
225.26,3.562
227.68,3.549
228.50,3.544
229.32,3.542
230.15,3.539
230.98,3.537
233.53,3.530
234.39,3.530
237.00,3.520
237.89,3.517
238.78,3.513
239.68,3.503
240.58,3.495
242.42,3.473
243.34,3.451
245.22,3.434
246.16,3.417
247.12,3.400
248.08,3.395
249.05,3.375
251.01,3.326
252.01,3.312
253.01,3.304
258.14,3.299
260.25,3.312
261.32,3.319
262.39,3.324
263.48,3.336
264.57,3.348
265.68,3.366
266.79,3.366
267.91,3.370
269.04,3.378
271.34,3.383
272.50,3.383
273.67,3.375
274.85,3.370
276.04,3.361
277.24,3.353
279.68,3.324
280.91,3.304
282.16,3.287
283.41,3.265
284.68,3.238
285.96,3.216
287.25,3.194
288.55,3.118
289.86,3.084
291.19,3.062
292.52,3.042
293.87,3.008
295.24,2.971
296.61,2.949
298.00,2.905
299.40,2.861
302.24,2.824
303.68,2.777
305.14,2.733
306.61,2.731
308.09,2.699
309.59,2.677
311.10,2.630
312.63,2.611
314.17,2.591
315.73,2.569
317.30,2.535
318.89,2.520
320.50,2.510
322.12,2.513
327.08,2.488
328.21,2.488
328.77,2.488
329.34,2.486
329.91,2.483
330.48,2.483
331.05,2.481
331.62,2.481
332.20,2.479
332.78,2.479
333.36,2.476
333.94,2.474
339.88,2.466
342.32,2.447
343.55,2.425
345.41,2.403
347.93,2.383
351.13,2.363
353.07,2.344
357.03,2.307
359.05,2.287
362.45,2.270
##END=
