##TITLE=Benzamide
##JCAMP-DX=4.24
##DATA TYPE=UV/VIS SPECTRUM
##ORIGIN=INSTITUTE OF ENERGY PROBLEMS OF CHEMICAL PHYSICS, RAS
##OWNER=INEP CP RAS, NIST OSRD
Collection (C) 2007 copyright by the U.S. Secretary of Commerce
on behalf of the United States of America. All rights reserved.
##CAS REGISTRY NO=55-21-0
##MOLFORM=C7H7NO
##MP=129.1
##BP=290
##SOURCE REFERENCE=RAS UV No. 5265
##$NIST SQUIB=1950RAM/GUI405-411
##$NIST SOURCE=TSGMTE
##SPECTROMETER/DATA SYSTEM=n.i.g.
##XUNITS=Wavelength (nm)
##YUNITS=Logarithm epsilon
##XFACTOR=1.000000
##YFACTOR=1.000000
##FIRSTX=290.4815
##LASTX=231.6203
##FIRSTY=1.0195
##MAXX=290.481
##MINX=231.62
##MAXY=3.63829
##MINY=1.0195
##NPOINTS=166
##$REF AUTHOR=Ramart-Lucas, P.; Guilmart, T.
##$REF TITLE=Sur les variations d'absorption dans les series homologues
##$REF JOURNAL=Bull. Soc. Chim. Fr.
##$REF VOLUME=17
##$REF PAGE=405-411
##$REF DATE=1950
##XYPOINTS=(XY..XY)
290.4815,1.019503
290.1024,1.086267
289.7547,1.147311
289.4366,1.202921
289.1468,1.253394
288.8836,1.299021
288.6455,1.340099
288.4311,1.376918
288.2390,1.409773
288.0677,1.438955
287.9158,1.464758
287.7818,1.487476
287.6645,1.507402
287.5625,1.524828
287.4742,1.540049
287.3985,1.553357
287.3340,1.565046
287.2792,1.575407
287.2329,1.584737
287.1936,1.593326
287.1602,1.601467
287.1312,1.609456
287.1053,1.617583
287.0812,1.626143
287.0812,1.626143
286.9158,1.641335
286.6673,1.676283
286.3775,1.721108
286.0883,1.765933
285.8813,1.763026
285.8412,1.800880
285.8152,1.760472
285.7402,1.757920
285.6773,1.816072
285.6773,1.816072
285.6672,1.944096
285.6608,1.755366
285.6136,1.946999
285.6136,1.946999
285.5845,1.942586
285.5425,1.867562
285.4494,1.947732
285.4171,1.898516
285.3263,1.919524
285.2951,1.941177
285.2951,1.941177
285.2765,1.948385
285.0994,1.948875
285.0994,1.948875
284.8912,1.990707
284.7131,2.025143
284.5608,2.053895
284.4299,2.078671
284.3161,2.101183
284.2153,2.123140
284.1230,2.146251
284.0351,2.172228
283.9474,2.202779
283.9474,2.202779
283.7617,2.220537
283.4975,2.259526
283.2076,2.305590
282.9445,2.344578
282.7601,2.362337
282.7601,2.362337
282.6334,2.389398
282.4881,2.417657
282.3156,2.446749
282.1075,2.476310
281.8554,2.505979
281.5510,2.535390
281.1862,2.564180
280.7530,2.591987
280.2434,2.618445
279.6501,2.643193
278.9656,2.665865
278.9656,2.665865
278.6068,2.666618
278.2489,2.667289
277.8918,2.667798
277.8918,2.667798
277.5484,2.655953
277.2511,2.642072
276.9093,2.630227
276.9093,2.630227
276.5555,2.630262
276.2027,2.630296
275.8507,2.630331
275.8507,2.630331
275.0976,2.647446
274.3208,2.673189
273.5870,2.703926
272.9616,2.736023
272.5088,2.765848
272.2928,2.789768
272.2928,2.789768
271.7041,2.809562
271.1179,2.829275
270.5341,2.848825
270.5341,2.848825
270.2852,2.848851
270.0368,2.848876
269.7888,2.848902
269.7888,2.848902
269.3799,2.835725
269.0936,2.823429
268.6847,2.801475
268.6847,2.801475
268.2233,2.799018
267.9424,2.798573
267.6004,2.799760
267.6004,2.799760
266.9230,2.820812
266.3660,2.834619
265.4541,2.853014
265.4541,2.853014
263.7945,2.842601
262.4548,2.823947
260.8960,2.802311
260.8960,2.802311
260.4668,2.803808
260.0389,2.805223
259.6124,2.806476
259.6124,2.806476
258.5538,2.822799
257.5484,2.839286
256.5921,2.856053
255.6805,2.873217
254.8096,2.890893
253.9756,2.909197
253.1745,2.928244
252.4027,2.948151
251.6567,2.969033
250.9329,2.991005
250.2279,3.014184
250.2279,3.014184
249.8317,3.038976
249.3981,3.063566
248.9307,3.087955
248.4329,3.112142
247.9083,3.136125
247.3603,3.159904
246.7924,3.183478
246.2078,3.206847
245.6100,3.230009
245.0022,3.252964
244.3876,3.275710
243.7693,3.298247
243.1504,3.320574
242.5339,3.342691
241.9228,3.364596
241.3200,3.386289
240.7284,3.407769
240.7284,3.407769
240.4451,3.414830
240.1579,3.423017
239.7732,3.434588
239.1988,3.451802
238.3452,3.476914
237.1269,3.512184
235.4649,3.559868
235.4649,3.559868
234.5674,3.581418
233.6371,3.604002
232.6594,3.624125
231.6203,3.638292
##END=
