##TITLE=N-methyl-N-phenyl benzenamine
##JCAMP-DX=4.24
##DATA TYPE=UV/VIS SPECTRUM
##ORIGIN=INSTITUTE OF ENERGY PROBLEMS OF CHEMICAL PHYSICS, RAS
##OWNER=INEP CP RAS, NIST OSRD
Collection (C) 2007 copyright by the U.S. Secretary of Commerce
on behalf of the United States of America. All rights reserved.
##CAS REGISTRY NO=552-82-9
##MOLFORM=C13H13N
##BP=175/31 mm
##SOURCE REFERENCE=RAS UV No. 23318
##$NIST SQUIB=1975KAM/2734
##$NIST SOURCE=TYUGLMTE
##SPECTROMETER/DATA SYSTEM=SF-4A
##XUNITS=Wavelength (nm)
##YUNITS=Logarithm epsilon
##XFACTOR=1.0
##YFACTOR=1.0
##FIRSTX=240.227
##LASTX=344.008
##FIRSTY=4.286
##MAXX=344.008
##MINX=240.227
##MAXY=4.363
##MINY=3.254
##NPOINTS=107
##$REF AUTHOR=Kampel, L.P.; et al.
##$REF JOURNAL=Zhur. Obshei Khim.
##$REF VOLUME=45
##$REF PAGE=2734
##$REF DATE=1975
##XYPOINTS=(XY..XY)
240.227,4.286
241.227,4.276
242.227,4.267
243.227,4.260
244.227,4.252
245.227,4.243
246.227,4.232
247.227,4.219
248.227,4.203
249.227,4.186
250.227,4.166
251.227,4.143
252.227,4.120
253.227,4.094
254.227,4.068
255.227,4.041
256.227,4.015
257.227,3.990
258.227,3.966
259.227,3.945
260.227,3.927
261.227,3.912
262.227,3.901
262.269,3.901
263.269,3.893
264.269,3.890
265.269,3.889
266.269,3.891
267.269,3.895
268.269,3.901
269.269,3.908
270.269,3.916
271.269,3.926
272.269,3.936
273.269,3.948
274.269,3.961
275.026,3.973
276.026,3.997
277.026,4.024
278.026,4.048
278.129,4.050
279.129,4.077
280.129,4.104
281.129,4.131
282.129,4.157
283.129,4.182
284.129,4.206
285.129,4.229
286.129,4.250
287.129,4.269
288.129,4.287
289.129,4.303
290.129,4.317
291.124,4.329
292.124,4.339
293.124,4.347
294.124,4.353
295.124,4.357
296.124,4.361
297.124,4.362
298.124,4.363
299.124,4.363
300.124,4.362
301.124,4.360
302.124,4.357
303.124,4.354
304.124,4.349
305.124,4.343
306.124,4.336
307.124,4.328
308.124,4.319
309.124,4.309
310.124,4.297
311.124,4.285
312.124,4.272
313.124,4.258
314.093,4.247
315.093,4.230
316.093,4.212
317.093,4.191
318.093,4.168
319.093,4.143
320.093,4.115
321.093,4.083
322.093,4.047
323.093,4.006
324.008,3.968
325.008,3.900
326.008,3.835
327.008,3.774
328.008,3.717
329.008,3.666
330.008,3.619
331.008,3.577
332.008,3.538
333.008,3.503
334.008,3.470
335.008,3.440
336.008,3.411
337.008,3.383
338.008,3.357
339.008,3.332
340.008,3.310
341.008,3.291
342.008,3.275
343.008,3.262
344.008,3.254
##END=
