##TITLE=7-(difluoromethoxy)-1,3-dihydro-5-phenyl-2H-1,4-benzodiazepin-2-one
##JCAMP-DX=4.24
##DATA TYPE=UV/VIS SPECTRUM
##ORIGIN=INSTITUTE OF ENERGY PROBLEMS OF CHEMICAL PHYSICS, RAS
##OWNER=INEP CP RAS, NIST OSRD
Collection (C) 2007 copyright by the U.S. Secretary of Commerce
on behalf of the United States of America. All rights reserved.
##CAS REGISTRY NO=55384-53-7
##MOLFORM=C16H12F2N2O2
##MP=182-183
##SOURCE REFERENCE=RAS UV No. 23456
##$NIST SQUIB=1975AND/268
##$NIST SOURCE=TYUGLMTE
##SPECTROMETER/DATA SYSTEM=SF-4A
##XUNITS=Wavelength (nm)
##YUNITS=Logarithm epsilon
##XFACTOR=1.0
##YFACTOR=1.0
##FIRSTX=224.264
##LASTX=333.902
##FIRSTY=4.519
##MAXX=333.902
##MINX=224.264
##MAXY=4.525
##MINY=3.184
##NPOINTS=112
##$REF AUTHOR=Andronati, S.A.; et al.
##$REF JOURNAL=Khim. Geterosikl. Soedin.
##$REF PAGE=268
##$REF DATE=1975
##XYPOINTS=(XY..XY)
224.264,4.519
225.264,4.525
226.264,4.524
227.264,4.519
228.264,4.511
229.264,4.500
230.264,4.487
231.264,4.473
232.264,4.458
233.264,4.443
234.264,4.427
235.264,4.412
236.264,4.396
237.264,4.380
238.264,4.364
239.264,4.349
240.264,4.332
241.264,4.316
242.264,4.300
243.264,4.283
244.264,4.266
244.318,4.265
245.318,4.248
246.318,4.231
247.318,4.213
248.318,4.195
249.318,4.177
250.318,4.160
251.318,4.144
252.318,4.128
253.318,4.111
254.318,4.095
255.318,4.077
256.318,4.058
257.195,4.041
258.195,4.022
259.195,4.004
260.195,3.985
261.195,3.968
262.195,3.950
263.195,3.933
264.195,3.916
265.195,3.900
266.195,3.884
267.195,3.867
268.195,3.851
269.195,3.835
270.195,3.818
271.195,3.802
272.195,3.786
273.195,3.769
274.195,3.753
275.195,3.736
276.195,3.720
277.195,3.704
278.195,3.688
279.195,3.672
280.195,3.657
281.195,3.641
282.195,3.627
283.195,3.612
284.195,3.597
285.195,3.583
286.154,3.568
287.154,3.552
288.154,3.535
289.154,3.518
290.154,3.501
291.154,3.484
292.154,3.468
293.154,3.453
294.154,3.440
295.154,3.428
296.154,3.417
297.154,3.408
298.154,3.400
299.154,3.394
300.154,3.390
301.154,3.387
302.154,3.386
303.154,3.386
304.154,3.387
305.154,3.390
306.154,3.393
307.154,3.398
308.154,3.402
309.154,3.407
310.154,3.413
311.154,3.418
312.154,3.423
313.154,3.427
314.154,3.431
315.154,3.434
316.154,3.435
317.154,3.435
318.154,3.433
319.154,3.429
320.154,3.424
320.902,3.418
321.902,3.408
322.902,3.394
323.902,3.377
324.902,3.357
325.902,3.337
326.902,3.316
327.902,3.295
328.902,3.275
329.902,3.256
330.902,3.238
331.902,3.220
332.902,3.202
333.902,3.184
##END=
