##TITLE=1-(5-formyl-2,3-dihydro-2-oxo-4-thiazolyl)pyridinium, hydroxide inner salt
##JCAMP-DX=4.24
##DATA TYPE=UV/VIS SPECTRUM
##ORIGIN=INSTITUTE OF ENERGY PROBLEMS OF CHEMICAL PHYSICS, RAS
##OWNER=INEP CP RAS, NIST OSRD
Collection (C) 2007 copyright by the U.S. Secretary of Commerce
on behalf of the United States of America. All rights reserved.
##CAS REGISTRY NO=55361-07-4
##MOLFORM=C9H6N2O2S
##MP=214-216 dec.
##SOURCE REFERENCE=RAS UV No. 22145
##$NIST SQUIB=1978KOC/255
##$NIST SOURCE=TYUGLMTE
##SPECTROMETER/DATA SYSTEM=SF-4
##XUNITS=Wavelength (nm)
##YUNITS=Logarithm epsilon
##XFACTOR=1.0
##YFACTOR=1.0
##FIRSTX=214.359
##LASTX=468.605
##FIRSTY=3.237
##MAXX=468.605
##MINX=214.359
##MAXY=3.237
##MINY=2.325
##NPOINTS=128
##$REF AUTHOR=Kochkanyan, R.O.; et al.
##$REF JOURNAL=Khim. Geterosikl. Soedin.
##$REF PAGE=255
##$REF DATE=1978
##XYPOINTS=(XY..XY)
214.359,3.237
216.359,3.214
218.359,3.193
220.359,3.174
222.359,3.157
224.359,3.144
226.359,3.132
228.359,3.123
230.359,3.117
232.359,3.113
234.359,3.112
236.359,3.113
238.359,3.116
240.359,3.121
242.359,3.129
244.359,3.138
246.411,3.150
248.411,3.163
250.411,3.178
252.411,3.190
254.411,3.199
256.411,3.203
258.411,3.201
260.411,3.195
262.411,3.185
264.411,3.175
266.411,3.164
268.411,3.154
270.411,3.145
272.411,3.136
274.328,3.126
276.328,3.112
278.328,3.096
280.328,3.082
282.328,3.067
284.328,3.055
286.328,3.044
288.328,3.036
290.328,3.030
292.328,3.027
294.328,3.026
296.328,3.028
298.328,3.032
300.328,3.038
302.328,3.045
304.254,3.053
306.312,3.063
308.312,3.075
310.312,3.084
312.312,3.089
314.312,3.091
316.312,3.089
318.312,3.085
320.312,3.077
322.312,3.067
324.312,3.054
326.312,3.040
328.312,3.025
329.816,3.013
331.816,2.994
333.816,2.975
335.816,2.955
337.816,2.934
339.816,2.911
341.816,2.888
343.816,2.863
345.816,2.837
347.816,2.810
349.816,2.781
351.816,2.752
353.816,2.721
355.816,2.690
357.816,2.659
359.816,2.627
361.816,2.596
363.816,2.565
365.816,2.536
367.816,2.508
369.816,2.482
372.404,2.449
374.621,2.426
376.621,2.400
378.621,2.379
380.621,2.361
382.621,2.347
384.621,2.336
386.621,2.329
388.621,2.325
390.621,2.326
392.621,2.330
394.621,2.337
396.621,2.349
398.621,2.363
400.621,2.379
403.022,2.395
405.086,2.412
406.605,2.421
408.605,2.433
410.605,2.447
412.605,2.462
414.605,2.479
416.605,2.495
418.605,2.512
420.605,2.528
422.605,2.543
424.605,2.558
426.605,2.573
428.605,2.586
430.605,2.600
432.605,2.612
434.605,2.625
436.605,2.637
438.605,2.648
440.605,2.658
442.605,2.668
444.605,2.676
446.605,2.683
448.605,2.689
450.605,2.692
452.605,2.694
454.605,2.693
456.605,2.689
458.605,2.683
460.605,2.676
462.605,2.666
464.605,2.656
466.605,2.646
468.605,2.638
##END=
