##TITLE=p-Benzoquinone, 2-methyl-
##JCAMP-DX=4.24
##DATA TYPE=UV/VIS SPECTRUM
##ORIGIN=INSTITUTE OF ENERGY PROBLEMS OF CHEMICAL PHYSICS, RAS
##OWNER=INEP CP RAS, NIST OSRD
Collection (C) 2007 copyright by the U.S. Secretary of Commerce
on behalf of the United States of America. All rights reserved.
##CAS REGISTRY NO=553-97-9
##MOLFORM=C7H6O2
##BP=56-57
##SOURCE REFERENCE=RAS UV No. 18918
##$NIST SQUIB=1982KOP6
##$NIST SOURCE=TYUGLMTE
##SPECTROMETER/DATA SYSTEM=SF-16
##XUNITS=Wavelength (nm)
##YUNITS=Logarithm epsilon
##XFACTOR=1.0
##YFACTOR=1.0
##FIRSTX=208.39
##LASTX=463.34
##FIRSTY=3.281
##MAXX=463.34
##MINX=208.39
##MAXY=4.224
##MINY=1.13
##NPOINTS=138
##$REF AUTHOR=(editor), Koptyug V.A.
##$REF JOURNAL=Atlas of Spectra of Aromatic and Heterocyclic Compounds
##$REF VOLUME=22
##$REF PAGE=6
##$REF DATE=1982
##XYPOINTS=(XY..XY)
208.39,3.281
208.92,3.287
209.44,3.292
209.97,3.302
210.49,3.307
211.02,3.313
211.54,3.318
213.11,3.386
214.69,3.438
216.26,3.485
217.84,3.521
219.41,3.568
220.98,3.625
222.56,3.672
224.13,3.719
225.70,3.750
227.28,3.823
228.85,3.854
230.43,3.912
232.00,3.953
233.57,4.000
235.15,4.032
236.72,4.058
238.30,4.110
239.87,4.136
241.44,4.167
243.02,4.193
244.59,4.214
246.16,4.224
247.74,4.214
249.31,4.204
250.89,4.193
252.46,4.157
254.03,4.099
255.61,4.037
257.18,3.995
258.75,3.912
260.33,3.813
261.90,3.709
263.48,3.604
265.05,3.500
266.10,3.401
266.62,3.396
266.62,3.401
268.20,3.261
270.30,3.104
272.39,3.000
274.49,2.875
276.59,2.818
278.69,2.771
280.79,2.750
282.89,2.750
284.98,2.750
287.08,2.760
289.18,2.776
291.28,2.786
293.38,2.802
295.48,2.807
297.57,2.807
299.67,2.807
301.77,2.802
303.87,2.786
305.97,2.760
308.07,2.740
310.16,2.714
312.26,2.687
314.36,2.667
316.46,2.646
318.56,2.615
320.66,2.583
322.75,2.547
324.85,2.526
326.95,2.500
329.05,2.469
331.15,2.443
333.25,2.406
335.34,2.375
337.44,2.344
339.54,2.307
341.64,2.265
343.74,2.234
345.84,2.193
347.93,2.146
350.03,2.099
352.13,2.036
354.23,1.963
356.33,1.901
358.43,1.807
360.52,1.724
362.62,1.619
364.72,1.547
366.82,1.484
368.92,1.411
371.02,1.343
373.11,1.281
375.21,1.239
377.31,1.213
379.41,1.203
381.51,1.197
383.61,1.203
385.70,1.208
387.80,1.213
389.90,1.218
392.00,1.239
394.10,1.244
396.20,1.260
398.30,1.270
400.39,1.281
402.49,1.296
404.59,1.307
406.69,1.322
408.79,1.328
410.89,1.322
412.98,1.333
415.08,1.338
417.18,1.343
419.28,1.354
421.38,1.354
423.48,1.364
425.57,1.364
427.67,1.364
429.77,1.364
431.87,1.359
433.97,1.364
436.07,1.359
438.16,1.349
440.26,1.343
442.36,1.328
444.46,1.322
446.56,1.302
448.66,1.281
450.75,1.255
452.85,1.234
454.95,1.229
457.05,1.203
459.15,1.177
461.25,1.145
463.34,1.130
##END=
