##TITLE=Phenol, 3-nitro-
##JCAMP-DX=4.24
##DATA TYPE=UV/VIS SPECTRUM
##ORIGIN=INSTITUTE OF ENERGY PROBLEMS OF CHEMICAL PHYSICS, RAS
##OWNER=INEP CP RAS, NIST OSRD
Collection (C) 2007 copyright by the U.S. Secretary of Commerce
on behalf of the United States of America. All rights reserved.
##CAS REGISTRY NO=554-84-7
##MOLFORM=C6H5NO3
##MP=96.8
##BP=194(70)
##SOURCE REFERENCE=RAS UV No. 108
##$NIST SQUIB=1951GRA220-226
##$NIST SOURCE=TSGMTE
##SPECTROMETER/DATA SYSTEM=n.i.g.
##XUNITS=Wavelength (nm)
##YUNITS=Logarithm epsilon
##XFACTOR=1.000000
##YFACTOR=1.000000
##FIRSTX=462.4915
##LASTX=232.9946
##FIRSTY=0.589525
##MAXX=462.491
##MINX=232.995
##MAXY=3.66731
##MINY=0.589525
##NPOINTS=330
##$REF AUTHOR=Grammaticakis, P.
##$REF TITLE=Contribution a l'etude de l'absorption dans l'ultraviolet moyen et le visible des arylamines isomeres et de leurs derives N substitues (Premier memoire)
##$REF JOURNAL=Bull. Soc. Chim. Fr.
##$REF VOLUME=18
##$REF PAGE=220-226
##$REF DATE=1951
##XYPOINTS=(XY..XY)
462.4915,0.589525
461.8059,0.599676
461.2191,0.631961
460.2299,0.714070
460.2299,0.714070
458.1166,0.751841
456.0947,0.801747
454.8943,0.847147
454.8943,0.847147
453.6882,0.871094
452.2697,0.910379
451.0775,0.934322
451.0775,0.934322
448.4011,1.016444
446.1014,1.087192
444.1388,1.147611
442.4763,1.198731
441.0792,1.241591
439.9145,1.277233
438.9507,1.306687
438.1575,1.330994
437.5052,1.351191
436.9650,1.368315
436.5084,1.383404
436.1075,1.397495
435.7343,1.411623
435.3613,1.426828
435.3613,1.426828
434.3745,1.444916
433.2905,1.473862
432.3074,1.493825
432.3074,1.493825
431.4302,1.530406
430.5391,1.567236
429.8812,1.641915
429.8812,1.641915
429.7716,1.629126
429.6780,1.616590
429.6176,1.604185
429.6176,1.604185
429.4040,1.642564
428.8936,1.643458
428.3675,1.644473
428.3675,1.644473
427.4327,1.670481
426.9656,1.690818
426.5638,1.722915
426.5638,1.722915
426.0439,1.722826
425.5252,1.722738
425.0593,1.705221
425.0488,1.708761
425.0376,1.712550
425.0260,1.716465
425.0078,1.722650
425.0078,1.722650
424.0615,1.787151
423.1825,1.824540
422.3241,1.861683
422.3241,1.861683
421.2830,1.881438
419.9838,1.914647
418.6980,1.940358
418.6980,1.940358
417.6272,1.965667
416.6313,1.988740
415.5424,2.024169
415.5424,2.024169
413.1016,2.080911
411.1755,2.128353
409.6080,2.168140
408.2506,2.201916
406.9590,2.231328
405.5932,2.258022
405.5932,2.258022
405.0552,2.283232
404.5186,2.308442
403.9834,2.333652
403.9834,2.333652
402.8218,2.344119
401.6522,2.354582
400.4602,2.365040
400.4602,2.365040
398.8158,2.393574
397.1699,2.422356
395.5088,2.451257
395.5088,2.451257
395.3967,2.462651
395.2557,2.474289
395.1003,2.486050
395.1003,2.486050
394.5617,2.489880
393.9963,2.493705
393.4185,2.497527
393.4185,2.497527
390.5339,2.557340
388.9620,2.590915
387.9281,2.621847
387.9281,2.621847
387.1873,2.622424
386.4353,2.623247
385.6587,2.624190
385.6587,2.624190
381.9171,2.694818
379.5795,2.737109
378.2234,2.765483
378.2234,2.765483
377.1001,2.771989
375.9834,2.778495
374.8733,2.785001
374.8733,2.785001
374.7678,2.798498
374.6366,2.812114
374.4921,2.825978
374.4921,2.825978
370.5648,2.875600
368.1599,2.906054
366.6804,2.928839
366.6804,2.928839
363.2038,2.962717
360.4728,2.987008
356.1727,3.022533
356.1727,3.022533
355.3889,3.025174
354.5969,3.027938
353.7851,3.030946
353.7851,3.030946
353.5181,3.035546
353.2396,3.040394
352.9387,3.045361
352.9387,3.045361
349.7974,3.059260
346.7034,3.077283
344.3408,3.095482
344.3408,3.095482
340.4911,3.098215
336.9602,3.097263
335.0513,3.092989
335.0513,3.092989
333.7715,3.092635
332.5015,3.092281
331.2410,3.091927
331.2410,3.091927
329.2657,3.075992
326.2678,3.053378
323.1716,3.025470
323.1716,3.025470
322.5322,3.024551
321.8864,3.023380
321.4755,2.998528
321.4755,2.998528
321.3793,3.006374
321.2925,3.014223
321.2246,3.022077
321.2246,3.022077
320.1548,2.980236
318.5790,2.955363
315.7802,2.903419
315.7802,2.903419
315.7738,2.907355
315.7674,2.911290
315.7610,2.915226
315.7610,2.915226
315.3823,2.897671
315.2931,2.902539
315.2380,2.889210
315.0863,2.885371
314.8079,2.901408
314.7974,2.882864
314.3243,2.900153
314.3243,2.900153
313.6532,2.890380
312.9761,2.880604
312.2842,2.870823
312.2842,2.870823
311.0507,2.872138
309.8268,2.873578
308.6120,2.875268
308.6120,2.875268
308.4750,2.880870
308.3206,2.886590
308.1573,2.892557
308.1573,2.892557
307.0911,2.898958
306.0152,2.905354
304.9384,2.911746
304.9384,2.911746
304.8111,2.919579
304.6754,2.927408
304.5230,2.935232
304.5230,2.935232
303.0132,2.954100
301.9687,2.964871
301.1637,2.974597
301.1637,2.974597
301.1073,2.980224
301.0342,2.985969
300.9526,2.991962
300.9526,2.991962
299.6501,3.017556
298.3423,3.043394
297.0376,3.069354
297.0376,3.069354
296.6641,3.071077
296.2753,3.073044
295.8793,3.075133
295.8793,3.075133
294.3331,3.138352
293.5816,3.164478
292.9715,3.175904
292.9715,3.175904
292.7508,3.175825
292.5148,3.175739
292.2715,3.175651
292.2715,3.175651
291.8394,3.193660
290.9108,3.220738
289.9847,3.250189
288.7166,3.276157
288.4653,3.285646
288.2142,3.295261
287.9632,3.305125
287.9632,3.305125
286.2253,3.343284
284.5009,3.381440
282.7826,3.419590
282.7826,3.419590
282.6053,3.430208
282.4282,3.440827
282.2514,3.451445
282.2514,3.451445
279.2221,3.490192
277.9144,3.509357
277.1662,3.525368
277.1662,3.525368
277.1185,3.530995
277.0566,3.536740
276.9875,3.542733
275.3594,3.547697
274.8617,3.550702
274.3728,3.553459
273.8995,3.556098
273.8995,3.556098
272.8938,3.554577
271.9021,3.553184
270.9306,3.552047
270.9306,3.552047
270.5186,3.545706
270.1077,3.539491
269.6978,3.533525
269.0815,3.527638
268.6201,3.525356
268.4410,3.544800
268.3865,3.541964
268.3385,3.539131
268.3037,3.536304
268.1730,3.523331
267.7337,3.521434
267.7337,3.521434
266.3329,3.498347
264.9529,3.475388
263.5996,3.452685
262.0203,3.425540
261.2050,3.411276
260.4067,3.397268
259.6193,3.383387
259.6193,3.383387
258.5637,3.353088
257.0894,3.317341
256.0522,3.288916
256.0522,3.288916
255.6125,3.282062
255.1129,3.277305
254.1293,3.270564
254.1293,3.270564
253.6739,3.251576
252.9549,3.230083
251.3686,3.187667
251.3686,3.187667
251.0669,3.204956
250.8917,3.200932
250.7224,3.196912
250.5648,3.192896
249.8591,3.186694
249.2404,3.184782
248.9705,3.180293
248.7174,3.180167
247.9323,3.182606
247.1465,3.185167
246.3543,3.187973
246.3543,3.187973
245.3008,3.208432
244.6355,3.218589
243.7863,3.227148
243.7863,3.227148
243.6996,3.233873
243.6022,3.240718
243.4992,3.247810
243.1166,3.267859
242.6823,3.290131
242.0006,3.322020
241.1473,3.371441
241.1473,3.371441
240.2972,3.410923
239.4426,3.450400
238.5890,3.489874
238.5727,3.507302
238.5694,3.510841
238.5659,3.514631
238.5623,3.518546
238.0690,3.524464
237.8368,3.524337
237.5998,3.524207
237.3531,3.524072
237.3531,3.524072
237.3495,3.528007
237.3458,3.531943
237.3422,3.535878
237.3422,3.535878
236.3262,3.567379
235.3138,3.598877
234.3000,3.630369
234.3000,3.630369
234.1785,3.639863
234.0521,3.649354
233.9159,3.658839
233.9159,3.658839
233.6164,3.661503
233.3077,3.664285
232.9946,3.667315
##END=
