##TITLE=(5-methyl-1,3-benzodithiol-2-ylidene)acetaldehyde
##JCAMP-DX=4.24
##DATA TYPE=UV/VIS SPECTRUM
##ORIGIN=INSTITUTE OF ENERGY PROBLEMS OF CHEMICAL PHYSICS, RAS
##OWNER=INEP CP RAS, NIST OSRD
Collection (C) 2007 copyright by the U.S. Secretary of Commerce
on behalf of the United States of America. All rights reserved.
##CAS REGISTRY NO=55475-97-3
##MOLFORM=C10H8OS2
##MP=86-87
##SOURCE REFERENCE=RAS UV No. 23717
##$NIST SQUIB=1974LOS/1485
##$NIST SOURCE=TYUGLMTE
##SPECTROMETER/DATA SYSTEM=Specord UV-Vis
##XUNITS=Wavelength (nm)
##YUNITS=Logarithm epsilon
##XFACTOR=1.0
##YFACTOR=1.0
##FIRSTX=211.59
##LASTX=409.968
##FIRSTY=4.02
##MAXX=409.968
##MINX=211.59
##MAXY=4.241
##MINY=3.015
##NPOINTS=201
##$REF AUTHOR=Loseva, N.S.; et al.
##$REF JOURNAL=Khim. Geterosikl. Soedin.
##$REF PAGE=1485
##$REF DATE=1974
##XYPOINTS=(XY..XY)
211.590,4.020
211.928,4.005
212.928,3.984
213.928,3.971
214.928,3.966
215.928,3.965
216.928,3.967
217.928,3.972
218.928,3.979
219.928,3.988
220.928,4.000
221.928,4.014
222.928,4.030
223.928,4.047
224.928,4.064
225.928,4.077
227.463,4.095
228.831,4.111
229.831,4.119
230.831,4.125
231.831,4.128
232.831,4.129
233.831,4.127
234.831,4.124
235.831,4.119
236.831,4.114
237.831,4.109
238.831,4.102
239.831,4.096
240.831,4.087
242.366,4.069
243.366,4.046
244.366,4.017
245.366,3.983
246.366,3.944
247.366,3.900
248.366,3.854
249.366,3.806
250.366,3.758
251.366,3.712
252.366,3.669
253.366,3.631
254.366,3.601
255.366,3.577
256.366,3.558
256.942,3.547
257.670,3.541
258.438,3.537
259.206,3.537
259.961,3.539
260.961,3.547
261.961,3.557
262.961,3.567
263.961,3.575
264.961,3.580
265.961,3.581
266.961,3.577
267.961,3.568
268.961,3.555
269.961,3.537
270.961,3.514
271.961,3.488
272.961,3.458
273.905,3.430
274.905,3.393
275.905,3.360
276.905,3.329
277.905,3.301
278.905,3.276
279.905,3.253
280.905,3.231
281.905,3.211
282.905,3.192
283.905,3.175
284.905,3.158
285.905,3.142
286.905,3.126
287.905,3.110
288.905,3.094
289.905,3.078
291.000,3.066
292.000,3.057
293.000,3.050
294.000,3.044
295.000,3.041
296.000,3.040
297.000,3.040
298.000,3.042
299.000,3.046
300.000,3.051
301.000,3.058
302.000,3.066
303.000,3.076
304.000,3.087
305.000,3.099
306.000,3.112
307.000,3.126
308.000,3.141
309.000,3.157
310.000,3.173
311.000,3.190
312.000,3.208
313.000,3.226
314.000,3.244
315.000,3.263
316.000,3.282
317.000,3.301
318.000,3.320
319.000,3.339
320.000,3.358
321.000,3.378
322.000,3.398
323.000,3.418
324.000,3.438
325.000,3.458
326.000,3.479
327.000,3.499
328.000,3.521
329.000,3.542
330.000,3.565
331.000,3.588
332.000,3.611
333.000,3.636
334.000,3.661
335.000,3.687
336.000,3.714
336.108,3.713
337.108,3.741
338.108,3.773
339.108,3.806
340.108,3.839
341.108,3.871
342.108,3.901
343.108,3.930
344.108,3.957
345.108,3.982
346.108,4.006
347.108,4.028
348.108,4.049
349.108,4.069
350.108,4.088
351.108,4.107
352.108,4.125
353.108,4.142
354.108,4.158
355.056,4.173
356.056,4.186
357.056,4.198
358.056,4.209
359.056,4.219
360.056,4.227
361.056,4.233
362.056,4.237
363.056,4.240
364.056,4.241
365.056,4.241
366.056,4.240
367.056,4.237
368.056,4.234
369.056,4.230
370.056,4.225
371.056,4.220
372.056,4.215
373.056,4.209
374.056,4.202
375.056,4.195
376.056,4.186
377.056,4.176
378.056,4.162
379.056,4.145
379.756,4.129
380.756,4.103
381.756,4.073
382.756,4.038
383.756,3.999
384.756,3.958
385.756,3.914
386.756,3.870
387.756,3.825
388.754,3.781
389.754,3.737
390.754,3.699
391.754,3.664
392.754,3.629
393.754,3.588
394.754,3.540
395.754,3.484
396.754,3.420
397.754,3.357
398.968,3.299
399.968,3.250
400.968,3.205
401.968,3.164
402.968,3.128
403.968,3.098
404.968,3.074
405.968,3.054
406.968,3.039
407.968,3.028
408.968,3.021
409.968,3.015
##END=
