##TITLE=Thiophene, 2-methyl-
##JCAMP-DX=4.24
##DATA TYPE=UV/VIS SPECTRUM
##ORIGIN=INSTITUTE OF ENERGY PROBLEMS OF CHEMICAL PHYSICS, RAS
##OWNER=INEP CP RAS, NIST OSRD
Collection (C) 2007 copyright by the U.S. Secretary of Commerce
on behalf of the United States of America. All rights reserved.
##CAS REGISTRY NO=554-14-3
##MOLFORM=C5H6S
##MP=- 63.4
##BP=112.6
##SOURCE REFERENCE=RAS UV No. 11097
##$NIST SQUIB=1951CAP/DIE5240
##$NIST SOURCE=TYUGLMTE
##SPECTROMETER/DATA SYSTEM=Beckman DU
##XUNITS=Wavelength (nm)
##YUNITS=Logarithm epsilon
##XFACTOR=1.0
##YFACTOR=1.0
##FIRSTX=214.91
##LASTX=317.23
##FIRSTY=3.553
##MAXX=317.23
##MINX=214.91
##MAXY=3.869
##MINY=2.029
##NPOINTS=107
##$REF AUTHOR=Capaigne, E.; Diedrich, J.L.
##$REF JOURNAL=J. Am. Chem. Soc.
##$REF VOLUME=73
##$REF PAGE=5240
##$REF DATE=1951
##XYPOINTS=(XY..XY)
214.91,3.553
215.04,3.555
215.17,3.557
215.29,3.558
215.43,3.560
215.71,3.565
215.95,3.571
216.82,3.591
217.69,3.610
218.55,3.629
219.42,3.647
220.29,3.666
221.16,3.683
222.02,3.702
222.89,3.721
223.76,3.738
224.62,3.755
225.49,3.774
226.36,3.788
227.23,3.807
228.09,3.822
228.96,3.834
229.83,3.847
230.69,3.857
231.56,3.862
232.43,3.869
233.29,3.869
234.16,3.867
235.03,3.867
235.90,3.862
236.76,3.855
237.63,3.841
238.50,3.829
239.36,3.814
240.23,3.797
241.10,3.776
241.97,3.750
242.83,3.717
243.70,3.671
244.59,3.618
245.43,3.560
246.30,3.503
247.12,3.444
248.03,3.384
248.86,3.334
249.77,3.266
250.66,3.187
251.50,3.105
252.37,3.026
253.24,2.928
253.73,2.873
254.15,2.827
254.45,2.796
254.63,2.766
254.80,2.740
255.14,2.710
255.89,2.637
256.88,2.557
257.75,2.495
258.61,2.459
259.48,2.431
260.35,2.409
261.21,2.391
262.08,2.376
262.95,2.362
263.81,2.350
264.68,2.340
265.55,2.329
266.42,2.319
267.28,2.310
268.15,2.302
269.02,2.295
271.10,2.279
272.31,2.271
273.53,2.262
274.74,2.253
276.13,2.245
277.34,2.236
278.73,2.228
280.12,2.221
281.50,2.212
282.89,2.205
284.28,2.198
285.66,2.191
287.05,2.184
288.44,2.178
289.83,2.169
291.21,2.164
292.60,2.157
293.99,2.150
295.38,2.143
296.94,2.138
298.32,2.133
299.71,2.126
301.10,2.121
302.49,2.114
303.87,2.109
305.26,2.102
306.65,2.095
308.03,2.088
309.42,2.081
310.81,2.072
312.20,2.066
313.58,2.057
314.80,2.048
316.01,2.040
317.23,2.029
##END=
