##TITLE=7,9-dihydro-1,7,9-trimethyl-1H-purine-2,6,8(3H)-trione
##JCAMP-DX=4.24
##DATA TYPE=UV/VIS SPECTRUM
##ORIGIN=INSTITUTE OF ENERGY PROBLEMS OF CHEMICAL PHYSICS, RAS
##OWNER=INEP CP RAS, NIST OSRD
Collection (C) 2007 copyright by the U.S. Secretary of Commerce
on behalf of the United States of America. All rights reserved.
##CAS REGISTRY NO=55441-64-0
##MOLFORM=C8H10N4O3
##MP=345
##SOURCE REFERENCE=RAS UV No. 23602
##$NIST SQUIB=1974PFL2030
##$NIST SOURCE=TYUGLMTE
##SPECTROMETER/DATA SYSTEM=Cary 15
##XUNITS=Wavelength (nm)
##YUNITS=Logarithm epsilon
##XFACTOR=1.0
##YFACTOR=1.0
##FIRSTX=200.164
##LASTX=313.138
##FIRSTY=4.374
##MAXX=313.138
##MINX=200.164
##MAXY=4.456
##MINY=3.037
##NPOINTS=117
##$REF AUTHOR=Pfleiderer, W.
##$REF JOURNAL=Liebigs Ann. Chem.
##$REF PAGE=2030
##$REF DATE=1974
##XYPOINTS=(XY..XY)
200.164,4.374
201.164,4.371
202.164,4.381
203.164,4.398
204.164,4.417
205.164,4.435
206.164,4.449
207.164,4.456
208.164,4.456
209.164,4.449
210.164,4.434
211.164,4.411
212.164,4.382
213.164,4.347
214.164,4.307
215.164,4.263
216.164,4.214
217.164,4.161
218.101,4.107
219.101,4.042
220.101,3.975
221.101,3.912
222.101,3.857
223.101,3.812
224.101,3.779
225.101,3.759
226.101,3.749
227.101,3.750
228.101,3.760
229.101,3.775
230.101,3.794
231.101,3.814
232.101,3.834
233.101,3.852
234.101,3.868
235.101,3.882
235.149,3.880
236.149,3.901
237.149,3.917
238.149,3.928
239.149,3.935
240.149,3.937
241.149,3.934
242.149,3.927
243.149,3.916
244.149,3.902
245.149,3.885
246.149,3.866
247.149,3.844
248.149,3.822
249.149,3.798
250.149,3.774
251.149,3.750
252.149,3.727
253.149,3.704
254.149,3.683
255.149,3.662
256.149,3.643
257.149,3.626
257.170,3.626
258.170,3.610
259.170,3.595
260.170,3.584
261.170,3.574
262.170,3.567
263.170,3.563
264.170,3.561
265.170,3.563
266.170,3.568
267.170,3.575
268.170,3.586
269.170,3.600
270.170,3.616
271.170,3.636
272.170,3.658
273.170,3.683
274.170,3.710
275.170,3.738
276.170,3.769
277.170,3.800
278.125,3.830
279.125,3.864
280.125,3.893
281.125,3.918
282.125,3.941
283.125,3.961
284.125,3.979
285.125,3.994
286.125,4.008
287.125,4.020
288.125,4.030
289.125,4.039
290.125,4.044
291.125,4.048
292.125,4.048
293.125,4.045
294.125,4.040
295.125,4.030
296.125,4.017
297.125,3.999
298.125,3.978
299.125,3.952
300.125,3.922
301.125,3.887
301.389,3.879
302.389,3.833
303.389,3.778
304.389,3.719
305.389,3.660
306.389,3.603
307.389,3.547
308.138,3.498
309.138,3.450
310.138,3.381
311.138,3.288
312.138,3.174
313.138,3.037
##END=
