##TITLE=7,9-dihydro-3,9-dimethyl-1H-purine-2,6,8(3H)-trione
##JCAMP-DX=4.24
##DATA TYPE=UV/VIS SPECTRUM
##ORIGIN=INSTITUTE OF ENERGY PROBLEMS OF CHEMICAL PHYSICS, RAS
##OWNER=INEP CP RAS, NIST OSRD
Collection (C) 2007 copyright by the U.S. Secretary of Commerce
on behalf of the United States of America. All rights reserved.
##CAS REGISTRY NO=55441-63-9
##MOLFORM=C7H8N4O3
##MP=398-400 (dec.)
##SOURCE REFERENCE=RAS UV No. 23611
##$NIST SQUIB=1974PFL2030
##$NIST SOURCE=TYUGLMTE
##SPECTROMETER/DATA SYSTEM=Cary 15
##XUNITS=Wavelength (nm)
##YUNITS=Logarithm epsilon
##XFACTOR=1.0
##YFACTOR=1.0
##FIRSTX=209.527
##LASTX=329.51
##FIRSTY=4.358
##MAXX=329.51
##MINX=209.527
##MAXY=4.358
##MINY=3.045
##NPOINTS=122
##$REF AUTHOR=Pfleiderer, W.
##$REF JOURNAL=Liebigs Ann. Chem.
##$REF PAGE=2030
##$REF DATE=1974
##XYPOINTS=(XY..XY)
209.527,4.358
210.527,4.322
211.527,4.289
212.527,4.256
213.527,4.225
214.527,4.193
215.527,4.162
216.527,4.130
217.527,4.098
218.527,4.066
219.527,4.034
220.527,4.003
221.527,3.973
222.527,3.945
223.527,3.919
224.527,3.895
225.527,3.874
226.527,3.857
227.527,3.843
228.527,3.833
229.527,3.826
230.527,3.822
231.527,3.822
232.499,3.820
233.499,3.826
234.499,3.830
235.499,3.834
236.499,3.836
237.499,3.838
238.499,3.839
239.499,3.838
240.499,3.837
241.499,3.834
242.499,3.831
243.499,3.826
244.499,3.820
245.499,3.814
246.499,3.807
247.499,3.799
248.499,3.791
249.499,3.782
250.499,3.772
251.499,3.763
252.499,3.754
253.499,3.744
254.499,3.735
255.499,3.726
256.499,3.718
257.499,3.710
258.499,3.704
259.499,3.698
260.499,3.693
261.499,3.690
262.499,3.688
263.499,3.687
264.499,3.688
265.499,3.691
266.499,3.695
267.499,3.702
267.521,3.707
268.521,3.712
269.521,3.718
270.521,3.727
271.521,3.736
272.521,3.748
273.521,3.760
274.521,3.774
275.521,3.789
276.521,3.804
277.521,3.820
278.521,3.835
279.521,3.851
280.521,3.867
281.521,3.882
282.521,3.897
283.521,3.910
284.521,3.923
285.521,3.935
286.521,3.946
287.521,3.955
288.521,3.962
289.521,3.968
290.521,3.973
291.521,3.975
292.521,3.976
293.521,3.976
294.521,3.973
295.521,3.969
296.521,3.963
297.521,3.955
298.521,3.946
299.521,3.935
300.521,3.923
301.521,3.910
302.521,3.895
303.521,3.880
304.521,3.863
305.521,3.845
306.521,3.827
307.521,3.808
308.521,3.789
309.510,3.764
310.510,3.749
311.510,3.725
312.510,3.696
313.510,3.665
314.510,3.632
315.510,3.598
316.510,3.565
317.510,3.533
318.510,3.500
319.510,3.468
320.510,3.435
321.510,3.401
322.510,3.365
323.510,3.326
324.510,3.284
325.510,3.240
326.510,3.193
327.510,3.144
328.510,3.094
329.510,3.045
##END=
