##TITLE=7,9-dihydro-9-methyl-1H-purine-2,6,8(3H)-trione
##JCAMP-DX=4.24
##DATA TYPE=UV/VIS SPECTRUM
##ORIGIN=INSTITUTE OF ENERGY PROBLEMS OF CHEMICAL PHYSICS, RAS
##OWNER=INEP CP RAS, NIST OSRD
Collection (C) 2007 copyright by the U.S. Secretary of Commerce
on behalf of the United States of America. All rights reserved.
##CAS REGISTRY NO=55441-71-9
##MOLFORM=C6H6N4O3
##SOURCE REFERENCE=RAS UV No. 23609
##$NIST SQUIB=1974PFL2030
##$NIST SOURCE=TYUGLMTE
##SPECTROMETER/DATA SYSTEM=Cary 15
##XUNITS=Wavelength (nm)
##YUNITS=Logarithm epsilon
##XFACTOR=1.0
##YFACTOR=1.0
##FIRSTX=212.569
##LASTX=324.636
##FIRSTY=4.334
##MAXX=324.636
##MINX=212.569
##MAXY=4.334
##MINY=3.106
##NPOINTS=118
##$REF AUTHOR=Pfleiderer, W.
##$REF JOURNAL=Liebigs Ann. Chem.
##$REF PAGE=2030
##$REF DATE=1974
##XYPOINTS=(XY..XY)
212.569,4.334
212.740,4.334
212.911,4.333
212.923,4.321
213.923,4.263
214.923,4.212
215.923,4.166
216.923,4.124
217.923,4.085
218.923,4.049
219.923,4.016
220.923,3.985
221.923,3.956
222.923,3.928
223.923,3.902
224.923,3.878
225.923,3.856
226.923,3.836
227.923,3.818
228.923,3.803
229.923,3.790
230.923,3.780
231.923,3.773
232.923,3.769
233.923,3.767
234.923,3.769
235.923,3.773
236.923,3.780
237.923,3.789
238.923,3.800
239.923,3.812
240.923,3.824
241.804,3.835
242.804,3.841
243.804,3.847
244.804,3.853
245.804,3.857
246.804,3.860
247.804,3.859
248.804,3.856
249.804,3.850
250.804,3.841
251.804,3.830
252.804,3.816
253.804,3.800
254.804,3.783
255.804,3.765
256.804,3.747
257.804,3.728
258.804,3.710
259.804,3.693
260.804,3.677
261.804,3.663
262.804,3.651
263.804,3.641
264.804,3.633
265.804,3.628
266.804,3.626
267.804,3.626
268.804,3.628
269.804,3.633
270.804,3.641
271.804,3.650
272.804,3.662
273.804,3.676
274.582,3.690
275.582,3.707
276.582,3.724
277.582,3.741
278.582,3.759
279.582,3.777
280.582,3.795
281.582,3.814
282.582,3.832
283.582,3.851
284.582,3.870
285.582,3.888
286.582,3.905
287.582,3.923
288.582,3.939
289.582,3.954
290.582,3.968
291.582,3.980
292.582,3.990
293.582,3.999
294.582,4.005
295.582,4.009
296.582,4.010
297.582,4.009
298.582,4.005
299.582,3.999
300.582,3.989
301.582,3.977
302.582,3.963
303.582,3.947
304.582,3.929
305.582,3.910
306.582,3.891
307.582,3.872
308.582,3.854
308.600,3.854
309.600,3.823
310.600,3.790
311.600,3.753
312.600,3.714
313.600,3.669
314.600,3.619
315.600,3.564
316.600,3.507
317.600,3.453
317.636,3.453
318.636,3.399
319.636,3.351
320.636,3.306
321.636,3.259
322.636,3.211
323.636,3.159
324.636,3.106
##END=
