##TITLE=(R,S)-4-[1-ethyl-2-(4-hydroxyphenyl)butyl]-2,6-diiodophenol
##JCAMP-DX=4.24
##DATA TYPE=UV/VIS SPECTRUM
##ORIGIN=INSTITUTE OF ENERGY PROBLEMS OF CHEMICAL PHYSICS, RAS
##OWNER=INEP CP RAS, NIST OSRD
Collection (C) 2007 copyright by the U.S. Secretary of Commerce
on behalf of the United States of America. All rights reserved.
##CAS REGISTRY NO=55508-16-2
##MP=113-114
##SOURCE REFERENCE=RAS UV No. 23296
##$NIST SQUIB=1975KAT/HSI1736
##$NIST SOURCE=TYUGLMTE
##SPECTROMETER/DATA SYSTEM=Cary 15
##XUNITS=Wavelength (nm)
##YUNITS=Logarithm epsilon
##XFACTOR=1.0
##YFACTOR=1.0
##FIRSTX=248.764
##LASTX=342.218
##FIRSTY=3.79
##MAXX=342.218
##MINX=248.764
##MAXY=3.79
##MINY=2.163
##NPOINTS=98
##$REF AUTHOR=Katzenellenbogen, J.A.; Hsiung, N.M.
##$REF JOURNAL=Biochemistry
##$REF VOLUME=14
##$REF PAGE=1736
##$REF DATE=1975
##XYPOINTS=(XY..XY)
248.764,3.790
249.764,3.714
250.764,3.653
251.764,3.603
252.764,3.562
253.764,3.530
254.764,3.503
255.764,3.481
256.764,3.464
257.764,3.449
258.764,3.436
259.764,3.426
260.764,3.418
261.764,3.411
262.764,3.407
263.764,3.405
264.764,3.405
265.764,3.408
266.764,3.413
267.764,3.422
268.764,3.434
269.764,3.448
270.764,3.465
271.764,3.483
272.764,3.502
273.764,3.520
274.764,3.534
275.764,3.542
276.271,3.551
276.453,3.555
277.453,3.576
278.453,3.593
279.453,3.606
280.453,3.614
281.453,3.617
282.453,3.617
283.453,3.615
284.453,3.611
285.453,3.609
286.453,3.610
287.204,3.613
288.204,3.602
289.204,3.582
290.204,3.558
291.204,3.534
292.204,3.513
293.204,3.495
294.204,3.481
295.204,3.471
296.204,3.464
297.204,3.457
298.204,3.450
299.204,3.441
300.204,3.427
301.204,3.407
302.204,3.381
303.204,3.348
304.204,3.308
305.204,3.263
306.204,3.217
306.351,3.210
307.351,3.173
308.351,3.143
309.351,3.116
310.351,3.090
311.351,3.065
312.351,3.042
313.169,3.023
314.169,3.005
315.169,2.994
316.169,2.985
317.169,2.976
318.169,2.963
319.169,2.946
320.169,2.923
321.169,2.896
322.169,2.869
323.169,2.843
324.169,2.826
325.169,2.822
325.235,2.817
326.235,2.800
327.235,2.781
328.235,2.760
329.235,2.736
330.235,2.709
331.235,2.680
332.235,2.648
333.235,2.615
334.235,2.579
335.235,2.542
336.235,2.503
337.235,2.462
338.235,2.418
339.235,2.372
340.235,2.321
341.235,2.265
342.218,2.163
##END=
