##TITLE=Benzenemethanamine, N-methyl-N-2-propynyl-hydrochloride
##JCAMP-DX=4.24
##DATA TYPE=UV/VIS SPECTRUM
##ORIGIN=INSTITUTE OF ENERGY PROBLEMS OF CHEMICAL PHYSICS, RAS
##OWNER=INEP CP RAS, NIST OSRD
Collection (C) 2007 copyright by the U.S. Secretary of Commerce
on behalf of the United States of America. All rights reserved.
##CAS REGISTRY NO=555-57-7
##MOLFORM=C11H13N
##MP=159-161
##SOURCE REFERENCE=RAS UV No. 19620
##$NIST SQUIB=1965LAN9
##$NIST SOURCE=TYUGLMTE
##SPECTROMETER/DATA SYSTEM=Unicam SP 500
##XUNITS=Wavelength (nm)
##YUNITS=Logarithm epsilon
##XFACTOR=1.0
##YFACTOR=1.0
##FIRSTX=213.15
##LASTX=279.93
##FIRSTY=3.423
##MAXX=279.93
##MINX=213.15
##MAXY=3.423
##MINY=0.505
##NPOINTS=223
##$REF AUTHOR=Lang (editor), L.
##$REF JOURNAL=Absorption Spectra in the Ultraviolet and Visible Region
##$REF VOLUME=5
##$REF PAGE=9
##$REF DATE=1965
##XYPOINTS=(XY..XY)
213.15,3.423
213.32,3.420
213.47,3.419
213.62,3.415
213.83,3.410
214.17,3.399
214.50,3.379
214.84,3.358
215.18,3.334
215.51,3.314
215.85,3.290
216.19,3.263
216.53,3.235
216.86,3.212
217.20,3.181
217.54,3.150
217.88,3.130
218.21,3.099
218.55,3.068
218.89,3.038
219.22,2.997
219.56,2.962
219.90,2.928
220.24,2.891
220.57,2.860
220.91,2.826
221.25,2.785
221.59,2.744
221.92,2.703
222.26,2.655
222.60,2.608
222.93,2.560
223.27,2.498
223.61,2.444
223.95,2.372
224.28,2.317
224.62,2.229
224.96,2.150
225.30,2.089
225.63,2.034
225.97,1.962
226.31,1.904
226.64,1.846
226.98,1.795
227.32,1.737
227.66,1.700
227.99,1.659
228.33,1.621
228.67,1.590
229.01,1.549
229.34,1.519
229.68,1.481
230.02,1.457
230.35,1.444
230.69,1.430
231.03,1.427
231.37,1.427
231.70,1.427
232.10,1.432
232.46,1.441
232.79,1.451
233.15,1.463
233.47,1.474
233.83,1.487
234.12,1.495
234.48,1.508
234.95,1.525
235.33,1.541
235.83,1.559
236.30,1.576
236.74,1.593
237.12,1.611
237.45,1.625
237.74,1.640
238.11,1.655
238.45,1.669
238.79,1.683
239.12,1.700
239.46,1.713
239.80,1.730
240.13,1.747
240.47,1.761
240.81,1.778
241.15,1.792
241.48,1.805
241.82,1.823
242.16,1.836
242.50,1.853
242.83,1.870
243.17,1.887
243.51,1.904
243.84,1.918
244.18,1.935
244.52,1.949
244.86,1.966
245.19,1.980
245.53,1.990
245.87,2.003
246.21,2.017
246.54,2.031
246.88,2.038
247.22,2.051
247.55,2.065
247.89,2.075
248.23,2.085
248.57,2.099
248.90,2.113
249.24,2.119
249.58,2.137
249.92,2.150
250.25,2.164
250.59,2.181
250.93,2.191
251.26,2.208
251.60,2.222
251.94,2.235
252.28,2.253
252.61,2.263
252.95,2.266
253.29,2.266
253.63,2.270
253.96,2.270
254.30,2.270
254.64,2.273
254.97,2.283
255.31,2.287
255.65,2.297
255.99,2.307
256.32,2.321
256.66,2.334
257.00,2.348
257.34,2.362
257.67,2.375
258.01,2.386
258.35,2.399
258.68,2.403
259.02,2.399
259.18,2.392
259.35,2.383
259.46,2.375
259.63,2.364
260.02,2.350
260.50,2.346
260.89,2.349
261.05,2.351
261.24,2.355
261.48,2.361
261.72,2.369
261.85,2.374
262.06,2.382
262.15,2.386
262.24,2.390
262.34,2.394
262.39,2.396
262.46,2.398
262.53,2.401
262.61,2.405
262.68,2.407
262.81,2.412
262.98,2.417
263.20,2.420
263.38,2.421
263.55,2.420
263.74,2.416
264.08,2.403
264.42,2.382
264.76,2.355
265.09,2.328
265.29,2.309
265.49,2.289
265.69,2.267
265.88,2.247
266.05,2.229
266.22,2.213
266.39,2.199
266.67,2.187
267.06,2.179
267.57,2.180
267.88,2.185
268.16,2.198
268.31,2.210
268.45,2.231
268.55,2.247
268.62,2.263
268.71,2.275
268.79,2.282
268.94,2.288
269.05,2.289
269.22,2.288
269.37,2.282
269.54,2.268
269.65,2.248
269.75,2.233
269.81,2.218
270.15,2.150
270.49,2.061
270.83,1.980
271.16,1.904
271.50,1.826
271.84,1.744
272.18,1.635
272.51,1.573
272.85,1.474
273.19,1.399
273.52,1.321
273.86,1.246
274.24,1.176
274.60,1.098
274.90,1.039
275.21,0.991
275.46,0.947
275.88,0.889
276.50,0.812
276.90,0.761
277.23,0.720
277.57,0.683
277.91,0.648
278.25,0.621
278.58,0.590
278.92,0.563
279.26,0.543
279.60,0.522
279.93,0.505
##END=
