##TITLE=Benzaldehyde, 4-nitro-
##JCAMP-DX=4.24
##DATA TYPE=UV/VIS SPECTRUM
##ORIGIN=INSTITUTE OF ENERGY PROBLEMS OF CHEMICAL PHYSICS, RAS
##OWNER=INEP CP RAS, NIST OSRD
Collection (C) 2007 copyright by the U.S. Secretary of Commerce
on behalf of the United States of America. All rights reserved.
##CAS REGISTRY NO=555-16-8
##MOLFORM=C7H5NO3
##MP=106
##SOURCE REFERENCE=RAS UV No. 19658
##$NIST SQUIB=1963LAN95
##$NIST SOURCE=TYUGLMTE
##SPECTROMETER/DATA SYSTEM=Unicam SP 500
##XUNITS=Wavelength (nm)
##YUNITS=Logarithm epsilon
##XFACTOR=1.0
##YFACTOR=1.0
##FIRSTX=212.98
##LASTX=408.19
##FIRSTY=3.85
##MAXX=408.19
##MINX=212.98
##MAXY=4.198
##MINY=1.126
##NPOINTS=196
##$REF AUTHOR=Lang (editor), L.
##$REF JOURNAL=Absorption Spectra in the Ultraviolet and Visible Region
##$REF VOLUME=4
##$REF PAGE=95
##$REF DATE=1963
##XYPOINTS=(XY..XY)
212.98,3.850
213.99,3.826
215.00,3.802
215.85,3.778
216.52,3.751
217.36,3.727
218.21,3.703
219.05,3.676
219.89,3.652
220.73,3.625
221.41,3.597
222.25,3.570
223.10,3.543
224.28,3.522
225.62,3.509
226.97,3.519
228.32,3.532
229.50,3.553
230.51,3.573
231.52,3.597
232.37,3.621
233.38,3.645
234.22,3.672
235.23,3.696
236.08,3.724
236.92,3.747
237.76,3.775
238.77,3.799
239.62,3.826
240.46,3.853
241.30,3.877
241.98,3.904
242.82,3.928
243.66,3.956
244.67,3.980
245.52,4.007
246.53,4.027
247.54,4.051
248.38,4.075
249.56,4.096
250.57,4.116
251.58,4.137
252.76,4.154
253.94,4.171
255.29,4.181
256.64,4.191
258.16,4.198
259.68,4.198
261.19,4.198
262.71,4.191
264.06,4.177
265.41,4.160
266.76,4.143
267.94,4.126
268.95,4.106
269.79,4.082
270.80,4.058
271.65,4.031
272.49,4.003
273.33,3.976
274.01,3.949
274.85,3.925
275.52,3.898
276.20,3.870
276.87,3.843
277.55,3.816
278.22,3.788
278.73,3.761
279.40,3.734
280.07,3.706
280.58,3.679
281.25,3.652
281.76,3.625
282.27,3.597
282.77,3.570
283.45,3.543
284.12,3.515
284.96,3.488
286.14,3.468
287.15,3.447
288.33,3.430
289.51,3.413
290.86,3.399
292.21,3.386
293.56,3.372
295.08,3.365
296.43,3.355
297.94,3.348
299.29,3.334
300.64,3.321
301.82,3.304
303.00,3.283
304.01,3.263
304.86,3.239
305.70,3.215
306.37,3.188
307.22,3.164
307.72,3.137
308.40,3.109
309.07,3.082
309.74,3.055
310.42,3.027
310.92,3.000
311.60,2.973
312.10,2.945
312.78,2.918
313.45,2.891
314.13,2.863
314.80,2.836
315.31,2.809
316.15,2.782
316.66,2.754
317.33,2.727
317.84,2.700
318.51,2.672
319.18,2.645
319.69,2.618
320.53,2.590
321.21,2.563
322.22,2.539
323.23,2.519
324.24,2.498
325.59,2.481
326.94,2.464
328.29,2.451
329.80,2.447
331.32,2.440
332.84,2.437
334.36,2.433
335.87,2.423
337.22,2.413
338.74,2.413
340.26,2.406
341.77,2.399
343.29,2.392
344.81,2.382
346.33,2.375
347.84,2.365
349.36,2.355
350.88,2.345
352.23,2.328
353.57,2.317
354.92,2.307
356.27,2.290
357.62,2.276
358.97,2.259
360.32,2.246
361.67,2.232
363.01,2.215
364.36,2.201
365.71,2.184
366.72,2.164
367.73,2.143
369.08,2.126
370.26,2.109
371.27,2.085
372.62,2.075
373.63,2.055
374.81,2.034
375.83,2.014
376.84,1.993
377.85,1.973
378.86,1.949
380.04,1.928
381.05,1.908
381.89,1.884
382.91,1.863
383.92,1.840
384.76,1.816
385.77,1.792
386.78,1.771
387.63,1.744
388.64,1.724
389.48,1.696
390.32,1.672
391.17,1.645
392.18,1.621
393.02,1.594
393.86,1.570
394.71,1.543
395.55,1.519
396.39,1.491
397.40,1.468
398.25,1.440
399.09,1.413
399.93,1.389
400.78,1.362
401.62,1.334
402.46,1.307
403.14,1.280
403.98,1.256
404.82,1.229
405.66,1.201
406.51,1.174
407.35,1.150
408.19,1.126
##END=
