##TITLE=Methyl isothiocyanate
##JCAMP-DX=4.24
##DATA TYPE=UV/VIS SPECTRUM
##ORIGIN=INSTITUTE OF ENERGY PROBLEMS OF CHEMICAL PHYSICS, RAS
##OWNER=INEP CP RAS, NIST OSRD
Collection (C) 2007 copyright by the U.S. Secretary of Commerce
on behalf of the United States of America. All rights reserved.
##CAS REGISTRY NO=556-61-6
##MOLFORM=C2H3NS
##SOURCE REFERENCE=RAS UV No. 19964
##$NIST SQUIB=1966PER/BRAb13/6
##$NIST SOURCE=TYUGLMTE
##SPECTROMETER/DATA SYSTEM=Zeiss PMQ II
##XUNITS=Wavelength (nm)
##YUNITS=Logarithm epsilon
##XFACTOR=1.0
##YFACTOR=1.0
##FIRSTX=192.82
##LASTX=278.11
##FIRSTY=4.182
##MAXX=278.11
##MINX=192.82
##MAXY=4.182
##MINY=1.017
##NPOINTS=146
##$REF AUTHOR=Perkampus, H.-H.; Braunschweig, T.H.
##$REF JOURNAL=UV atlas of organic compounds
##$REF VOLUME=1
##$REF PAGE=B13/6
##$REF DATE=1966
##XYPOINTS=(XY..XY)
192.82,4.182
192.90,4.180
192.98,4.178
193.06,4.176
193.14,4.176
193.22,4.174
193.30,4.172
193.37,4.170
193.45,4.167
193.53,4.167
193.61,4.165
193.69,4.163
193.77,4.161
193.85,4.161
193.93,4.159
194.01,4.157
194.09,4.155
194.17,4.155
194.25,4.152
194.33,4.150
194.41,4.148
194.49,4.146
194.57,4.146
194.71,4.141
194.90,4.134
195.28,4.115
195.70,4.090
196.19,4.063
196.68,4.033
197.17,4.001
197.67,3.960
198.12,3.921
198.62,3.884
199.17,3.838
199.62,3.799
200.19,3.746
200.70,3.680
201.21,3.607
201.73,3.532
202.25,3.448
202.77,3.365
203.29,3.275
203.82,3.177
204.35,3.070
204.88,2.971
205.42,2.892
205.96,2.802
206.50,2.725
207.04,2.646
207.59,2.571
208.14,2.509
208.69,2.457
209.25,2.410
209.81,2.380
210.37,2.361
210.93,2.348
211.50,2.342
212.07,2.342
212.64,2.348
213.22,2.359
213.80,2.372
214.38,2.387
214.97,2.398
215.56,2.410
216.15,2.428
216.75,2.440
217.35,2.453
217.92,2.466
218.56,2.478
219.21,2.489
219.78,2.503
220.40,2.513
221.02,2.526
221.64,2.543
222.27,2.558
222.90,2.575
223.53,2.588
224.17,2.605
224.81,2.618
225.45,2.633
226.10,2.646
226.76,2.659
227.41,2.676
228.07,2.689
228.74,2.701
229.40,2.716
230.07,2.729
230.75,2.740
231.43,2.755
232.11,2.768
232.80,2.778
233.49,2.791
234.19,2.802
234.89,2.811
235.59,2.821
236.30,2.830
237.01,2.838
237.73,2.843
238.45,2.849
239.18,2.853
239.91,2.858
240.64,2.860
241.38,2.862
242.12,2.862
242.87,2.860
243.62,2.853
244.38,2.851
245.14,2.841
245.91,2.832
246.68,2.821
247.46,2.802
248.24,2.787
249.03,2.768
249.82,2.746
250.62,2.721
251.42,2.695
252.22,2.659
253.04,2.627
253.85,2.586
254.68,2.543
255.50,2.494
256.34,2.449
257.18,2.393
258.02,2.329
258.87,2.263
259.73,2.186
260.59,2.115
261.45,2.044
262.33,1.980
263.20,1.907
264.09,1.837
264.98,1.755
265.88,1.691
266.78,1.616
267.69,1.535
268.60,1.464
269.52,1.409
270.45,1.349
271.38,1.300
272.32,1.246
273.27,1.199
274.22,1.152
275.18,1.113
276.15,1.088
277.13,1.060
278.11,1.017
##END=
