##TITLE=N-(1,1-dimethylethyl)-4-aminobutan-2-one
##JCAMP-DX=4.24
##DATA TYPE=UV/VIS SPECTRUM
##ORIGIN=INSTITUTE OF ENERGY PROBLEMS OF CHEMICAL PHYSICS, RAS
##OWNER=INEP CP RAS, NIST OSRD
Collection (C) 2007 copyright by the U.S. Secretary of Commerce
on behalf of the United States of America. All rights reserved.
##CAS REGISTRY NO=55886-47-0
##MOLFORM=C8H17NO
##BP=33-34/ 2 mm
##SOURCE REFERENCE=RAS UV No. 23259
##$NIST SQUIB=1975JOH/2710
##$NIST SOURCE=TYUGLMTE
##SPECTROMETER/DATA SYSTEM=Cary 14
##XUNITS=Wavelength (nm)
##YUNITS=Logarithm epsilon
##XFACTOR=1.0
##YFACTOR=1.0
##FIRSTX=212.041
##LASTX=303.017
##FIRSTY=2.413
##MAXX=303.017
##MINX=212.041
##MAXY=2.423
##MINY=0.376
##NPOINTS=93
##$REF AUTHOR=Johnson, P.Y.; et al.
##$REF JOURNAL=J. Org. Chem.
##$REF VOLUME=40
##$REF PAGE=2710
##$REF DATE=1975
##XYPOINTS=(XY..XY)
212.041,2.413
212.341,2.423
213.341,2.370
214.341,2.328
215.341,2.296
216.341,2.268
217.341,2.242
218.341,2.216
219.341,2.188
220.341,2.158
221.341,2.125
222.341,2.092
223.341,2.058
224.341,2.027
225.341,1.997
226.341,1.968
227.197,1.933
228.197,1.887
229.197,1.841
230.197,1.793
231.197,1.744
232.197,1.694
233.197,1.643
234.197,1.590
235.197,1.537
236.197,1.483
237.197,1.429
238.197,1.375
239.197,1.322
240.197,1.270
241.197,1.221
242.197,1.174
243.197,1.133
244.197,1.096
245.197,1.066
246.197,1.044
247.197,1.029
248.197,1.022
249.197,1.021
250.197,1.027
251.197,1.038
252.197,1.053
253.157,1.064
254.157,1.094
255.157,1.104
256.157,1.102
257.157,1.091
258.157,1.077
259.157,1.062
260.157,1.050
261.157,1.044
262.157,1.046
263.157,1.057
264.157,1.075
265.157,1.099
266.157,1.128
267.157,1.157
268.157,1.186
269.157,1.211
270.157,1.233
271.157,1.249
272.157,1.259
273.157,1.262
274.157,1.259
275.157,1.250
276.157,1.237
277.017,1.240
278.017,1.212
279.017,1.190
280.017,1.178
281.017,1.174
282.017,1.178
283.017,1.189
284.017,1.205
285.017,1.222
286.017,1.239
287.017,1.255
288.017,1.266
289.017,1.274
290.017,1.276
291.017,1.272
292.017,1.262
293.017,1.246
294.017,1.222
295.017,1.191
296.017,1.152
297.017,1.105
298.017,1.049
299.017,0.981
300.017,0.898
301.017,0.791
302.017,0.641
303.017,0.376
##END=
