##TITLE=N-[[2-(methylthio)-5-nitrophenyl]methylene]-2-butanamine
##JCAMP-DX=4.24
##DATA TYPE=UV/VIS SPECTRUM
##ORIGIN=INSTITUTE OF ENERGY PROBLEMS OF CHEMICAL PHYSICS, RAS
##OWNER=INEP CP RAS, NIST OSRD
Collection (C) 2007 copyright by the U.S. Secretary of Commerce
on behalf of the United States of America. All rights reserved.
##CAS REGISTRY NO=55969-97-6
##MOLFORM=C12H16N2O2S
##MP=69
##SOURCE REFERENCE=RAS UV No. 23506
##$NIST SQUIB=1975KOR/836
##$NIST SOURCE=TYUGLMTE
##SPECTROMETER/DATA SYSTEM=Specord UV-Vis
##XUNITS=Wavelength (nm)
##YUNITS=Logarithm epsilon
##XFACTOR=1.0
##YFACTOR=1.0
##FIRSTX=209.564
##LASTX=468.024
##FIRSTY=3.955
##MAXX=468.024
##MINX=209.564
##MAXY=4.233
##MINY=2.709
##NPOINTS=520
##$REF AUTHOR=Korobov, M.S.; et al.
##$REF JOURNAL=Zhur. Organ. Khim.
##$REF VOLUME=11
##$REF PAGE=836
##$REF DATE=1975
##XYPOINTS=(XY..XY)
209.564,3.955
210.064,3.976
210.564,3.995
211.064,4.012
211.564,4.028
212.064,4.043
212.564,4.057
213.064,4.070
213.564,4.082
214.064,4.094
214.564,4.105
215.064,4.116
215.564,4.126
216.064,4.135
216.564,4.144
217.064,4.153
217.564,4.161
218.064,4.169
218.564,4.177
219.064,4.184
219.564,4.191
220.064,4.197
220.564,4.203
221.064,4.208
221.564,4.213
222.064,4.218
222.564,4.221
223.064,4.225
223.564,4.228
224.064,4.230
224.564,4.232
225.064,4.233
225.564,4.233
226.064,4.233
226.564,4.232
227.064,4.231
227.564,4.228
228.064,4.226
228.564,4.222
229.064,4.219
229.564,4.214
230.064,4.209
230.564,4.203
231.064,4.197
231.564,4.190
232.064,4.183
232.564,4.176
233.064,4.167
233.564,4.159
234.064,4.150
234.564,4.141
235.064,4.132
235.564,4.123
236.064,4.113
236.564,4.103
237.064,4.094
237.564,4.084
238.064,4.074
238.564,4.064
239.064,4.055
239.564,4.045
240.064,4.036
240.564,4.027
241.064,4.019
241.564,4.010
242.064,4.002
242.564,3.994
243.064,3.987
243.564,3.980
244.064,3.974
244.564,3.968
245.064,3.962
245.564,3.957
246.064,3.952
246.564,3.947
246.581,3.946
247.081,3.943
247.581,3.940
248.081,3.937
248.581,3.933
249.081,3.930
249.581,3.927
250.081,3.923
250.581,3.920
251.081,3.916
251.581,3.912
252.081,3.908
252.581,3.904
253.081,3.900
253.581,3.895
254.081,3.891
254.581,3.887
255.081,3.883
255.581,3.879
256.081,3.876
256.581,3.872
257.081,3.869
257.581,3.867
258.081,3.864
258.581,3.862
259.081,3.861
259.581,3.860
260.081,3.859
260.581,3.859
261.081,3.859
261.581,3.859
262.081,3.860
262.581,3.862
263.081,3.864
263.581,3.866
264.081,3.868
264.581,3.870
265.081,3.873
265.581,3.876
266.081,3.879
266.581,3.882
267.081,3.884
267.581,3.887
268.081,3.889
268.581,3.891
269.081,3.893
269.581,3.894
270.081,3.894
270.581,3.894
271.081,3.894
271.581,3.893
272.081,3.891
272.581,3.888
273.081,3.884
273.581,3.880
274.081,3.875
274.581,3.869
275.081,3.862
275.581,3.855
276.081,3.847
276.581,3.838
277.081,3.828
277.581,3.819
278.081,3.808
278.406,3.800
278.906,3.791
279.406,3.781
279.906,3.771
280.406,3.760
280.906,3.748
281.406,3.736
281.906,3.724
282.406,3.713
282.906,3.701
283.406,3.689
283.906,3.678
284.406,3.668
284.906,3.657
285.406,3.648
285.906,3.638
286.406,3.630
286.906,3.622
287.406,3.615
287.906,3.608
288.406,3.602
288.906,3.597
289.406,3.592
289.906,3.588
290.406,3.585
290.906,3.582
291.406,3.580
291.906,3.578
292.406,3.577
292.906,3.577
293.406,3.577
293.906,3.578
294.406,3.579
294.906,3.581
295.406,3.583
295.906,3.586
296.406,3.589
296.906,3.593
297.406,3.597
297.906,3.602
298.406,3.607
298.906,3.612
299.406,3.618
299.906,3.625
300.406,3.631
300.906,3.638
301.406,3.646
301.906,3.654
302.406,3.662
302.906,3.671
303.406,3.680
303.906,3.689
304.406,3.699
304.906,3.709
305.406,3.719
305.906,3.729
306.406,3.740
306.887,3.746
307.387,3.759
307.887,3.772
308.387,3.784
308.887,3.795
309.387,3.806
309.887,3.817
310.387,3.826
310.887,3.836
311.387,3.845
311.887,3.854
312.387,3.862
312.887,3.870
313.387,3.878
313.887,3.886
314.387,3.893
314.887,3.900
315.387,3.906
315.887,3.913
316.387,3.919
316.887,3.925
317.387,3.931
317.887,3.937
318.387,3.942
318.887,3.947
319.387,3.953
319.887,3.958
320.387,3.963
320.887,3.967
321.387,3.972
321.887,3.977
322.387,3.981
322.887,3.986
323.387,3.990
323.887,3.994
324.387,3.998
324.887,4.003
325.387,4.007
325.887,4.011
326.387,4.014
326.887,4.018
327.387,4.022
327.887,4.026
328.387,4.029
328.887,4.033
329.387,4.036
329.887,4.040
330.387,4.043
330.887,4.046
331.387,4.050
331.887,4.053
332.387,4.056
332.887,4.059
333.387,4.062
333.887,4.065
334.387,4.067
334.887,4.070
335.387,4.072
335.887,4.075
336.387,4.077
336.887,4.079
337.387,4.081
337.887,4.083
338.387,4.085
338.887,4.087
339.387,4.088
339.887,4.090
340.387,4.091
340.887,4.092
341.387,4.093
341.887,4.094
342.387,4.094
342.887,4.094
343.387,4.095
343.887,4.094
344.387,4.094
344.887,4.094
345.387,4.093
345.887,4.092
346.387,4.091
346.887,4.089
347.387,4.088
347.887,4.086
348.387,4.084
348.887,4.081
349.387,4.078
349.887,4.075
350.387,4.072
350.887,4.068
351.387,4.064
351.887,4.060
352.387,4.056
352.887,4.051
353.387,4.046
353.887,4.040
354.387,4.035
354.887,4.028
355.387,4.022
355.887,4.015
356.387,4.008
356.887,4.001
357.387,3.993
357.887,3.985
358.387,3.977
358.887,3.968
359.387,3.959
359.887,3.950
360.387,3.940
360.887,3.930
361.387,3.920
361.887,3.909
362.387,3.899
362.887,3.888
363.387,3.877
363.887,3.865
364.387,3.854
364.887,3.842
365.387,3.830
365.887,3.818
366.387,3.806
366.524,3.797
367.024,3.787
367.524,3.776
368.024,3.764
368.524,3.753
369.024,3.742
369.524,3.730
370.024,3.719
370.524,3.707
371.024,3.696
371.524,3.684
372.024,3.673
372.524,3.661
373.024,3.650
373.524,3.639
374.024,3.628
374.524,3.617
375.024,3.606
375.524,3.595
376.024,3.584
376.524,3.574
377.024,3.564
377.524,3.553
378.024,3.543
378.524,3.534
379.024,3.524
379.524,3.514
380.024,3.505
380.524,3.496
381.024,3.487
381.524,3.478
382.024,3.469
382.524,3.460
383.024,3.452
383.524,3.444
384.024,3.436
384.524,3.428
385.024,3.420
385.524,3.412
386.024,3.404
386.524,3.397
387.024,3.390
387.524,3.383
388.024,3.376
388.524,3.369
389.024,3.362
389.524,3.355
390.024,3.348
390.524,3.342
391.024,3.335
391.524,3.329
392.024,3.322
392.524,3.316
393.024,3.310
393.524,3.304
394.024,3.298
394.524,3.291
395.024,3.285
395.524,3.279
396.024,3.273
396.524,3.267
397.024,3.261
397.524,3.255
398.024,3.250
398.524,3.244
399.024,3.238
399.524,3.232
400.024,3.226
400.524,3.220
401.024,3.214
401.524,3.208
402.024,3.202
402.524,3.196
403.024,3.190
403.524,3.184
404.024,3.178
404.524,3.172
405.024,3.166
405.524,3.159
406.024,3.153
406.524,3.147
407.024,3.141
407.524,3.135
408.024,3.128
408.524,3.122
409.024,3.116
409.524,3.109
410.024,3.103
410.524,3.097
411.024,3.090
411.524,3.084
412.024,3.077
412.524,3.071
413.024,3.065
413.524,3.058
414.024,3.052
414.524,3.045
415.024,3.039
415.524,3.032
416.024,3.026
416.524,3.019
417.024,3.013
417.524,3.007
418.024,3.000
418.524,2.994
419.024,2.988
419.524,2.982
420.024,2.975
420.524,2.969
421.024,2.963
421.524,2.957
422.024,2.951
422.524,2.945
423.024,2.939
423.524,2.933
424.024,2.928
424.524,2.922
425.024,2.917
425.524,2.911
426.024,2.906
426.524,2.900
427.024,2.895
427.524,2.890
428.024,2.885
428.524,2.880
429.024,2.875
429.524,2.871
430.024,2.866
430.524,2.862
431.024,2.857
431.524,2.853
432.024,2.849
432.524,2.845
433.024,2.841
433.524,2.837
434.024,2.834
434.524,2.830
435.024,2.827
435.524,2.823
436.024,2.820
436.524,2.817
437.024,2.814
437.524,2.811
438.024,2.809
438.524,2.806
439.024,2.804
439.524,2.801
440.024,2.799
440.524,2.797
441.024,2.795
441.524,2.793
442.024,2.791
442.524,2.789
443.024,2.787
443.524,2.785
444.024,2.784
444.524,2.782
445.024,2.781
445.524,2.779
446.024,2.778
446.524,2.776
447.024,2.775
447.524,2.774
448.024,2.772
448.524,2.771
449.024,2.770
449.524,2.769
450.024,2.767
450.524,2.766
451.024,2.765
451.524,2.764
452.024,2.762
452.524,2.761
453.024,2.760
453.524,2.758
454.024,2.757
454.524,2.755
455.024,2.754
455.524,2.752
456.024,2.751
456.524,2.749
457.024,2.747
457.524,2.745
458.024,2.744
458.524,2.742
459.024,2.740
459.524,2.738
460.024,2.736
460.524,2.734
461.024,2.732
461.524,2.730
462.024,2.728
462.524,2.726
463.024,2.724
463.524,2.722
464.024,2.720
464.524,2.718
465.024,2.716
465.524,2.715
466.024,2.713
466.524,2.712
467.024,2.711
467.524,2.710
468.024,2.709
##END=
