##TITLE=5-(bromophenyl)-2,3-furandione
##JCAMP-DX=4.24
##DATA TYPE=UV/VIS SPECTRUM
##ORIGIN=INSTITUTE OF ENERGY PROBLEMS OF CHEMICAL PHYSICS, RAS
##OWNER=INEP CP RAS, NIST OSRD
Collection (C) 2007 copyright by the U.S. Secretary of Commerce
on behalf of the United States of America. All rights reserved.
##CAS REGISTRY NO=55991-70-3
##MOLFORM=C10H5BrO3
##MP=136
##SOURCE REFERENCE=RAS UV No. 23512
##$NIST SQUIB=1975AND/1468
##$NIST SOURCE=TYUGLMTE
##SPECTROMETER/DATA SYSTEM=SF-4
##XUNITS=Wavelength (nm)
##YUNITS=Logarithm epsilon
##XFACTOR=1.0
##YFACTOR=1.0
##FIRSTX=203.621
##LASTX=421.984
##FIRSTY=4.042
##MAXX=421.984
##MINX=203.621
##MAXY=4.042
##MINY=1.875
##NPOINTS=438
##$REF AUTHOR=Andreichikov, Yu.S.; et al.
##$REF JOURNAL=Khim. Geterosikl. Soedin.
##$REF PAGE=1468
##$REF DATE=1975
##XYPOINTS=(XY..XY)
203.621,4.042
204.121,4.031
204.621,4.019
205.121,4.008
205.621,3.995
206.121,3.983
206.621,3.970
207.121,3.957
207.621,3.944
208.121,3.931
208.621,3.918
209.121,3.904
209.621,3.891
210.121,3.878
210.621,3.864
211.121,3.851
211.621,3.837
212.121,3.824
212.621,3.811
213.121,3.798
213.621,3.785
214.121,3.772
214.621,3.760
215.121,3.747
215.621,3.735
216.121,3.723
216.621,3.711
217.121,3.699
217.621,3.688
218.121,3.677
218.621,3.666
219.121,3.655
219.621,3.645
220.121,3.635
220.621,3.625
221.121,3.615
221.621,3.606
222.121,3.597
222.621,3.588
223.121,3.580
223.621,3.572
224.121,3.564
224.621,3.556
225.121,3.549
225.621,3.541
226.121,3.535
226.621,3.528
227.121,3.522
227.621,3.516
228.121,3.510
228.621,3.504
229.121,3.499
229.621,3.494
230.121,3.489
230.621,3.484
231.121,3.480
231.621,3.475
232.121,3.471
232.621,3.467
233.121,3.464
233.621,3.460
234.121,3.457
234.621,3.454
235.121,3.451
235.621,3.448
236.121,3.445
236.621,3.442
237.121,3.440
237.621,3.437
238.121,3.435
238.621,3.433
239.121,3.431
239.621,3.429
240.121,3.427
240.621,3.425
241.121,3.424
241.621,3.422
241.787,3.422
242.287,3.420
242.787,3.418
243.287,3.416
243.787,3.415
244.287,3.414
244.787,3.413
245.287,3.411
245.787,3.410
246.287,3.409
246.787,3.408
247.287,3.407
247.787,3.406
248.287,3.405
248.787,3.405
249.287,3.404
249.787,3.403
250.287,3.402
250.787,3.401
251.287,3.400
251.787,3.400
252.287,3.399
252.787,3.399
253.287,3.399
253.787,3.399
254.287,3.399
254.787,3.399
255.287,3.400
255.787,3.400
256.287,3.401
256.787,3.403
257.287,3.404
257.787,3.406
258.287,3.408
258.787,3.410
259.287,3.413
259.787,3.416
260.287,3.419
260.787,3.423
261.287,3.426
262.190,3.432
262.690,3.436
263.190,3.439
263.690,3.442
264.190,3.446
264.690,3.449
265.190,3.452
265.690,3.455
266.190,3.458
266.690,3.461
267.190,3.464
267.690,3.467
268.190,3.469
268.690,3.471
269.190,3.474
269.690,3.476
270.190,3.478
270.690,3.479
271.190,3.481
271.690,3.482
272.190,3.483
272.690,3.485
273.190,3.485
273.690,3.486
274.190,3.487
274.690,3.487
275.190,3.488
275.690,3.488
276.190,3.488
276.690,3.488
277.190,3.488
277.690,3.488
278.190,3.487
278.690,3.487
279.190,3.487
279.690,3.486
280.190,3.485
280.690,3.485
281.190,3.484
281.690,3.484
282.190,3.483
282.690,3.482
283.190,3.481
283.690,3.481
284.190,3.480
284.690,3.479
285.190,3.479
285.690,3.478
286.190,3.478
286.690,3.477
287.190,3.477
287.690,3.476
288.190,3.476
288.690,3.476
289.190,3.476
289.690,3.476
290.190,3.476
290.690,3.476
291.190,3.476
291.690,3.476
292.190,3.476
292.690,3.477
293.190,3.477
293.690,3.478
294.190,3.479
294.690,3.479
295.190,3.480
295.690,3.481
296.190,3.482
296.690,3.483
297.190,3.484
297.690,3.486
298.190,3.487
298.690,3.488
299.190,3.490
299.690,3.491
300.190,3.492
300.690,3.494
301.190,3.495
301.690,3.497
302.190,3.498
302.690,3.500
303.190,3.502
303.690,3.503
304.190,3.505
304.690,3.506
305.190,3.508
305.690,3.509
306.190,3.511
306.690,3.512
307.190,3.513
307.690,3.515
308.190,3.516
308.690,3.517
309.190,3.519
309.690,3.520
310.190,3.521
310.690,3.522
311.190,3.523
311.690,3.524
312.190,3.525
312.690,3.526
313.190,3.527
313.690,3.528
314.190,3.529
314.690,3.529
315.190,3.530
315.690,3.531
316.190,3.531
316.690,3.532
317.190,3.533
317.690,3.533
318.190,3.534
318.690,3.535
319.190,3.535
319.690,3.536
320.190,3.536
320.690,3.537
321.190,3.538
321.690,3.539
322.190,3.540
322.690,3.540
323.190,3.541
323.690,3.542
324.190,3.544
324.690,3.545
325.190,3.546
325.690,3.547
326.190,3.549
326.690,3.550
327.190,3.552
327.690,3.554
328.190,3.556
328.690,3.558
329.190,3.560
329.690,3.562
330.190,3.564
330.690,3.567
331.190,3.569
331.690,3.572
332.190,3.575
332.690,3.578
333.190,3.581
333.690,3.584
334.190,3.587
334.690,3.590
335.190,3.594
335.690,3.597
336.190,3.601
336.690,3.604
337.190,3.608
337.690,3.611
338.190,3.615
338.690,3.619
339.190,3.622
339.690,3.626
340.190,3.629
340.690,3.633
341.190,3.637
341.690,3.640
342.190,3.643
342.690,3.647
343.190,3.650
343.690,3.653
344.190,3.656
344.690,3.659
345.190,3.661
345.690,3.664
346.190,3.666
346.690,3.668
347.190,3.670
347.690,3.672
348.190,3.674
348.375,3.675
348.875,3.677
349.375,3.678
349.875,3.678
350.375,3.679
350.875,3.679
351.375,3.680
351.875,3.680
352.375,3.680
352.875,3.680
353.375,3.680
353.875,3.679
354.375,3.679
354.875,3.678
355.375,3.678
355.875,3.677
356.375,3.676
356.875,3.675
357.375,3.673
357.875,3.672
358.375,3.670
358.875,3.668
359.375,3.665
359.875,3.663
360.375,3.660
360.875,3.657
361.375,3.653
361.875,3.649
362.375,3.645
362.875,3.640
363.375,3.635
363.875,3.630
364.375,3.624
364.875,3.617
365.375,3.611
365.875,3.604
366.375,3.596
366.875,3.588
367.375,3.580
367.875,3.571
368.375,3.562
368.875,3.552
369.375,3.543
369.875,3.532
370.375,3.522
370.875,3.511
371.375,3.500
371.875,3.488
372.375,3.477
372.875,3.465
373.375,3.453
373.875,3.441
374.375,3.429
374.875,3.416
375.375,3.404
375.875,3.391
376.375,3.379
376.875,3.366
377.375,3.354
377.875,3.342
378.375,3.329
378.875,3.317
379.375,3.305
379.875,3.293
380.375,3.281
380.875,3.270
381.375,3.258
381.875,3.247
382.375,3.236
382.875,3.225
383.375,3.213
383.875,3.202
384.375,3.191
384.875,3.180
385.375,3.168
385.875,3.156
386.375,3.144
386.875,3.131
387.375,3.118
387.875,3.104
388.375,3.089
388.875,3.072
389.375,3.055
389.875,3.035
390.375,3.014
390.875,2.991
391.375,2.965
391.875,2.937
392.375,2.905
392.984,2.878
393.484,2.850
393.984,2.821
394.484,2.792
394.984,2.762
395.484,2.731
395.984,2.700
396.484,2.669
396.984,2.638
397.484,2.606
397.984,2.575
398.484,2.544
398.984,2.513
399.484,2.482
399.984,2.452
400.484,2.422
400.984,2.393
401.484,2.364
401.984,2.337
402.484,2.310
402.984,2.284
403.484,2.258
403.984,2.234
404.484,2.211
404.984,2.189
405.484,2.167
405.984,2.147
406.484,2.128
406.984,2.110
407.484,2.093
407.984,2.078
408.484,2.063
408.984,2.049
409.484,2.036
409.984,2.024
410.484,2.014
410.984,2.003
411.484,1.994
411.984,1.986
412.484,1.978
412.984,1.970
413.484,1.964
413.984,1.957
414.484,1.952
414.984,1.946
415.484,1.941
415.984,1.936
416.484,1.931
416.984,1.926
417.484,1.921
417.984,1.916
418.484,1.911
418.984,1.906
419.484,1.901
419.984,1.896
420.484,1.891
420.984,1.886
421.484,1.880
421.984,1.875
##END=
