##TITLE=(methylsulfonyl)(4-nitrophenyl)diazene
##JCAMP-DX=4.24
##DATA TYPE=UV/VIS SPECTRUM
##ORIGIN=INSTITUTE OF ENERGY PROBLEMS OF CHEMICAL PHYSICS, RAS
##OWNER=INEP CP RAS, NIST OSRD
Collection (C) 2007 copyright by the U.S. Secretary of Commerce
on behalf of the United States of America. All rights reserved.
##CAS REGISTRY NO=56075-39-9
##MOLFORM=C7H7N3O4S
##MP=138-139
##SOURCE REFERENCE=RAS UV No. 23509
##$NIST SQUIB=1975NEP/854
##$NIST SOURCE=TYUGLMTE
##SPECTROMETER/DATA SYSTEM=SF-10
##XUNITS=Wavelength (nm)
##YUNITS=Logarithm epsilon
##XFACTOR=1.0
##YFACTOR=1.0
##FIRSTX=212.821
##LASTX=342.389
##FIRSTY=3.662
##MAXX=342.389
##MINX=212.821
##MAXY=4.246
##MINY=3.047
##NPOINTS=132
##$REF AUTHOR=Neplyuev, V.M.; et al.
##$REF JOURNAL=Zhur. Organ. Khim.
##$REF VOLUME=11
##$REF PAGE=854
##$REF DATE=1975
##XYPOINTS=(XY..XY)
212.821,3.662
213.821,3.657
214.821,3.651
215.821,3.645
216.821,3.640
217.821,3.634
218.821,3.629
219.821,3.624
220.821,3.619
221.821,3.615
222.821,3.611
223.821,3.608
224.821,3.605
225.821,3.603
226.821,3.601
227.821,3.600
228.821,3.598
229.821,3.598
230.821,3.597
231.821,3.597
232.821,3.598
233.821,3.599
234.821,3.601
235.821,3.603
236.821,3.605
237.821,3.609
238.821,3.613
239.821,3.618
240.821,3.624
241.821,3.631
242.821,3.639
243.821,3.648
244.821,3.658
245.821,3.669
246.821,3.681
247.821,3.694
248.821,3.707
249.821,3.720
250.631,3.727
251.631,3.747
252.631,3.766
253.631,3.786
254.631,3.805
255.631,3.824
256.631,3.843
257.631,3.863
258.631,3.882
259.631,3.902
260.631,3.922
261.631,3.942
262.631,3.962
263.631,3.982
264.631,4.003
265.631,4.024
266.631,4.044
267.631,4.065
268.631,4.085
269.631,4.105
270.631,4.124
271.631,4.142
272.631,4.160
273.631,4.176
274.631,4.190
275.631,4.203
275.635,4.204
276.635,4.213
277.635,4.220
278.635,4.227
279.635,4.232
280.635,4.237
281.635,4.241
282.635,4.244
283.635,4.246
284.635,4.246
285.635,4.246
286.635,4.245
287.635,4.242
288.635,4.238
289.635,4.232
290.635,4.225
291.635,4.217
292.635,4.208
293.635,4.197
294.635,4.185
295.635,4.172
296.635,4.158
297.635,4.142
298.635,4.125
299.635,4.107
300.635,4.087
301.451,4.070
302.451,4.047
303.451,4.025
304.451,4.004
305.451,3.981
306.451,3.958
307.451,3.933
308.451,3.906
309.451,3.879
310.451,3.850
311.451,3.820
312.451,3.789
313.451,3.758
314.451,3.727
315.451,3.696
316.451,3.666
317.451,3.637
318.451,3.608
319.451,3.580
320.451,3.552
321.451,3.523
322.389,3.494
323.389,3.465
324.389,3.433
325.389,3.400
326.389,3.367
327.389,3.334
328.389,3.302
329.389,3.271
330.389,3.242
331.389,3.216
332.389,3.191
333.389,3.169
334.389,3.150
335.389,3.132
336.389,3.117
337.389,3.104
338.389,3.092
339.389,3.081
340.389,3.071
341.389,3.060
342.389,3.047
##END=
