##TITLE=(methylsulfonyl)[(4-nitrophenyl)azo](phenylsulfonyl)acetonitrile
##JCAMP-DX=4.24
##DATA TYPE=UV/VIS SPECTRUM
##ORIGIN=INSTITUTE OF ENERGY PROBLEMS OF CHEMICAL PHYSICS, RAS
##OWNER=INEP CP RAS, NIST OSRD
Collection (C) 2007 copyright by the U.S. Secretary of Commerce
on behalf of the United States of America. All rights reserved.
##CAS REGISTRY NO=56075-45-7
##MOLFORM=C15H12N4O6S2
##MP=136-137
##SOURCE REFERENCE=RAS UV No. 23508
##$NIST SQUIB=1975NEP/854
##$NIST SOURCE=TYUGLMTE
##SPECTROMETER/DATA SYSTEM=SF-10
##XUNITS=Wavelength (nm)
##YUNITS=Logarithm epsilon
##XFACTOR=1.0
##YFACTOR=1.0
##FIRSTX=208.681
##LASTX=347.156
##FIRSTY=4.067
##MAXX=347.156
##MINX=208.681
##MAXY=4.067
##MINY=3.126
##NPOINTS=143
##$REF AUTHOR=Neplyuev, V.M.; et al.
##$REF JOURNAL=Zhur. Organ. Khim.
##$REF VOLUME=11
##$REF PAGE=854
##$REF DATE=1975
##XYPOINTS=(XY..XY)
208.681,4.067
209.681,4.066
210.681,4.063
211.681,4.057
212.681,4.051
213.681,4.044
214.681,4.036
215.681,4.027
216.681,4.019
217.681,4.010
218.681,4.002
219.681,3.994
220.681,3.986
221.681,3.979
222.681,3.972
223.681,3.965
224.681,3.958
225.681,3.952
226.681,3.946
227.681,3.941
228.681,3.936
229.681,3.931
230.681,3.927
231.681,3.923
232.681,3.919
233.681,3.916
234.681,3.914
235.681,3.912
236.681,3.910
237.681,3.909
238.681,3.909
239.681,3.910
240.681,3.911
241.681,3.913
242.681,3.916
243.681,3.920
244.344,3.923
245.344,3.928
246.344,3.933
247.344,3.938
248.344,3.944
249.344,3.949
250.344,3.955
251.344,3.962
252.344,3.969
253.344,3.976
254.344,3.983
255.344,3.991
256.344,3.998
257.344,4.004
258.344,4.010
259.344,4.015
260.344,4.019
261.344,4.021
262.344,4.022
263.344,4.021
264.344,4.018
265.344,4.014
266.344,4.007
266.411,4.008
267.411,3.997
268.411,3.989
269.411,3.982
270.411,3.974
271.411,3.967
272.411,3.958
273.411,3.949
274.411,3.938
275.411,3.927
276.411,3.915
277.411,3.903
278.411,3.892
279.116,3.888
280.116,3.878
281.116,3.868
282.116,3.858
283.116,3.848
284.116,3.838
285.116,3.828
286.116,3.818
287.116,3.808
288.116,3.798
289.116,3.788
289.369,3.787
290.369,3.777
291.369,3.765
292.369,3.753
293.369,3.740
294.369,3.726
295.369,3.711
296.369,3.695
297.369,3.678
298.369,3.661
299.682,3.641
300.682,3.626
301.682,3.610
302.682,3.594
303.682,3.579
304.682,3.564
305.682,3.548
306.682,3.533
307.682,3.518
308.682,3.502
309.682,3.486
310.682,3.469
310.875,3.467
311.875,3.454
312.875,3.441
313.875,3.428
314.875,3.416
315.875,3.403
316.875,3.391
317.875,3.379
318.875,3.368
319.875,3.356
320.875,3.345
321.875,3.334
322.875,3.323
323.875,3.312
324.875,3.301
325.875,3.291
326.875,3.281
327.875,3.271
327.930,3.272
328.930,3.260
329.930,3.250
330.930,3.240
331.930,3.230
332.930,3.221
333.930,3.213
334.930,3.205
335.930,3.197
336.930,3.190
337.930,3.183
338.930,3.177
339.930,3.170
340.930,3.164
341.930,3.158
342.930,3.152
343.930,3.146
344.930,3.140
345.930,3.134
347.156,3.126
##END=
