##TITLE=2-amino-1,9-dihydro-9-[3-(1H-indol-1-yl)propyl]-6H-purin-6-one
##JCAMP-DX=4.24
##DATA TYPE=UV/VIS SPECTRUM
##ORIGIN=INSTITUTE OF ENERGY PROBLEMS OF CHEMICAL PHYSICS, RAS
##OWNER=INEP CP RAS, NIST OSRD
Collection (C) 2007 copyright by the U.S. Secretary of Commerce
on behalf of the United States of America. All rights reserved.
##CAS REGISTRY NO=56276-14-3
##MOLFORM=C16H16N6O
##MP=265-267
##SOURCE REFERENCE=RAS UV No. 23281
##$NIST SQUIB=1975MIT/4095
##$NIST SOURCE=TYUGLMTE
##SPECTROMETER/DATA SYSTEM=CAry 15
##XUNITS=Wavelength (nm)
##YUNITS=Logarithm epsilon
##XFACTOR=1.0
##YFACTOR=1.0
##FIRSTX=189.825
##LASTX=301.222
##FIRSTY=4.611
##MAXX=301.222
##MINX=189.825
##MAXY=4.611
##MINY=3.147
##NPOINTS=115
##$REF AUTHOR=Mitai, K.; et al.
##$REF JOURNAL=J. Am. Chem. Soc.
##$REF VOLUME=97
##$REF PAGE=4095
##$REF DATE=1975
##XYPOINTS=(XY..XY)
189.825,4.611
190.825,4.610
191.825,4.607
192.825,4.604
193.825,4.600
194.825,4.595
195.825,4.590
196.825,4.585
197.825,4.580
198.825,4.574
199.825,4.569
200.825,4.563
201.825,4.558
202.825,4.552
203.825,4.547
204.825,4.541
205.825,4.536
206.825,4.531
207.825,4.526
208.825,4.521
209.825,4.516
210.825,4.511
211.825,4.506
212.825,4.502
213.825,4.498
214.825,4.493
215.825,4.489
216.825,4.485
217.456,4.488
218.456,4.482
219.456,4.469
220.456,4.458
221.456,4.450
222.456,4.445
223.456,4.439
224.456,4.426
225.456,4.402
226.456,4.364
227.456,4.310
228.456,4.243
229.456,4.166
230.456,4.088
230.877,4.061
231.877,4.020
232.877,4.003
233.801,3.991
234.801,3.976
235.801,3.963
236.801,3.953
237.801,3.945
238.801,3.939
239.801,3.936
240.801,3.935
241.801,3.937
242.801,3.941
243.801,3.948
244.801,3.957
245.801,3.968
246.801,3.982
246.835,3.980
247.835,4.002
248.835,4.022
249.835,4.040
250.835,4.055
251.835,4.068
252.835,4.079
253.835,4.087
254.835,4.092
255.835,4.096
256.835,4.098
256.978,4.100
257.978,4.098
258.978,4.094
259.978,4.091
260.978,4.088
261.978,4.085
262.978,4.082
263.978,4.080
264.978,4.078
265.978,4.077
266.978,4.075
267.978,4.074
268.978,4.073
269.978,4.072
270.978,4.070
271.978,4.069
272.978,4.067
273.978,4.064
274.978,4.061
275.978,4.058
276.978,4.054
277.978,4.049
278.978,4.043
279.978,4.036
280.978,4.029
281.978,4.020
282.978,4.011
283.978,4.000
284.978,3.987
285.978,3.973
286.978,3.957
287.978,3.939
288.978,3.918
289.978,3.894
291.368,3.847
292.368,3.807
293.368,3.762
294.368,3.711
295.368,3.653
296.368,3.588
297.368,3.515
298.368,3.434
299.368,3.343
300.368,3.243
301.222,3.147
##END=
