##TITLE=Hexobarbital
##JCAMP-DX=4.24
##DATA TYPE=UV/VIS SPECTRUM
##ORIGIN=INSTITUTE OF ENERGY PROBLEMS OF CHEMICAL PHYSICS, RAS
##OWNER=INEP CP RAS, NIST OSRD
Collection (C) 2007 copyright by the U.S. Secretary of Commerce
on behalf of the United States of America. All rights reserved.
##CAS REGISTRY NO=56-29-1
##MOLFORM=C12H16N2O3
##MP=146-147
##SOURCE REFERENCE=RAS UV No. 19138
##$NIST SQUIB=1967LAN281
##$NIST SOURCE=TYUGLMTE
##SPECTROMETER/DATA SYSTEM=Zeiss VSU -1
##XUNITS=Wavelength (nm)
##YUNITS=Logarithm epsilon
##XFACTOR=1.0
##YFACTOR=1.0
##FIRSTX=205.72
##LASTX=288.38
##FIRSTY=3.556
##MAXX=288.38
##MINX=205.72
##MAXY=3.778
##MINY=1.089
##NPOINTS=115
##$REF AUTHOR=Lang (editor), L.
##$REF JOURNAL=Absorption Spectra in the Ultraviolet and Visible Region
##$REF VOLUME=8
##$REF PAGE=281
##$REF DATE=1967
##XYPOINTS=(XY..XY)
205.72,3.556
206.06,3.587
206.57,3.618
207.24,3.645
207.91,3.672
208.59,3.700
209.60,3.720
210.77,3.741
212.12,3.758
213.47,3.768
214.81,3.778
216.33,3.778
217.85,3.778
219.36,3.768
220.71,3.754
222.05,3.737
223.23,3.717
224.41,3.700
225.42,3.679
226.26,3.655
227.27,3.631
228.11,3.607
228.96,3.584
229.80,3.560
230.64,3.532
231.14,3.505
231.99,3.478
232.66,3.450
233.33,3.423
234.01,3.396
234.51,3.369
235.19,3.341
235.69,3.314
236.36,3.287
237.04,3.259
237.71,3.232
238.38,3.205
239.23,3.177
239.90,3.150
240.74,3.126
241.58,3.099
242.42,3.075
243.10,3.048
244.11,3.027
245.12,3.007
245.96,2.983
246.97,2.959
247.98,2.935
248.82,2.911
249.83,2.887
250.67,2.863
251.52,2.836
252.19,2.809
253.03,2.785
253.87,2.758
254.71,2.730
255.39,2.703
256.40,2.679
257.24,2.655
258.08,2.628
259.09,2.607
259.93,2.584
260.94,2.560
261.95,2.536
262.96,2.512
263.97,2.491
264.98,2.471
265.99,2.447
266.84,2.423
267.85,2.399
268.69,2.375
269.53,2.348
270.37,2.324
271.04,2.297
271.89,2.273
272.56,2.246
273.23,2.218
273.74,2.191
274.58,2.164
275.25,2.136
275.93,2.109
276.43,2.082
276.94,2.054
277.44,2.027
277.95,2.000
278.45,1.973
278.96,1.945
279.46,1.915
279.97,1.884
280.47,1.857
280.98,1.826
281.31,1.795
281.48,1.764
281.82,1.734
282.32,1.703
282.66,1.672
283.00,1.641
283.33,1.611
283.84,1.580
284.18,1.549
284.51,1.519
284.85,1.488
285.19,1.457
285.52,1.426
285.69,1.396
285.86,1.365
286.20,1.334
286.53,1.304
286.70,1.273
287.04,1.242
287.21,1.211
287.54,1.181
287.71,1.150
288.05,1.119
288.38,1.089
##END=
