##TITLE=1-methyl-1H-indole-2-carboxamide
##JCAMP-DX=4.24
##DATA TYPE=UV/VIS SPECTRUM
##ORIGIN=INSTITUTE OF ENERGY PROBLEMS OF CHEMICAL PHYSICS, RAS
##OWNER=INEP CP RAS, NIST OSRD
Collection (C) 2007 copyright by the U.S. Secretary of Commerce
on behalf of the United States of America. All rights reserved.
##CAS REGISTRY NO=56297-43-9
##MOLFORM=C10H10N2O
##MP=166
##SOURCE REFERENCE=RAS UV No. 23123
##$NIST SQUIB=1976KOG/VLA1516
##$NIST SOURCE=TYUGLMTE
##SPECTROMETER/DATA SYSTEM=SF-16
##XUNITS=Wavelength (nm)
##YUNITS=Logarithm epsilon
##XFACTOR=1.0
##YFACTOR=1.0
##FIRSTX=221.913
##LASTX=319.02
##FIRSTY=4.418
##MAXX=319.02
##MINX=221.913
##MAXY=4.418
##MINY=3.548
##NPOINTS=99
##$REF AUTHOR=Kogan, N.A.; Vlasova, M.I.
##$REF JOURNAL=Khim. Geterosikl. Soedin.
##$REF PAGE=1516
##$REF DATE=1976
##XYPOINTS=(XY..XY)
221.913,4.418
222.913,4.411
223.913,4.405
224.913,4.397
225.913,4.389
226.913,4.380
227.913,4.370
228.913,4.359
229.913,4.347
230.913,4.333
231.913,4.318
232.913,4.302
233.913,4.283
234.913,4.263
235.913,4.241
236.913,4.216
237.913,4.189
238.913,4.159
239.913,4.127
240.913,4.091
241.913,4.052
242.913,4.010
243.913,3.964
244.904,3.917
245.904,3.853
246.904,3.793
247.904,3.738
248.904,3.689
249.904,3.647
250.904,3.613
251.904,3.586
252.904,3.566
253.904,3.554
254.904,3.548
255.904,3.548
256.904,3.553
257.904,3.562
258.904,3.574
259.904,3.588
260.904,3.604
261.904,3.621
262.904,3.637
263.904,3.654
264.904,3.669
265.062,3.672
266.062,3.685
267.062,3.701
268.062,3.719
269.062,3.739
270.062,3.762
271.062,3.787
272.062,3.814
273.062,3.842
274.062,3.871
274.840,3.894
275.840,3.927
276.840,3.958
277.840,3.989
278.840,4.020
279.840,4.050
280.840,4.078
281.840,4.099
283.117,4.122
284.117,4.138
285.117,4.152
286.117,4.165
287.117,4.176
288.117,4.185
289.117,4.193
290.117,4.200
291.117,4.205
292.117,4.208
293.117,4.209
294.117,4.208
295.117,4.206
296.117,4.201
297.117,4.193
298.117,4.184
299.117,4.173
300.117,4.160
301.117,4.145
302.117,4.129
303.117,4.112
304.020,4.095
305.020,4.083
306.020,4.067
307.020,4.048
308.020,4.026
309.020,4.002
310.020,3.977
311.020,3.950
312.020,3.922
313.020,3.894
314.020,3.866
315.020,3.838
316.020,3.811
317.020,3.785
318.020,3.761
319.020,3.740
##END=
