##TITLE=1-Butene, 2-methyl-
##JCAMP-DX=4.24
##DATA TYPE=UV/VIS SPECTRUM
##ORIGIN=INSTITUTE OF ENERGY PROBLEMS OF CHEMICAL PHYSICS, RAS
##OWNER=INEP CP RAS, NIST OSRD
Collection (C) 2007 copyright by the U.S. Secretary of Commerce
on behalf of the United States of America. All rights reserved.
##CAS REGISTRY NO=563-46-2
##MOLFORM=C5H10
##MP=-137.5
##BP=31.2
##SOURCE REFERENCE=RAS UV No. 1285
##$NIST SQUIB=1958LOE/EBE345-347
##$NIST SOURCE=TSGMTE
##SPECTROMETER/DATA SYSTEM=Fluorite prism vacuum spectrograph
##XUNITS=Wavelength (nm)
##YUNITS=Logarithm epsilon
##XFACTOR=1.000000
##YFACTOR=1.000000
##FIRSTX=208.8863
##LASTX=157.5415
##FIRSTY=2.14631
##MAXX=208.886
##MINX=157.542
##MAXY=4.04513
##MINY=2.14631
##NPOINTS=169
##$REF AUTHOR=Loeffler, B.B.; Eberlin, E.; Pickett, L.W.
##$REF TITLE=Far ultraviolet absorption spectra of small ring hydrocarbons
##$REF JOURNAL=J. Chem. Phys.
##$REF VOLUME=28
##$REF NUMBER=2
##$REF PAGE=345-347
##$REF DATE=1958
##XYPOINTS=(XY..XY)
208.8863,2.146314
208.7258,2.173801
208.5647,2.201254
208.4033,2.228672
208.2416,2.256060
208.0796,2.283419
207.9174,2.310749
207.7552,2.338054
207.5929,2.365335
207.4306,2.392593
207.2685,2.419832
207.1065,2.447052
206.9448,2.474255
206.7834,2.501443
206.6224,2.528618
206.4618,2.555783
206.3018,2.582937
206.1424,2.610084
205.9836,2.637226
205.8256,2.664363
205.6684,2.691498
205.5120,2.718634
205.3565,2.745770
205.2021,2.772910
205.0487,2.800056
204.8964,2.827208
204.7453,2.854370
204.5955,2.881541
204.4470,2.908726
204.2998,2.935924
204.1541,2.963140
204.0099,2.990373
203.8673,3.017626
203.7263,3.044900
203.5870,3.072198
203.4494,3.099521
203.3136,3.126872
203.1798,3.154251
203.0478,3.181661
202.9179,3.209104
202.7900,3.236581
202.6642,3.264094
202.5406,3.291646
202.4192,3.319237
202.4192,3.319237
202.0896,3.359991
201.7416,3.393697
201.2103,3.425552
201.2103,3.425552
200.5899,3.420675
199.9264,3.414749
199.2864,3.416017
199.2864,3.416017
198.9092,3.438946
198.5523,3.462326
198.2132,3.486100
197.8896,3.510206
197.5789,3.534586
197.2788,3.559179
196.9869,3.583928
196.7010,3.608771
196.4188,3.633650
196.1380,3.658504
195.8563,3.683275
195.5716,3.707903
195.2817,3.732328
194.9844,3.756491
194.6776,3.780332
194.3593,3.803791
194.0272,3.826810
193.6795,3.849328
193.6795,3.849328
193.1907,3.868239
192.7023,3.886483
192.2168,3.904202
191.7365,3.921536
191.2637,3.938625
190.8008,3.955610
190.3499,3.972631
189.9133,3.989829
189.9133,3.989829
189.5038,4.013601
189.0506,4.030657
188.5549,4.041125
188.0181,4.045133
187.4414,4.042812
186.8264,4.034290
186.8264,4.034290
186.6242,4.028047
186.1935,4.024379
185.6067,4.022755
184.9358,4.022641
184.2511,4.023507
183.6210,4.024819
183.1120,4.026046
182.7895,4.026656
182.7895,4.026656
182.2023,4.015871
181.6882,4.002800
181.2148,3.987516
180.7505,3.970091
180.2644,3.950598
179.7262,3.929110
179.7262,3.929110
179.2412,3.925828
178.7756,3.917269
178.3279,3.904449
177.8970,3.888383
177.4815,3.870085
177.0801,3.850572
176.6915,3.830858
176.6915,3.830858
175.9164,3.806066
175.4787,3.793221
175.2527,3.783738
175.2527,3.783738
174.5076,3.785090
173.9702,3.786828
173.5165,3.788492
173.0257,3.789624
172.3799,3.789763
172.3799,3.789763
171.9520,3.776888
171.6428,3.767318
171.3276,3.761996
171.3276,3.761996
171.3182,3.757370
171.3066,3.752743
171.2907,3.748113
171.2907,3.748113
170.6820,3.754266
170.1621,3.766726
169.6575,3.781051
169.0969,3.792798
169.0969,3.792798
168.2772,3.788347
167.7358,3.784583
167.3297,3.781902
166.9202,3.780703
166.9202,3.780703
166.4266,3.792539
166.0336,3.803224
165.7075,3.811451
165.4155,3.815912
165.1252,3.815301
164.8048,3.808310
164.4228,3.793632
163.9486,3.769960
163.9486,3.769960
163.6286,3.771018
163.3098,3.771929
162.9923,3.772547
162.9923,3.772547
162.5824,3.791423
162.2228,3.807510
161.9011,3.820558
161.6048,3.830316
161.3217,3.836534
161.0398,3.838962
160.7474,3.837351
160.4328,3.831449
160.0845,3.821009
159.6913,3.805778
159.2423,3.785506
159.2423,3.785506
158.8289,3.787861
158.3451,3.797336
157.8852,3.812271
157.5415,3.831009
##END=
