##TITLE=4,5,6,7-tetrahydro-1,2,3-benzothiadiazole-2-oxide
##JCAMP-DX=4.24
##DATA TYPE=UV/VIS SPECTRUM
##ORIGIN=INSTITUTE OF ENERGY PROBLEMS OF CHEMICAL PHYSICS, RAS
##OWNER=INEP CP RAS, NIST OSRD
Collection (C) 2007 copyright by the U.S. Secretary of Commerce
on behalf of the United States of America. All rights reserved.
##CAS REGISTRY NO=56382-76-4
##MOLFORM=C6H8N2OS
##MP=85
##SOURCE REFERENCE=RAS UV No. 23376
##$NIST SQUIB=1975BRA/MEI637
##$NIST SOURCE=TYUGLMTE
##SPECTROMETER/DATA SYSTEM=Cary 15
##XUNITS=Wavelength (nm)
##YUNITS=Logarithm epsilon
##XFACTOR=1.0
##YFACTOR=1.0
##FIRSTX=203
##LASTX=321.788
##FIRSTY=3.77
##MAXX=321.788
##MINX=203
##MAXY=3.928
##MINY=2.397
##NPOINTS=120
##$REF AUTHOR=Braun, H.P.; Meier, H.
##$REF JOURNAL=Tetrahedron
##$REF VOLUME=31
##$REF PAGE=637
##$REF DATE=1975
##XYPOINTS=(XY..XY)
203.000,3.770
204.000,3.780
205.000,3.789
206.000,3.794
207.000,3.792
208.000,3.783
209.000,3.768
210.000,3.746
211.000,3.721
212.000,3.694
213.000,3.666
214.000,3.638
215.000,3.610
215.889,3.577
216.889,3.548
217.889,3.509
218.889,3.466
219.889,3.420
220.889,3.376
221.889,3.336
222.889,3.301
223.889,3.272
224.889,3.251
225.889,3.239
226.889,3.233
227.889,3.236
228.889,3.245
229.889,3.260
230.889,3.281
231.889,3.305
232.889,3.331
233.889,3.358
234.889,3.385
235.889,3.410
236.889,3.432
237.784,3.448
238.784,3.465
239.784,3.472
240.784,3.474
241.784,3.472
242.784,3.468
243.784,3.463
244.784,3.457
245.784,3.449
246.784,3.439
247.784,3.426
248.784,3.410
249.784,3.391
250.784,3.370
251.822,3.347
252.822,3.323
253.822,3.299
254.822,3.274
255.822,3.250
256.822,3.226
257.822,3.205
258.822,3.185
259.822,3.170
260.822,3.158
261.822,3.152
262.822,3.152
263.822,3.157
264.822,3.170
265.822,3.188
266.822,3.212
267.822,3.241
268.822,3.273
269.980,3.312
270.980,3.355
271.980,3.398
272.980,3.442
273.980,3.485
274.980,3.529
275.980,3.572
276.980,3.613
277.980,3.654
278.980,3.692
279.980,3.728
280.980,3.762
281.980,3.793
282.980,3.821
283.980,3.846
284.980,3.867
285.980,3.885
286.980,3.900
287.980,3.911
288.980,3.919
289.980,3.925
290.832,3.922
291.832,3.928
292.832,3.928
293.832,3.924
294.832,3.917
295.832,3.906
296.832,3.893
297.832,3.878
298.832,3.861
299.832,3.844
300.832,3.827
301.832,3.808
302.832,3.790
303.832,3.770
304.832,3.748
305.832,3.724
306.832,3.695
307.832,3.661
308.832,3.619
309.832,3.567
310.832,3.504
311.832,3.427
312.832,3.333
313.788,3.253
314.788,3.156
315.788,3.055
316.788,2.950
317.788,2.843
318.788,2.734
319.788,2.623
320.788,2.511
321.788,2.397
##END=
