##TITLE=2-Butanone, 3-methyl-
##JCAMP-DX=4.24
##DATA TYPE=UV/VIS SPECTRUM
##ORIGIN=INSTITUTE OF ENERGY PROBLEMS OF CHEMICAL PHYSICS, RAS
##OWNER=INEP CP RAS, NIST OSRD
Collection (C) 2007 copyright by the U.S. Secretary of Commerce
on behalf of the United States of America. All rights reserved.
##CAS REGISTRY NO=563-80-4
##MOLFORM=C5H10O
##MP=-92
##BP=94.3
##SOURCE REFERENCE=RAS UV No. 57
##$NIST SQUIB=1947ROG2544-2548
##$NIST SOURCE=TSGMTE
##SPECTROMETER/DATA SYSTEM=Beckman spectrophotometer
##XUNITS=Wavelength (nm)
##YUNITS=Logarithm epsilon
##XFACTOR=1.000000
##YFACTOR=1.000000
##FIRSTX=240.0000
##LASTX=299.0000
##FIRSTY=0.469999
##MAXX=299
##MINX=240
##MAXY=1.34001
##MINY=0.469999
##NPOINTS=60
##$REF AUTHOR=Rogers, M.T.
##$REF TITLE=The electric moments and ultraviolet absorption spectras of some derivatives of cyclopropane and of ethylene oxide
##$REF JOURNAL=J. Am. Chem. Soc.
##$REF VOLUME=69
##$REF PAGE=2544-2548
##$REF DATE=1947
##XYPOINTS=(XY..XY)
240.0000,0.469999
241.0000,0.469999
242.0000,0.469999
243.0000,0.469999
244.0000,0.600003
245.0000,0.600003
246.0000,0.600003
247.0000,0.690001
248.0000,0.690001
249.0000,0.769997
250.0000,0.799341
251.0000,0.839999
252.0000,0.900001
253.0000,0.900001
254.0000,0.950000
255.0000,1.000000
256.0000,1.000000
257.0000,1.040001
258.0000,1.070001
259.0000,1.070001
260.0000,1.109983
261.0000,1.139999
262.0000,1.139999
263.0000,1.170000
264.0000,1.170000
265.0000,1.199999
266.0000,1.229999
267.0000,1.229999
268.0000,1.250000
269.0000,1.270001
270.0000,1.270003
271.0000,1.299999
272.0000,1.299999
273.0000,1.320001
274.0000,1.320001
275.0000,1.340000
276.0000,1.340000
277.0000,1.340000
278.0000,1.340000
279.0000,1.340000
280.0000,1.340008
281.0000,1.340000
282.0000,1.340000
283.0000,1.320001
284.0000,1.320001
285.0000,1.320001
286.0000,1.299999
287.0000,1.270001
288.0000,1.270001
289.0000,1.250000
290.0000,1.229989
291.0000,1.199999
292.0000,1.170000
293.0000,1.139999
294.0000,1.110000
295.0000,1.070001
296.0000,1.070001
297.0000,1.040001
298.0000,1.000000
299.0000,0.950000
##END=
