##TITLE=4,5,6,7-tetrahydro-1,2,3-benmzothiadiazole
##JCAMP-DX=4.24
##DATA TYPE=UV/VIS SPECTRUM
##ORIGIN=INSTITUTE OF ENERGY PROBLEMS OF CHEMICAL PHYSICS, RAS
##OWNER=INEP CP RAS, NIST OSRD
Collection (C) 2007 copyright by the U.S. Secretary of Commerce
on behalf of the United States of America. All rights reserved.
##CAS REGISTRY NO=56382-72-0
##MOLFORM=C6H8N2S
##BP=51-55/0.01 mm
##SOURCE REFERENCE=RAS UV No. 23373
##$NIST SQUIB=1975HPB/MEI637
##$NIST SOURCE=TYUGLMTE
##SPECTROMETER/DATA SYSTEM=Cary 15
##XUNITS=Wavelength (nm)
##YUNITS=Logarithm epsilon
##XFACTOR=1.0
##YFACTOR=1.0
##FIRSTX=201.29
##LASTX=333.261
##FIRSTY=3.513
##MAXX=333.261
##MINX=201.29
##MAXY=3.62
##MINY=1.577
##NPOINTS=134
##$REF AUTHOR=H.P.Braun.; Meier, H.
##$REF JOURNAL=Tetrahedron
##$REF VOLUME=31
##$REF PAGE=637
##$REF DATE=1975
##XYPOINTS=(XY..XY)
201.290,3.513
202.290,3.540
203.290,3.535
204.290,3.515
205.290,3.492
206.290,3.473
207.290,3.462
208.290,3.462
209.290,3.472
210.290,3.489
211.290,3.512
212.290,3.538
213.290,3.564
214.290,3.586
215.290,3.604
216.290,3.615
217.290,3.620
218.290,3.619
219.290,3.612
220.290,3.602
221.290,3.589
222.290,3.574
223.290,3.558
225.080,3.507
226.080,3.456
227.080,3.404
228.080,3.352
229.080,3.299
230.080,3.247
231.080,3.196
232.080,3.149
233.080,3.106
234.080,3.067
235.080,3.036
236.080,3.011
237.080,2.996
238.080,2.989
239.080,2.993
240.080,3.008
241.080,3.034
242.080,3.072
243.080,3.120
243.140,3.125
244.140,3.178
245.140,3.219
246.140,3.252
247.140,3.278
248.140,3.301
249.140,3.321
250.140,3.341
251.140,3.361
252.140,3.382
253.140,3.404
254.140,3.426
255.140,3.448
256.140,3.469
257.140,3.489
258.140,3.507
259.140,3.522
260.140,3.533
261.140,3.539
262.140,3.539
263.140,3.534
264.140,3.522
265.140,3.504
266.140,3.480
267.140,3.451
268.140,3.418
269.140,3.383
270.072,3.342
271.072,3.316
272.072,3.289
273.072,3.261
274.072,3.231
275.072,3.201
276.072,3.169
277.072,3.136
278.072,3.102
279.072,3.066
280.072,3.030
281.072,2.992
282.072,2.954
283.072,2.914
284.072,2.873
285.072,2.830
286.072,2.787
287.072,2.743
288.072,2.697
289.072,2.650
290.072,2.603
291.072,2.554
292.072,2.504
293.072,2.453
294.072,2.400
295.072,2.347
296.072,2.293
297.072,2.237
298.072,2.181
298.870,2.130
299.870,2.063
300.870,1.995
301.870,1.930
302.870,1.870
303.870,1.817
304.870,1.773
305.870,1.737
306.870,1.710
307.870,1.690
308.870,1.679
309.870,1.673
310.870,1.673
311.870,1.677
312.870,1.684
313.870,1.694
314.870,1.704
315.870,1.714
316.870,1.724
317.870,1.732
318.870,1.740
319.870,1.745
320.870,1.749
321.870,1.751
322.870,1.752
323.870,1.752
324.870,1.750
325.870,1.746
326.870,1.741
327.870,1.734
328.870,1.723
329.870,1.707
330.870,1.683
331.870,1.648
332.870,1.598
333.261,1.577
##END=
