##TITLE=Parathion
##JCAMP-DX=4.24
##DATA TYPE=UV/VIS SPECTRUM
##ORIGIN=INSTITUTE OF ENERGY PROBLEMS OF CHEMICAL PHYSICS, RAS
##OWNER=INEP CP RAS, NIST OSRD
Collection (C) 2007 copyright by the U.S. Secretary of Commerce
on behalf of the United States of America. All rights reserved.
##CAS REGISTRY NO=56-38-2
##MOLFORM=C10H14NO5PS
##MP=6.1
##BP=375
##SOURCE REFERENCE=RAS UV No. 568
##$NIST SQUIB=1951HIR/GIS185-187
##$NIST SOURCE=TSGMTE
##SPECTROMETER/DATA SYSTEM=Beckman DU
##XUNITS=Wavelength (nm)
##YUNITS=Logarithm epsilon
##XFACTOR=1.000000
##YFACTOR=1.000000
##FIRSTX=210.7838
##LASTX=378.5117
##FIRSTY=1.60379
##MAXX=378.512
##MINX=210.784
##MAXY=1.60399
##MINY=-0.656198
##NPOINTS=912
##$REF AUTHOR=Hirt, R.C.; Gisclard, J.B.
##$REF TITLE=Determination of parathion in air samples by ultraviolet absorption spectroscopy
##$REF JOURNAL=Anal. Chem.
##$REF VOLUME=23
##$REF NUMBER=1
##$REF PAGE=185-187
##$REF DATE=1951
##XYPOINTS=(XY..XY)
210.7838,1.603794
211.2250,1.603993
211.4373,1.599939
211.6449,1.600031
211.8837,1.595471
212.2989,1.595657
212.3036,1.591510
212.5112,1.591603
212.9623,1.582988
213.4035,1.583186
213.4081,1.579039
214.0569,1.579331
214.2692,1.575276
214.4768,1.575369
214.4820,1.570704
214.6896,1.570797
214.6943,1.566650
214.9279,1.566754
215.1401,1.562700
215.3478,1.562794
215.5860,1.558751
216.0012,1.558938
216.0064,1.554271
216.2400,1.554376
216.9034,1.541707
217.1110,1.541800
217.3233,1.537746
217.7644,1.537945
217.7691,1.533797
217.9767,1.533890
217.9820,1.529225
218.1896,1.529317
218.1942,1.525171
218.4278,1.525276
218.6401,1.521220
218.8477,1.521315
219.0859,1.517271
219.0912,1.512606
219.2988,1.512699
219.3034,1.508551
219.5110,1.508644
219.5157,1.504497
219.7493,1.504603
219.9621,1.500029
220.1697,1.500123
220.3820,1.496069
220.3919,1.487256
220.6302,1.483212
220.8378,1.483306
220.8477,1.474493
221.0553,1.474586
221.2935,1.470543
221.2982,1.466396
221.9616,1.453726
221.9715,1.444913
222.1838,1.440859
222.1885,1.436711
222.6396,1.428096
222.6495,1.419281
223.0740,1.411173
223.0840,1.402359
223.2962,1.398306
223.3009,1.394159
223.5397,1.389597
223.5444,1.385451
223.7567,1.381395
223.7619,1.376730
223.9742,1.372676
223.9888,1.359714
224.4393,1.351619
224.4492,1.342804
224.6615,1.338749
224.6714,1.329937
224.9097,1.325893
224.9243,1.312932
225.1319,1.313025
225.1465,1.300065
225.3588,1.296011
225.3687,1.287197
225.5810,1.283143
225.5956,1.270183
225.8291,1.270287
225.8484,1.253178
226.0560,1.253273
226.0659,1.244458
226.2735,1.244552
226.2881,1.231589
226.5217,1.231696
226.5316,1.222883
226.7439,1.218827
226.7486,1.214680
226.9614,1.210107
226.9661,1.205959
227.2043,1.201916
227.2143,1.193102
227.4265,1.189049
227.4312,1.184901
227.6441,1.180329
227.6534,1.172033
228.1045,1.163418
228.1139,1.155123
228.5390,1.146497
228.5437,1.142349
228.7825,1.137788
228.7918,1.129493
228.9994,1.129587
229.0047,1.124921
229.2170,1.120867
229.2269,1.112052
229.6774,1.103958
229.6821,1.099808
229.8949,1.095236
229.8996,1.091090
230.1332,1.091192
230.1378,1.087046
230.3454,1.087139
230.3507,1.082473
230.5583,1.082566
230.5676,1.074271
230.8012,1.074378
230.8065,1.069709
231.0141,1.069805
231.6774,1.057133
231.6821,1.052986
231.8897,1.053078
231.8944,1.048931
232.3355,1.049133
232.3402,1.044982
232.7554,1.045170
232.9942,1.040610
232.9989,1.036461
233.2065,1.036553
233.4188,1.032502
235.8063,1.033573
236.0191,1.029002
236.2267,1.029096
236.4291,1.033854
236.8656,1.038199
236.8702,1.034051
237.0732,1.038294
237.3021,1.042544
237.9508,1.042839
238.1532,1.047598
238.5943,1.047796
238.7973,1.052036
239.0002,1.056276
239.0049,1.052128
239.6443,1.060717
239.6490,1.056569
239.8467,1.065475
239.8519,1.060811
240.0802,1.065580
240.2831,1.069820
240.4908,1.069916
240.9220,1.078928
241.1249,1.083166
241.1296,1.079018
241.5562,1.092180
241.7638,1.092271
241.9620,1.100660
241.9667,1.096514
242.1903,1.105432
242.1956,1.100767
243.0228,1.127072
243.0274,1.122927
243.2257,1.131314
243.2304,1.127166
243.4540,1.136086
243.4593,1.131420
243.6616,1.136178
243.8599,1.144568
243.8645,1.140420
244.0622,1.149327
244.0675,1.144661
244.2911,1.153580
244.2958,1.149432
244.4940,1.157819
244.4987,1.153672
244.6964,1.162579
244.7016,1.157913
244.9253,1.166833
244.9299,1.162684
245.1282,1.171074
245.1329,1.166924
245.3311,1.175315
245.3358,1.171165
245.5594,1.180083
245.5647,1.175419
245.9700,1.184419
245.9746,1.180272
246.1936,1.193336
246.1989,1.188670
246.3965,1.197578
246.4012,1.193431
246.8071,1.201913
246.8118,1.197766
247.0354,1.206683
247.0406,1.202017
247.4412,1.215164
247.6701,1.219417
247.6748,1.215270
247.8777,1.219511
248.3043,1.232671
248.3090,1.228524
248.5067,1.237431
248.5119,1.232762
248.7096,1.241671
248.7143,1.237524
249.1461,1.246016
249.1507,1.241868
249.3438,1.254923
249.3484,1.250776
249.5467,1.259164
249.5514,1.255017
249.7802,1.259269
249.9826,1.264029
250.1855,1.268269
250.1902,1.264121
250.4191,1.268374
250.6174,1.276763
250.6220,1.272614
250.8197,1.281522
250.8250,1.276857
251.0486,1.285776
251.0533,1.281626
251.4591,1.290108
251.4638,1.285962
251.6568,1.299017
251.6615,1.294867
251.8857,1.303267
251.8904,1.299121
252.0880,1.308028
252.0933,1.303362
252.2956,1.308120
252.7222,1.321281
252.7275,1.316614
252.9251,1.325522
252.9298,1.321375
253.3616,1.329868
253.3663,1.325719
253.5646,1.334108
253.5692,1.329961
253.7929,1.338879
253.7981,1.334212
253.9958,1.343121
254.0005,1.338972
254.1987,1.347361
254.2034,1.343214
254.4063,1.347455
254.6346,1.352225
254.8376,1.356466
254.8422,1.352318
255.0353,1.365374
255.0405,1.360707
255.2688,1.365479
255.4717,1.369719
255.6794,1.369813
255.9082,1.374064
256.1112,1.378305
256.1158,1.374158
256.3135,1.383065
256.3188,1.378400
256.5424,1.387317
256.5471,1.383171
256.7500,1.387411
256.9529,1.391651
257.3889,1.396517
257.3941,1.391850
257.5918,1.400757
257.5965,1.396609
257.7947,1.404998
257.7994,1.400850
258.0230,1.409769
258.0283,1.405102
258.2260,1.414010
258.2306,1.409862
258.6624,1.418356
258.6671,1.414208
259.0677,1.427356
259.5042,1.431701
259.5089,1.427554
259.7118,1.431795
260.1384,1.444955
260.1431,1.440807
260.3413,1.449196
260.3460,1.445048
260.9901,1.449488
261.1924,1.454247
261.4260,1.454351
261.8319,1.462834
262.0342,1.467592
262.0395,1.462926
262.4660,1.476086
262.9072,1.476284
263.1049,1.485192
263.1096,1.481044
263.3078,1.489433
263.3125,1.485284
263.7490,1.489631
263.9519,1.493872
264.3931,1.494070
264.5954,1.498829
265.8883,1.503559
265.8930,1.499412
266.0959,1.503653
266.3248,1.507906
266.7400,1.508092
266.9683,1.512863
267.1759,1.512956
267.3788,1.517197
267.3888,1.508384
267.6010,1.504329
267.6057,1.500183
267.8200,1.517396
268.0229,1.521636
268.6956,1.500673
269.3205,1.522220
269.5228,1.526980
270.3792,1.527364
270.6081,1.531617
271.4645,1.532002
271.6674,1.536243
274.4701,1.537503
274.7083,1.533461
275.5647,1.533846
275.7770,1.529791
276.4257,1.530083
276.6386,1.525510
278.7925,1.526479
279.0307,1.522436
279.8871,1.522821
279.8918,1.518673
280.5405,1.518965
280.7534,1.514392
280.9610,1.514485
280.9657,1.510339
281.4168,1.501723
282.7143,1.502307
282.7190,1.498159
282.9266,1.498253
282.9313,1.494104
283.1389,1.494198
283.1435,1.490050
283.5847,1.490249
283.5900,1.485582
283.8022,1.481529
283.8069,1.477382
284.2481,1.477580
284.4609,1.473006
284.6945,1.473112
284.9068,1.469057
285.3479,1.469256
285.3526,1.465108
285.9754,1.465389
285.9807,1.460722
286.2142,1.460827
286.2189,1.456680
286.4265,1.456773
286.4312,1.452625
286.6388,1.452718
286.6440,1.448054
287.0852,1.448252
287.2975,1.444196
288.1798,1.444594
288.1891,1.436298
288.3968,1.436392
288.6096,1.431819
288.6143,1.427671
288.8219,1.427765
288.8266,1.423618
289.0601,1.423723
289.0654,1.419057
289.2730,1.419149
289.2777,1.415002
289.4853,1.415095
289.4899,1.410948
289.7235,1.411054
289.7287,1.406387
290.1440,1.406574
290.1486,1.402426
290.3822,1.402531
290.8073,1.393905
290.8120,1.389756
291.0196,1.389850
291.2578,1.385808
291.4654,1.385901
291.4701,1.381754
291.6777,1.381846
291.6830,1.377181
291.9165,1.377286
291.9212,1.373138
292.1335,1.369084
292.3411,1.369177
292.3463,1.364512
292.5799,1.364617
293.0045,1.356508
293.0097,1.351843
293.2433,1.351947
293.2479,1.347800
293.4555,1.347892
293.4602,1.343745
293.6678,1.343838
293.6725,1.339690
293.8801,1.339783
293.8854,1.335119
294.1236,1.331075
294.1283,1.326927
294.3359,1.327022
294.5487,1.322449
294.7823,1.322554
294.7870,1.318406
294.9992,1.314352
295.0045,1.309686
295.2121,1.309779
295.2168,1.305631
295.4503,1.305736
295.4550,1.301590
295.6626,1.301683
295.6679,1.297016
295.8755,1.297110
295.8801,1.292962
296.1184,1.288920
296.1230,1.284771
296.3306,1.284866
296.5435,1.280294
296.7511,1.280387
296.7605,1.272092
297.2115,1.263475
297.4192,1.263570
297.4238,1.259422
297.6626,1.254860
297.6673,1.250713
298.3307,1.238044
298.3354,1.233897
298.5476,1.229843
298.5529,1.225175
298.7605,1.225271
299.4239,1.212600
299.4285,1.208452
299.6361,1.208546
299.6461,1.199733
299.8796,1.199837
299.8890,1.191543
300.1012,1.187487
300.1065,1.182823
300.3141,1.182917
300.5523,1.178873
300.5570,1.174725
300.7646,1.174818
300.7745,1.166004
301.2256,1.157390
301.2303,1.153242
301.4379,1.153336
301.4478,1.144521
301.8724,1.136413
301.8771,1.132266
302.1106,1.132372
302.1205,1.123558
302.3282,1.123649
302.3328,1.119503
302.7839,1.110889
302.7938,1.102073
303.2184,1.093968
303.2283,1.085151
303.4666,1.081110
303.4712,1.076961
303.6788,1.077055
303.6841,1.072390
303.8964,1.068334
303.9063,1.059522
304.3568,1.051427
304.3714,1.038465
304.5843,1.033890
304.5936,1.025597
305.0447,1.016979
305.0494,1.012833
305.2616,1.008779
305.2716,0.999965
305.4792,1.000061
305.4839,0.995911
305.7227,0.991350
305.9303,0.991443
305.9443,0.979002
306.3954,0.970384
306.4053,0.961573
306.6176,0.957516
306.6223,0.953373
306.8299,0.953465
306.8398,0.944650
307.0780,0.940606
307.0833,0.935940
307.2956,0.931890
307.3002,0.927740
307.5125,0.923684
307.5224,0.914872
307.7347,0.910816
307.7400,0.906152
307.9782,0.902112
307.9829,0.897962
308.1957,0.893390
308.2051,0.885095
308.4179,0.880522
308.4226,0.876374
308.6608,0.872331
308.6655,0.868186
308.8784,0.863614
308.8830,0.859463
309.0953,0.855410
309.1006,0.850744
309.3388,0.846702
309.3487,0.837885
309.5610,0.833835
309.5657,0.829683
309.7780,0.825634
309.7879,0.816818
310.2390,0.808204
310.2536,0.795240
310.6781,0.787134
310.6881,0.778318
310.9263,0.774276
310.9310,0.770130
311.1438,0.765557
311.1532,0.757259
311.3660,0.752686
311.3707,0.748545
311.6089,0.744496
311.6189,0.735687
311.8311,0.731629
311.8364,0.726963
312.0487,0.722913
312.0580,0.714615
312.2968,0.710058
312.3015,0.705906
312.5138,0.701853
312.5237,0.693041
312.9488,0.684414
312.9634,0.671451
313.4140,0.663352
313.4286,0.650395
313.8796,0.641781
313.8890,0.633489
314.3141,0.624859
314.3235,0.616560
314.5623,0.611999
314.5670,0.607852
314.7792,0.603794
314.7892,0.594989
315.0014,0.590931
315.0067,0.586261
315.2449,0.582222
315.2496,0.578077
315.4625,0.573498
315.4671,0.569350
315.6794,0.565305
315.6893,0.556483
315.9016,0.552437
315.9115,0.543621
316.1498,0.539578
316.1544,0.535433
316.3673,0.530853
316.3720,0.526714
316.5843,0.522653
316.5942,0.513843
316.8324,0.509794
316.8423,0.500991
317.0499,0.501073
317.2622,0.497026
317.2721,0.488212
317.5104,0.484172
317.5250,0.471204
317.7373,0.467149
317.7425,0.462488
317.9501,0.462578
317.9548,0.458426
318.1624,0.458532
318.1770,0.445558
318.4152,0.441522
318.4199,0.437370
318.6275,0.437465
318.6374,0.428653
318.8450,0.428750
318.8497,0.424604
319.0885,0.420038
319.0932,0.415891
319.3008,0.415991
319.3101,0.407697
319.5230,0.403121
319.5277,0.398964
319.7659,0.394924
319.7758,0.386106
320.4392,0.373445
320.4491,0.364626
320.8737,0.356523
320.8784,0.352375
321.0912,0.347798
321.0959,0.343645
321.5470,0.335036
321.7546,0.335137
321.7692,0.322178
322.0027,0.322281
322.0074,0.318126
322.2150,0.318230
322.2197,0.314078
322.4273,0.314162
322.4326,0.309502
322.6708,0.305459
322.6755,0.301312
322.8831,0.301399
322.8877,0.297257
323.0953,0.297345
323.1006,0.292677
323.3342,0.292788
323.3435,0.284498
323.5564,0.279918
323.7640,0.280009
323.7686,0.275864
323.9762,0.275956
323.9862,0.267148
324.2244,0.263115
324.2291,0.258948
324.6443,0.259140
324.6490,0.255007
324.8825,0.255104
324.8878,0.250444
325.0954,0.250518
325.1047,0.242243
325.3123,0.242318
325.3176,0.237669
325.7587,0.237870
325.7634,0.233707
325.9710,0.233808
325.9757,0.229656
326.2145,0.225102
326.2192,0.220944
326.4268,0.221049
326.4315,0.216904
326.8467,0.217089
326.8519,0.212427
327.0855,0.212534
327.0948,0.204229
327.3071,0.200166
327.5147,0.200276
327.7535,0.195706
327.9611,0.195789
328.1734,0.191730
328.1781,0.187605
328.4169,0.183042
328.6245,0.183127
328.6292,0.178977
329.0444,0.179178
329.2826,0.175135
329.2879,0.170467
329.4955,0.170555
329.5001,0.166401
329.7077,0.166489
329.7124,0.162355
329.9460,0.162445
330.1588,0.157880
330.3664,0.157970
330.6047,0.153937
330.8123,0.154028
330.8216,0.145725
331.0292,0.145818
331.2680,0.141262
331.4756,0.141356
331.6879,0.137291
331.8955,0.137386
331.9002,0.133251
332.1338,0.133347
332.3466,0.128787
332.3513,0.124635
332.5589,0.124732
332.7971,0.120673
333.2123,0.120870
333.4512,0.116309
333.6588,0.116408
334.3221,0.103735
334.7373,0.103906
334.7420,0.099784
335.1832,0.099957
335.1878,0.095832
335.6290,0.096006
335.6337,0.091878
336.0588,0.083252
336.5000,0.083431
336.7123,0.079398
337.1534,0.079579
337.1587,0.074926
337.5739,0.075109
337.5786,0.070961
338.0297,0.062356
338.4708,0.062544
338.6831,0.058502
339.1243,0.058692
339.1289,0.054536
339.5441,0.054728
339.5541,0.045909
339.9952,0.046105
340.2075,0.042063
340.8563,0.042339
341.0686,0.038302
341.0738,0.033625
341.3120,0.029587
341.3167,0.025429
341.7319,0.025634
341.7372,0.020982
342.1783,0.021148
342.6029,0.013048
342.8365,0.013174
343.0493,0.008600
343.4905,0.008770
343.7028,0.004708
343.7074,0.000564
343.9150,0.000694
343.9197,-0.003488
344.3609,-0.003313
344.3661,-0.007977
344.5737,-0.007889
344.5784,-0.012021
344.8166,-0.016058
344.8219,-0.020725
345.0342,-0.024798
345.8905,-0.024384
346.3416,-0.033014
346.3463,-0.037157
346.7615,-0.036968
346.7662,-0.041102
346.9997,-0.041006
347.2126,-0.045565
347.4202,-0.045516
347.8707,-0.053597
347.8754,-0.057744
348.5242,-0.057446
348.5294,-0.062131
348.7370,-0.062031
349.1875,-0.070121
349.1928,-0.074791
349.4004,-0.074688
349.4051,-0.078834
349.8462,-0.078626
349.8509,-0.082810
350.0585,-0.082705
350.4836,-0.091301
350.4883,-0.095447
350.7219,-0.095339
350.7265,-0.099524
351.1418,-0.099305
351.1470,-0.103970
351.3806,-0.103915
351.5929,-0.107961
351.5975,-0.112102
351.8051,-0.111989
351.8104,-0.116679
352.0439,-0.116566
352.0486,-0.120732
352.4638,-0.120503
352.4685,-0.124649
352.7021,-0.124534
352.9149,-0.129128
352.9196,-0.133299
353.1319,-0.137332
353.3395,-0.137272
353.3447,-0.141884
353.7859,-0.141703
353.7906,-0.145876
353.9982,-0.145755
354.0028,-0.149905
354.2411,-0.153972
354.2463,-0.158641
354.6615,-0.158453
354.6662,-0.162601
354.8998,-0.162475
355.3249,-0.171082
355.3296,-0.175224
355.5372,-0.175159
355.5419,-0.179339
355.9830,-0.179142
355.9883,-0.183759
356.4294,-0.183560
356.4341,-0.187755
356.6464,-0.191789
356.6516,-0.196475
356.8592,-0.196338
357.0975,-0.200384
357.3051,-0.200315
357.3098,-0.204468
357.5174,-0.204328
357.9685,-0.212965
357.9731,-0.217098
358.1807,-0.217026
358.3930,-0.221053
358.6266,-0.220981
358.8394,-0.225556
359.0470,-0.225483
359.2853,-0.229516
359.2952,-0.238298
359.5028,-0.238222
359.5075,-0.242376
359.7151,-0.242300
359.9533,-0.246340
359.9632,-0.255160
360.1755,-0.259164
360.8243,-0.258927
360.8289,-0.263046
361.0366,-0.262966
361.0418,-0.267606
361.2494,-0.267526
361.2541,-0.271646
361.4923,-0.275724
361.6999,-0.275642
361.7052,-0.280255
361.9128,-0.280172
362.1510,-0.284247
362.3586,-0.284164
362.3685,-0.292941
362.5762,-0.292856
362.5808,-0.297053
362.8144,-0.296881
363.2389,-0.305044
363.4725,-0.304956
363.4824,-0.313721
363.6900,-0.313632
363.6947,-0.317765
363.9023,-0.317674
363.9076,-0.322393
364.1152,-0.322302
364.5657,-0.330404
364.5709,-0.334982
364.7785,-0.334888
364.7832,-0.339040
365.0168,-0.338945
365.2290,-0.343040
365.4367,-0.342944
365.4419,-0.347560
365.6801,-0.351640
365.6848,-0.355758
365.8924,-0.355660
365.8971,-0.359817
366.3123,-0.359618
366.3176,-0.364315
366.5511,-0.364215
366.7634,-0.368252
366.7681,-0.372429
366.9757,-0.372327
366.9809,-0.376958
367.2192,-0.381011
367.4268,-0.380907
367.4314,-0.385103
367.6390,-0.384997
367.6443,-0.389659
367.8778,-0.389553
367.8872,-0.397831
368.0948,-0.397723
368.3077,-0.402305
368.5412,-0.402195
368.5459,-0.406382
368.7535,-0.406271
368.7582,-0.410385
368.9658,-0.410385
368.9757,-0.419189
369.1833,-0.419075
369.6338,-0.427128
369.8414,-0.427128
369.8467,-0.431681
370.0849,-0.435808
370.0896,-0.439974
370.2972,-0.439854
370.5100,-0.444422
370.7436,-0.444301
370.7483,-0.448428
370.9605,-0.452471
370.9652,-0.456677
371.1728,-0.456553
371.1781,-0.461175
371.4116,-0.461175
371.4163,-0.465213
371.6239,-0.465213
371.6286,-0.469288
371.8415,-0.473919
371.8461,-0.478078
372.0537,-0.477947
372.0584,-0.482145
372.2920,-0.482013
374.7364,-0.554551
374.9487,-0.558619
374.9534,-0.562725
375.1869,-0.562725
375.1916,-0.566870
375.3992,-0.566710
375.4044,-0.571379
375.6121,-0.571217
375.6214,-0.579549
376.0725,-0.588212
376.0772,-0.592439
376.2848,-0.592269
376.2947,-0.601019
376.5282,-0.601019
376.5329,-0.605198
376.7405,-0.605023
376.7505,-0.613858
376.9581,-0.613679
376.9674,-0.621966
377.1750,-0.621966
377.1803,-0.626536
377.4138,-0.626536
377.4232,-0.634887
377.6308,-0.634699
377.6407,-0.643592
377.8483,-0.643401
377.8530,-0.647625
378.3041,-0.656198
378.5117,-0.656198
##END=
