##TITLE=alpha,alpha,7-trimethylfuro[2,3-c]pyridine-2-methanol
##JCAMP-DX=4.24
##DATA TYPE=UV/VIS SPECTRUM
##ORIGIN=INSTITUTE OF ENERGY PROBLEMS OF CHEMICAL PHYSICS, RAS
##OWNER=INEP CP RAS, NIST OSRD
Collection (C) 2007 copyright by the U.S. Secretary of Commerce
on behalf of the United States of America. All rights reserved.
##CAS REGISTRY NO=56914-80-8
##MOLFORM=C11H13NO2
##MP=78-78.5
##SOURCE REFERENCE=RAS UV No. 23505
##$NIST SQUIB=1975LVO/1537
##$NIST SOURCE=TYUGLMTE
##SPECTROMETER/DATA SYSTEM=Specord UV-Vis
##XUNITS=Wavelength (nm)
##YUNITS=Logarithm epsilon
##XFACTOR=1.0
##YFACTOR=1.0
##FIRSTX=202.245
##LASTX=302.93
##FIRSTY=3.478
##MAXX=302.93
##MINX=202.245
##MAXY=4.26
##MINY=2.598
##NPOINTS=111
##$REF AUTHOR=L'vova, S.D.; et al.
##$REF JOURNAL=Zhur. Organ. Khim.
##$REF VOLUME=11
##$REF PAGE=1537
##$REF DATE=1975
##XYPOINTS=(XY..XY)
202.245,3.478
202.385,3.484
202.385,3.576
202.424,3.483
202.526,3.590
202.564,3.596
203.564,3.932
204.564,4.087
204.640,4.089
205.640,4.166
206.640,4.216
207.640,4.246
208.640,4.260
209.640,4.259
209.750,4.259
210.750,4.233
211.750,4.177
212.750,4.100
213.750,4.009
214.750,3.911
215.750,3.815
215.819,3.808
216.819,3.728
217.819,3.637
218.819,3.541
219.819,3.445
220.819,3.357
221.819,3.291
222.819,3.257
223.819,3.260
224.819,3.295
225.819,3.349
226.819,3.412
227.795,3.479
228.795,3.536
229.795,3.595
230.795,3.653
231.795,3.707
232.795,3.759
233.795,3.807
234.795,3.850
235.795,3.890
236.795,3.926
237.795,3.959
238.795,3.988
239.795,4.013
239.932,4.017
240.932,4.036
241.932,4.052
242.932,4.064
243.932,4.073
244.932,4.080
245.932,4.085
246.932,4.087
247.932,4.088
248.932,4.086
249.932,4.083
250.932,4.078
251.932,4.071
252.932,4.063
253.932,4.053
254.932,4.041
255.932,4.026
256.932,4.010
257.932,3.992
258.932,3.971
259.932,3.948
260.932,3.922
261.011,3.918
262.011,3.890
263.011,3.860
264.011,3.829
265.011,3.802
266.011,3.779
267.011,3.763
268.011,3.755
269.011,3.752
270.011,3.752
271.011,3.750
272.011,3.740
272.988,3.711
273.988,3.645
274.988,3.597
275.988,3.568
276.988,3.555
277.988,3.551
278.988,3.547
279.988,3.534
280.988,3.506
281.930,3.452
282.930,3.414
283.930,3.373
284.930,3.330
285.930,3.287
286.930,3.243
287.930,3.201
288.930,3.161
289.930,3.125
290.930,3.091
291.930,3.059
292.930,3.029
293.930,3.000
294.930,2.969
295.930,2.934
296.930,2.894
297.930,2.847
298.930,2.792
299.930,2.730
300.930,2.666
301.930,2.614
302.930,2.598
##END=
