##TITLE=1,8-Dimethylnaphthalene
##JCAMP-DX=4.24
##DATA TYPE=UV/VIS SPECTRUM
##ORIGIN=INSTITUTE OF ENERGY PROBLEMS OF CHEMICAL PHYSICS, RAS
##OWNER=INEP CP RAS, NIST OSRD
Collection (C) 2007 copyright by the U.S. Secretary of Commerce
on behalf of the United States of America. All rights reserved.
##CAS REGISTRY NO=569-41-5
##MOLFORM=C12H12
##MP=65
##BP=270
##SOURCE REFERENCE=RAS UV No. 3836
##$NIST SQUIB=1955WOL800-801
##$NIST SOURCE=TSGMTE
##SPECTROMETER/DATA SYSTEM=n.i.g.
##XUNITS=Wavelength (nm)
##YUNITS=Logarithm epsilon
##XFACTOR=1.000000
##YFACTOR=1.000000
##FIRSTX=324.3629
##LASTX=250.2644
##FIRSTY=2.00474
##MAXX=324.363
##MINX=250.264
##MAXY=3.92416
##MINY=2.00474
##NPOINTS=527
##$REF AUTHOR=Wolf, H.C.
##$REF TITLE=Fluoreszenz- und Absorptionsspektrum von 1,8-Dimethylnaphthalin
##$REF JOURNAL=Z. Naturforsch. A:
##$REF VOLUME=10
##$REF PAGE=800-801
##$REF DATE=1955
##XYPOINTS=(XY..XY)
324.3629,2.004740
324.3355,2.020266
324.3080,2.035790
324.2804,2.051314
324.2528,2.066837
324.2251,2.082359
324.1973,2.097880
324.1695,2.113401
324.1417,2.128921
324.1138,2.144441
324.0858,2.159960
324.0578,2.175478
324.0297,2.190995
324.0017,2.206512
323.9735,2.222029
323.9453,2.237544
323.9171,2.253059
323.8888,2.268574
323.8605,2.284088
323.8321,2.299602
323.8037,2.315115
323.7753,2.330627
323.7468,2.346140
323.7184,2.361652
323.6898,2.377163
323.6613,2.392674
323.6327,2.408185
323.6041,2.423695
323.5755,2.439205
323.5468,2.454714
323.5182,2.470224
323.4895,2.485733
323.4608,2.501241
323.4320,2.516750
323.4033,2.532258
323.3745,2.547766
323.3458,2.563274
323.3170,2.578781
323.2882,2.594289
323.2594,2.609796
323.2306,2.625303
323.2018,2.640810
323.1730,2.656317
323.1441,2.671824
323.1153,2.687330
323.0865,2.702837
323.0577,2.718344
323.0289,2.733851
323.0289,2.733851
322.9230,2.774534
322.8245,2.813367
322.7329,2.850392
322.6480,2.885655
322.5692,2.919200
322.4961,2.951071
322.4285,2.981312
322.3659,3.009968
322.3080,3.037084
322.2542,3.062703
322.2044,3.086870
322.1579,3.109630
322.1146,3.131026
322.0740,3.151104
322.0357,3.169907
321.9993,3.187480
321.9645,3.203868
321.9309,3.219114
321.8981,3.233264
321.8657,3.246361
321.8333,3.258449
321.8006,3.269574
321.7671,3.279780
321.7326,3.289111
321.6966,3.297611
321.6587,3.305325
321.6186,3.312297
321.5758,3.318572
321.5301,3.324193
321.4810,3.329206
321.4281,3.333655
321.3712,3.337584
321.3097,3.341037
321.2433,3.344059
321.1718,3.346694
321.0946,3.348987
321.0114,3.350982
320.9219,3.352723
320.8257,3.354255
320.7224,3.355622
320.7224,3.355622
320.5365,3.355302
320.3508,3.354911
320.2071,3.084324
320.1980,3.101828
320.1891,3.118914
320.1803,3.135562
320.1717,3.151754
320.1653,3.354379
320.1653,3.354379
320.1634,3.167472
320.1554,3.182696
320.1533,3.352998
320.1479,3.197406
320.1429,3.350746
320.1409,3.211586
320.1343,3.225215
320.1339,3.347641
320.1284,3.238274
320.1265,3.343703
320.1232,3.250746
320.1204,3.338949
320.1186,3.262610
320.1157,3.333399
320.1149,3.273848
320.1122,3.327072
320.1119,3.284441
320.1100,3.319987
320.1100,3.294371
320.1089,3.303617
320.1089,3.312163
319.9944,2.484417
319.8714,2.450432
319.7626,2.420597
319.6667,2.394602
319.5821,2.372138
319.5075,2.352896
319.4415,2.336566
319.3827,2.322839
319.3298,2.311406
319.2813,2.301958
319.2359,2.294184
319.1922,2.287776
319.1489,2.282425
319.1045,2.277820
319.0578,2.273653
319.0072,2.269615
318.9515,2.265395
318.9515,2.265395
318.6628,2.264999
318.3746,2.264461
318.0868,2.263852
318.0868,2.263852
317.9842,2.270563
317.8758,2.277274
317.7559,2.283987
317.7559,2.283987
317.7430,2.300268
317.7301,2.316545
317.7172,2.332818
317.7041,2.349087
317.6910,2.365351
317.6778,2.381613
317.6645,2.397871
317.6511,2.414125
317.6375,2.430378
317.6237,2.446627
317.6097,2.462874
317.5955,2.479119
317.5811,2.495361
317.5664,2.511603
317.5514,2.527842
317.5362,2.544081
317.5206,2.560319
317.5047,2.576556
317.4885,2.592793
317.4719,2.609029
317.4719,2.609029
317.3729,2.636924
317.2742,2.663988
317.1760,2.690193
317.0786,2.715514
316.9822,2.739924
316.8872,2.763396
316.7937,2.785903
316.7020,2.807419
316.6123,2.827917
316.5250,2.847370
316.4403,2.865753
316.3584,2.883038
316.2795,2.899198
316.2040,2.914208
316.1321,2.928040
316.0641,2.940668
316.0001,2.952065
315.9405,2.962205
315.8855,2.971060
315.8354,2.978605
315.7903,2.984813
315.7506,2.989656
315.7165,2.993110
315.6883,2.995146
315.6883,2.995146
315.3655,2.996916
315.1395,2.997261
314.8168,2.996477
314.8168,2.996477
314.8067,2.980889
314.8060,2.840097
314.8056,2.855783
314.8044,2.824401
314.8039,2.871459
314.8014,2.887124
314.8003,2.965289
314.8002,2.808695
314.7988,2.902779
314.7969,2.949678
314.7968,2.918423
314.7960,2.934056
314.7928,2.792979
314.7815,2.777253
314.7658,2.761518
314.7449,2.745774
314.7182,2.730020
314.6852,2.714257
314.6452,2.698485
314.5976,2.682705
314.5418,2.666916
314.4771,2.651118
314.4029,2.635312
314.3187,2.619498
314.2237,2.603675
314.1175,2.587845
314.1175,2.587845
313.9128,2.587444
313.7027,2.586902
313.4815,2.586289
313.4815,2.586289
313.3546,2.588201
313.2221,2.590042
313.0784,2.591742
313.0784,2.591742
313.0466,2.596656
313.0169,2.601319
312.9890,2.605872
312.9623,2.610455
312.9366,2.615209
312.9113,2.620274
312.8862,2.625792
312.8607,2.631901
312.8344,2.638744
312.8070,2.646460
312.7781,2.655190
312.7472,2.665074
312.7139,2.676254
312.6778,2.688869
312.6385,2.703060
312.5957,2.718967
312.5488,2.736732
312.4975,2.756494
312.4414,2.778394
312.3800,2.802573
312.3131,2.829172
312.2401,2.858329
312.1607,2.890187
312.0745,2.924886
311.9811,2.962565
311.8800,3.003367
311.8800,3.003367
311.7245,3.011844
311.5181,3.018337
311.0615,3.023214
311.0615,3.023214
310.8862,3.021617
310.7111,3.019950
310.5474,2.903710
310.5472,2.887363
310.5472,2.920057
310.5468,2.871016
310.5466,2.936404
310.5461,2.854669
310.5455,2.952751
310.5451,2.838322
310.5440,2.969098
310.5440,2.821975
310.5427,2.805628
310.5419,2.985445
310.5414,2.789281
310.5400,2.772934
310.5400,2.772934
310.5393,3.001792
310.5360,3.018140
310.5360,3.018140
310.4367,2.765585
310.3279,2.758166
310.2081,2.750606
310.2081,2.750606
309.9352,2.750623
309.6627,2.750641
309.3907,2.750658
309.3907,2.750658
309.3582,2.751853
309.3276,2.753095
309.2985,2.754525
309.2701,2.756284
309.2418,2.758514
309.2131,2.761354
309.1833,2.764947
309.1519,2.769433
309.1181,2.774953
309.0815,2.781648
309.0413,2.789659
308.9971,2.799127
308.9481,2.810193
308.8938,2.822997
308.8335,2.837682
308.7668,2.854387
308.6929,2.873255
308.6113,2.894425
308.5213,2.918038
308.4224,2.944237
308.3140,2.973161
308.1956,3.004952
308.0664,3.039750
307.9260,3.077697
307.7738,3.118934
307.6091,3.163601
307.6091,3.163601
307.4199,3.181800
307.2255,3.199929
307.0205,3.217916
307.0205,3.217916
306.8921,3.218883
306.7529,3.219850
306.6086,3.220817
306.6086,3.220817
306.1530,3.210784
305.7967,3.199336
305.5283,3.186618
305.3371,3.172769
305.3278,3.020783
305.3241,3.003465
305.3030,3.038394
305.2813,2.986583
305.2600,3.056157
305.2121,3.157934
305.2096,3.073928
305.1890,2.970278
305.1621,3.091565
305.1426,3.142253
305.1281,3.108927
305.1181,3.125870
305.0366,2.954694
304.8140,2.939971
304.8140,2.939971
304.5913,2.939986
304.3582,2.940002
304.1202,2.940017
304.1202,2.940017
304.0974,2.941251
304.0680,2.943928
304.0319,2.947996
303.9896,2.953403
303.9411,2.960095
303.8868,2.968022
303.8268,2.977129
303.7613,2.987365
303.6905,2.998678
303.6147,3.011014
303.5340,3.024322
303.4487,3.038550
303.3590,3.053644
303.2651,3.069552
303.1671,3.086223
303.0654,3.103602
302.9601,3.121639
302.8514,3.140281
302.7395,3.159474
302.6247,3.179168
302.5071,3.199309
302.3870,3.219845
302.2646,3.240724
302.1400,3.261893
302.0135,3.283299
301.8854,3.304891
301.7557,3.326616
301.6246,3.348422
301.4925,3.370255
301.3595,3.392065
301.2258,3.413797
301.0916,3.435401
300.9571,3.456823
300.9571,3.456823
300.6046,3.499212
300.2915,3.536919
300.0150,3.570238
299.7721,3.599469
299.5601,3.624909
299.3761,3.646854
299.2175,3.665603
299.0814,3.681453
298.9652,3.694702
298.8663,3.705646
298.7818,3.714584
298.7091,3.721812
298.6457,3.727629
298.5888,3.732332
298.5357,3.736217
298.4840,3.739583
298.4308,3.742727
298.3736,3.745947
298.3736,3.745947
298.2817,3.748188
298.1847,3.750430
298.0776,3.752672
298.0776,3.752672
297.8019,3.752692
297.5216,3.752711
297.2316,3.752732
297.2316,3.752732
297.1296,3.749367
297.0614,3.742705
297.0112,3.728150
296.9632,3.701104
296.9014,3.656971
296.9014,3.656971
295.7471,3.658909
295.1474,3.666413
294.5629,3.682360
294.5629,3.682360
293.6895,3.691149
293.0811,3.697366
292.0820,3.699779
292.0820,3.699779
291.7217,3.694058
291.3525,3.688338
290.9794,3.682618
290.9794,3.682618
290.4154,3.684587
290.0277,3.688104
289.6132,3.694532
289.6132,3.694532
289.4507,3.702630
289.3078,3.709943
289.1747,3.717138
289.0418,3.724882
288.8992,3.733841
288.7372,3.744683
288.5463,3.758075
288.3169,3.774684
288.0395,3.795176
287.7047,3.820219
287.3033,3.850480
286.8263,3.886625
286.8263,3.886625
286.3509,3.906705
285.7108,3.919560
284.3966,3.924165
284.3966,3.924165
283.8489,3.911909
283.4759,3.897589
283.2139,3.881782
282.9997,3.865060
282.7710,3.847999
282.4656,3.831172
282.0221,3.815155
282.0221,3.815155
281.0087,3.801647
280.0986,3.793027
278.7280,3.791469
278.7280,3.791469
278.3430,3.798899
277.7479,3.813043
277.0271,3.830937
276.2639,3.849617
275.5401,3.866117
275.5401,3.866117
274.8405,3.865264
274.3249,3.861912
273.6678,3.853180
273.6678,3.853180
273.4314,3.840201
273.2048,3.825879
272.9762,3.810564
272.7341,3.794605
272.4667,3.778351
272.1626,3.762151
271.8105,3.746355
271.3991,3.731311
270.9174,3.717367
270.3547,3.704875
269.7006,3.694182
268.9450,3.685637
268.9450,3.685637
267.5338,3.685758
266.1372,3.685880
264.7552,3.686001
264.7552,3.686001
264.2098,3.675164
263.7384,3.663245
263.3297,3.650397
262.9725,3.636771
262.6557,3.622521
262.3684,3.607798
262.1000,3.592756
261.8398,3.577547
261.5771,3.562323
261.3016,3.547237
261.0029,3.532441
260.6706,3.518088
260.2947,3.504330
259.8651,3.491319
259.3721,3.479209
258.8060,3.468152
258.8060,3.468152
257.3701,3.460670
256.7235,3.456592
256.3023,3.452422
256.3023,3.452422
255.8181,3.440937
255.3892,3.428750
255.0078,3.415942
254.6659,3.402593
254.3560,3.388781
254.0705,3.374588
253.8018,3.360092
253.5425,3.345374
253.2854,3.330513
253.0230,3.315590
252.7482,3.300684
252.4538,3.285875
252.1326,3.271243
251.7778,3.256868
251.3824,3.242830
250.9396,3.229208
250.4427,3.216082
250.4427,3.216082
250.2644,3.214811
##END=
