##TITLE=Naphthalene, 1,5-dimethyl-
##JCAMP-DX=4.24
##DATA TYPE=UV/VIS SPECTRUM
##ORIGIN=INSTITUTE OF ENERGY PROBLEMS OF CHEMICAL PHYSICS, RAS
##OWNER=INEP CP RAS, NIST OSRD
Collection (C) 2007 copyright by the U.S. Secretary of Commerce
on behalf of the United States of America. All rights reserved.
##CAS REGISTRY NO=571-61-9
##MOLFORM=C12H12
##MP=82
##BP=265
##SOURCE REFERENCE=RAS UV No. 1416
##$NIST SQUIB=1974HAE3053-3056
##$NIST SOURCE=TSGMTE
##SPECTROMETER/DATA SYSTEM=n.i.g.
##XUNITS=Wavelength (nm)
##YUNITS=Logarithm epsilon
##XFACTOR=1.000000
##YFACTOR=1.000000
##FIRSTX=205.0706
##LASTX=332.7127
##FIRSTY=3.58298
##MAXX=332.713
##MINX=205.071
##MAXY=5.11736
##MINY=1.82695
##NPOINTS=232
##$REF AUTHOR=Haenel, M.W.
##$REF TITLE=Synthese von achiralem und chiralem [2.2] (1,5)naphthalinophan
##$REF JOURNAL=Tetrahedron Lett.
##$REF VOLUME=35
##$REF PAGE=3053-3056
##$REF DATE=1974
##XYPOINTS=(XY..XY)
205.0706,3.582981
205.2996,3.600203
205.5071,3.616062
205.7039,3.631628
205.9008,3.647972
206.1087,3.666167
206.3386,3.687281
206.6013,3.712388
206.9076,3.742557
207.2684,3.778860
207.6947,3.822368
208.1973,3.874153
208.7870,3.935285
209.4747,4.006834
210.2714,4.089874
211.1879,4.185474
211.1879,4.185474
211.6420,4.224266
212.1011,4.262997
212.5658,4.301665
213.0368,4.340265
213.5146,4.378795
213.9999,4.417253
214.4932,4.455637
214.9952,4.493942
215.5065,4.532166
216.0277,4.570307
216.5594,4.608361
217.1022,4.646326
217.6567,4.684200
218.2235,4.721978
218.8032,4.759659
219.3965,4.797239
220.0039,4.834716
220.6261,4.872088
221.2636,4.909350
221.9171,4.946501
222.5872,4.983537
223.2744,5.020456
223.9795,5.057255
224.7029,5.093931
224.7029,5.093931
225.9531,5.112755
227.0926,5.117356
228.2751,5.093038
228.2751,5.093038
228.9909,5.044090
229.4853,4.998999
230.1818,4.919111
230.1818,4.919111
230.3232,4.881184
230.4698,4.843236
230.6213,4.805268
230.7773,4.767281
230.9379,4.729275
231.1028,4.691252
231.2717,4.653211
231.4446,4.615155
231.6211,4.577083
231.8011,4.538997
231.9845,4.500898
232.1710,4.462786
232.3604,4.424663
232.5525,4.386528
232.7472,4.348383
232.9442,4.310230
233.1434,4.272068
233.3445,4.233898
233.5474,4.195723
233.7518,4.157541
233.9576,4.119354
234.1646,4.081163
234.3725,4.042969
234.5813,4.004773
234.7907,3.966575
235.0004,3.928376
235.2104,3.890178
235.4203,3.851980
235.6301,3.813784
235.8395,3.775592
236.0484,3.737403
236.2564,3.699218
236.4635,3.661038
236.6695,3.622865
236.8741,3.584698
237.0772,3.546540
237.2785,3.508390
237.4780,3.470250
237.6753,3.432119
237.8702,3.394001
237.8702,3.394001
238.5646,3.356371
239.2998,3.316305
240.1866,3.277152
241.3357,3.242259
242.8576,3.214974
244.8630,3.198648
245.3820,3.198518
247.3820,3.222638
248.9815,3.251080
250.3269,3.283337
251.5645,3.318905
252.8404,3.357278
252.8404,3.357278
254.3602,3.389860
255.7764,3.422544
257.1079,3.455491
258.3733,3.488860
259.5913,3.522815
260.7805,3.557516
261.9599,3.593124
263.1479,3.629801
264.3633,3.667707
264.3633,3.667707
266.2143,3.696085
268.1108,3.721194
270.1219,3.745053
270.1219,3.745053
271.6653,3.791491
273.0119,3.837977
274.2718,3.886929
274.2718,3.886929
275.8039,3.915588
277.0923,3.922731
278.3664,3.916335
279.8554,3.904373
281.7886,3.894821
281.7886,3.894821
281.8620,3.900119
281.9489,3.905141
282.0329,3.894760
282.0424,3.910026
282.5304,3.901829
282.9978,3.915013
283.8357,3.945612
284.1201,3.960809
285.2922,3.979652
286.1830,4.004267
287.8205,4.018515
287.8205,4.018515
288.5703,3.994566
289.5273,3.958541
290.7809,3.911449
292.4204,3.854297
292.4204,3.854297
294.2465,3.835997
295.8914,3.839817
297.4231,3.852343
298.9094,3.860160
300.4180,3.849855
300.4180,3.849855
300.9438,3.812551
301.4098,3.775011
301.8267,3.737262
302.2050,3.699329
302.5554,3.661241
302.8883,3.623024
303.2143,3.584705
303.5440,3.546309
303.8879,3.507865
304.2567,3.469399
304.6609,3.430936
305.1111,3.392506
305.6177,3.354133
306.1914,3.315845
306.1914,3.315845
307.5282,3.259685
308.1391,3.236414
308.5477,3.226088
308.5477,3.226088
308.7652,3.191880
309.0233,3.149276
309.3441,3.101772
309.7495,3.052871
310.2615,3.006068
310.9019,2.964864
311.6928,2.932756
311.6928,2.932756
313.9426,2.909434
315.2559,2.880792
316.1621,2.842060
317.1907,2.788468
317.1907,2.788468
317.4745,2.788397
317.7719,2.788323
318.0761,2.788247
318.0761,2.788247
318.2015,2.793531
318.3268,2.798544
318.4520,2.803422
318.4520,2.803422
318.7354,2.802717
319.0323,2.801874
319.3359,2.800758
319.3359,2.800758
319.8710,2.743101
320.2845,2.708005
320.9307,2.665385
320.9307,2.665385
321.2650,2.662836
321.5993,2.660151
321.9333,2.657195
321.9333,2.657195
322.0973,2.660796
322.2748,2.664258
322.4588,2.667446
322.4588,2.667446
322.7418,2.665973
323.0381,2.664225
323.3412,2.662339
323.3412,2.662339
323.8384,2.622593
324.3254,2.582691
324.8008,2.542632
325.2634,2.502410
325.7119,2.462022
326.1450,2.421465
326.5615,2.380733
326.9600,2.339823
327.3393,2.298731
327.6982,2.257454
328.0353,2.215987
328.3494,2.174327
328.3494,2.174327
329.6158,2.070103
330.6079,1.990654
331.3597,1.932279
331.9055,1.891275
332.2796,1.863941
332.5160,1.846576
332.6490,1.835478
332.7127,1.826946
##END=
