##TITLE=Naphthalene, 1,4-dimethyl-
##JCAMP-DX=4.24
##DATA TYPE=UV/VIS SPECTRUM
##ORIGIN=INSTITUTE OF ENERGY PROBLEMS OF CHEMICAL PHYSICS, RAS
##OWNER=INEP CP RAS, NIST OSRD
Collection (C) 2007 copyright by the U.S. Secretary of Commerce
on behalf of the United States of America. All rights reserved.
##CAS REGISTRY NO=571-58-4
##MOLFORM=C12H12
##MP=7.6
##BP=268
##SOURCE REFERENCE=RAS UV No. 327
##$NIST SQUIB=1963CRA/DAL1088-1093
##$NIST SOURCE=TSGMTE
##SPECTROMETER/DATA SYSTEM=Cary PMS 11
##XUNITS=Wavelength (nm)
##YUNITS=Logarithm epsilon
##XFACTOR=1.000000
##YFACTOR=1.000000
##FIRSTX=208.2273
##LASTX=324.0204
##FIRSTY=5.35952
##MAXX=324.02
##MINX=208.227
##MAXY=5.7386
##MINY=3.0505
##NPOINTS=221
##$REF AUTHOR=Cram, D.J.; Dalton, C.K.; Knox, G.R.
##$REF TITLE=Macro rings. XXIX. Stereochemistry of a 1,6-cycloaddition reaction
##$REF JOURNAL=J. Am. Chem. Soc.
##$REF VOLUME=85
##$REF PAGE=1088-1093
##$REF DATE=1963
##XYPOINTS=(XY..XY)
208.2273,5.359518
208.9622,5.389866
210.1353,5.415468
211.5749,5.437320
213.1094,5.456419
214.5673,5.473763
214.5673,5.473763
215.9669,5.507399
217.1039,5.534636
218.0621,5.557402
218.9254,5.577625
219.7776,5.597236
220.7025,5.618162
221.7840,5.642333
223.1058,5.671677
224.7518,5.708123
224.7518,5.708123
226.0577,5.727320
227.1727,5.737124
228.1218,5.738599
228.9299,5.732811
229.6221,5.720823
230.2231,5.703701
230.7581,5.682510
231.2519,5.658314
231.7295,5.632178
232.2159,5.605167
232.2159,5.605167
232.4974,5.592507
232.7888,5.568607
233.3401,5.545109
233.3401,5.545109
233.5700,5.515289
233.7940,5.485497
234.0123,5.455731
234.2249,5.425989
234.4317,5.396269
234.6328,5.366567
234.8284,5.336883
235.0183,5.307213
235.2028,5.277555
235.3818,5.247908
235.5553,5.218268
235.7235,5.188634
235.8862,5.159002
236.0438,5.129371
236.1960,5.099740
236.3431,5.070104
236.4850,5.040461
236.6218,5.010811
236.7535,4.981149
236.8801,4.951475
237.0019,4.921785
237.1186,4.892078
237.2305,4.862350
237.3376,4.832600
237.4398,4.802826
237.5373,4.773025
237.6301,4.743195
237.7183,4.713333
237.8018,4.683437
237.8808,4.653505
237.9552,4.623535
238.0251,4.593525
238.0907,4.563471
238.1518,4.533372
238.2086,4.503225
238.2611,4.473029
238.3094,4.442779
238.3534,4.412476
238.3933,4.382116
238.4291,4.351697
238.4608,4.321216
238.4885,4.290671
238.4885,4.290671
238.5784,4.264029
238.5784,4.264029
238.5910,4.248372
238.6322,4.226988
238.6692,4.287042
238.7074,4.200872
238.8218,4.171015
238.8357,4.268511
238.8549,4.283313
238.9581,4.272492
238.9806,4.138411
239.0506,4.279382
239.0506,4.279382
239.1892,4.104053
239.4529,4.068935
239.7769,4.034047
240.1664,4.000386
240.6268,3.968942
241.1634,3.940709
241.7814,3.916681
242.4860,3.897849
243.2827,3.885208
244.1765,3.879750
244.4463,3.881556
245.3288,3.889816
246.2512,3.903479
247.2026,3.921854
248.1721,3.944251
249.1484,3.969979
250.1208,3.998348
251.0783,4.028668
252.0097,4.060249
252.9042,4.092400
253.7507,4.124430
254.5382,4.155649
255.2558,4.185367
255.8925,4.212894
256.4372,4.237538
256.8790,4.258610
256.8790,4.258610
258.1763,4.290688
258.8941,4.335209
259.3970,4.376920
259.3970,4.376920
260.4569,4.410592
261.3084,4.433612
262.0508,4.448874
262.7834,4.459273
263.6057,4.467704
264.6168,4.477061
265.9162,4.490238
267.6031,4.510130
267.6031,4.510130
268.8022,4.535024
269.9581,4.561114
271.0761,4.588157
272.1614,4.615908
273.2193,4.644126
274.2550,4.672565
275.2739,4.700984
276.2812,4.729138
276.2812,4.729138
277.8725,4.746431
279.3139,4.749173
281.3398,4.746297
281.3398,4.746297
283.0193,4.762080
284.9791,4.782817
286.7998,4.802114
288.0620,4.813580
288.0620,4.813580
289.5668,4.801705
291.0404,4.782555
292.4741,4.758489
293.8591,4.731864
295.1866,4.705038
296.4479,4.680369
296.4479,4.680369
298.2855,4.668347
299.4670,4.654525
300.2535,4.635697
300.9062,4.608654
301.6862,4.570188
301.6862,4.570188
302.6766,4.506668
303.4778,4.456189
304.1168,4.416640
304.6210,4.385911
305.0174,4.361890
305.3334,4.342467
305.5960,4.325530
305.8326,4.308969
306.0703,4.290671
306.6323,4.260417
307.0918,4.229598
307.5513,4.198778
308.0109,4.167959
308.4706,4.137140
308.9304,4.106321
309.3904,4.075502
309.8506,4.044683
310.3110,4.013864
310.7717,3.983045
311.2326,3.952226
311.6939,3.921407
312.1556,3.890588
312.6177,3.859769
313.0801,3.828950
313.5431,3.798130
314.0065,3.767311
314.0065,3.767311
315.0232,3.769218
315.9950,3.772329
316.6370,3.772730
316.6370,3.772730
316.8193,3.759345
316.9826,3.746680
317.1586,3.731772
317.3789,3.711656
317.6750,3.683370
318.0786,3.643950
318.6214,3.590433
319.3348,3.519856
319.3348,3.519856
319.9868,3.518033
320.6388,3.516109
321.2908,3.513985
321.2908,3.513985
321.4099,3.505857
321.5389,3.497729
321.6730,3.489601
321.6730,3.489601
321.8394,3.458263
322.0058,3.426923
322.1723,3.395582
322.3389,3.364239
322.5057,3.332892
322.6726,3.301542
322.8399,3.270186
323.0074,3.238825
323.1752,3.207458
323.3433,3.176084
323.5119,3.144701
323.6809,3.113309
323.8504,3.081908
324.0204,3.050497
##END=
