##TITLE=5-Methyl-1,4-naphthalenedione
##JCAMP-DX=4.24
##DATA TYPE=UV/VIS SPECTRUM
##ORIGIN=INSTITUTE OF ENERGY PROBLEMS OF CHEMICAL PHYSICS, RAS
##OWNER=INEP CP RAS, NIST OSRD
Collection (C) 2007 copyright by the U.S. Secretary of Commerce
on behalf of the United States of America. All rights reserved.
##CAS REGISTRY NO=571-63-1
##MOLFORM=C11H8O2
##MP=121-123
##SOURCE REFERENCE=RAS UV No. 22368
##$NIST SQUIB=1977ROM/WIR38
##$NIST SOURCE=TYUGLMTE
##SPECTROMETER/DATA SYSTEM=Cary 14
##XUNITS=Wavelength (nm)
##YUNITS=Logarithm epsilon
##XFACTOR=1.0
##YFACTOR=1.0
##FIRSTX=265.37
##LASTX=392.59
##FIRSTY=3.566
##MAXX=392.59
##MINX=265.37
##MAXY=3.566
##MINY=2.635
##NPOINTS=130
##$ADDITIONAL INFORMATION=temperature 77K, glass
##$REF AUTHOR=Rommel, E.; Wirz, J.
##$REF JOURNAL=Helv. Chim. Acta
##$REF VOLUME=60
##$REF PAGE=38
##$REF DATE=1977
##XYPOINTS=(XY..XY)
265.370,3.566
265.896,3.506
266.370,3.419
267.370,3.288
268.370,3.172
269.370,3.071
270.370,2.986
271.370,2.917
271.854,2.889
272.730,2.855
273.444,2.827
274.444,2.802
275.444,2.779
276.444,2.761
277.444,2.746
278.444,2.736
279.444,2.729
280.444,2.726
281.444,2.726
282.444,2.730
283.444,2.737
284.444,2.748
285.444,2.760
286.444,2.776
287.444,2.793
288.444,2.811
289.444,2.831
290.444,2.851
291.444,2.872
292.444,2.893
293.444,2.913
294.444,2.933
295.444,2.951
296.444,2.969
297.444,2.985
298.590,3.000
299.590,3.013
300.590,3.026
301.590,3.040
302.590,3.053
303.590,3.067
304.590,3.081
305.590,3.095
306.590,3.110
307.590,3.124
308.590,3.138
309.590,3.152
310.590,3.167
311.590,3.181
312.590,3.195
313.590,3.209
314.590,3.223
315.590,3.237
316.590,3.250
317.590,3.264
318.590,3.277
319.590,3.290
320.590,3.303
321.590,3.315
322.590,3.328
323.590,3.340
324.590,3.352
325.590,3.363
326.590,3.375
327.590,3.386
328.590,3.397
329.590,3.407
330.590,3.417
331.590,3.427
332.590,3.436
333.590,3.445
334.590,3.453
335.590,3.462
336.590,3.469
337.590,3.477
338.590,3.483
339.590,3.490
340.590,3.495
341.590,3.501
342.590,3.505
343.590,3.510
344.590,3.513
345.590,3.516
346.590,3.519
347.590,3.521
348.590,3.522
349.590,3.522
350.590,3.522
351.590,3.521
352.590,3.519
353.590,3.517
354.590,3.514
355.590,3.510
356.590,3.505
357.590,3.499
358.590,3.492
359.590,3.485
360.590,3.476
361.590,3.467
362.590,3.456
363.590,3.445
364.590,3.433
365.590,3.419
366.590,3.405
367.590,3.389
368.590,3.373
369.590,3.355
370.590,3.336
371.590,3.316
372.590,3.295
373.590,3.273
374.590,3.249
375.590,3.225
376.590,3.199
377.590,3.172
378.590,3.144
379.590,3.114
380.590,3.084
381.590,3.052
382.590,3.020
383.590,2.986
384.590,2.951
385.590,2.915
386.590,2.878
387.590,2.839
388.590,2.800
389.590,2.760
390.590,2.719
391.590,2.677
392.590,2.635
##END=
