##TITLE=(E)-2-[(2-chloroethyl)thio]propane
##JCAMP-DX=4.24
##DATA TYPE=UV/VIS SPECTRUM
##ORIGIN=INSTITUTE OF ENERGY PROBLEMS OF CHEMICAL PHYSICS, RAS
##OWNER=INEP CP RAS, NIST OSRD
Collection (C) 2007 copyright by the U.S. Secretary of Commerce
on behalf of the United States of America. All rights reserved.
##CAS REGISTRY NO=57295-88-2
##MOLFORM=C5H9ClS
##SOURCE REFERENCE=RAS UV No. 23362
##$NIST SQUIB=1975TUR/PRO2099
##$NIST SOURCE=TYUGLMTE
##SPECTROMETER/DATA SYSTEM=Unicam SP 700
##XUNITS=Wavelength (nm)
##YUNITS=Logarithm epsilon
##XFACTOR=1.0
##YFACTOR=1.0
##FIRSTX=202.5
##LASTX=290
##FIRSTY=3.719
##MAXX=290
##MINX=202.5
##MAXY=3.767
##MINY=2.42
##NPOINTS=89
##$REF AUTHOR=Turecek, F.; Prochazka, M.
##$REF JOURNAL=Coll. Czech.Chem. Comm.
##$REF VOLUME=40
##$REF PAGE=2099
##$REF DATE=1975
##XYPOINTS=(XY..XY)
202.500,3.719
203.500,3.705
204.500,3.689
205.500,3.671
206.500,3.652
207.500,3.633
208.500,3.614
209.500,3.596
210.500,3.577
211.500,3.559
212.500,3.541
213.500,3.522
214.500,3.503
215.500,3.484
216.500,3.464
217.500,3.444
218.500,3.424
219.500,3.405
220.500,3.387
221.500,3.371
222.500,3.357
223.500,3.347
224.500,3.341
225.500,3.339
226.500,3.342
227.363,3.349
228.363,3.357
229.363,3.364
230.363,3.369
231.363,3.375
232.363,3.382
233.363,3.391
234.363,3.401
235.363,3.413
236.363,3.426
237.363,3.440
238.363,3.454
239.363,3.469
240.363,3.483
241.363,3.496
242.363,3.508
243.363,3.520
244.363,3.530
245.363,3.539
246.363,3.548
247.363,3.556
248.363,3.564
249.363,3.572
250.363,3.581
251.363,3.591
252.363,3.602
253.363,3.614
254.286,3.630
255.286,3.635
256.286,3.648
257.286,3.663
258.286,3.680
259.286,3.696
260.286,3.711
261.286,3.724
262.286,3.736
263.286,3.746
264.286,3.755
265.286,3.762
266.286,3.766
267.286,3.767
268.286,3.761
269.286,3.746
270.286,3.718
271.286,3.671
272.280,3.591
273.280,3.497
274.280,3.409
275.280,3.327
276.280,3.250
277.280,3.178
278.280,3.110
279.280,3.046
280.280,2.985
281.280,2.926
282.280,2.868
283.280,2.812
284.280,2.756
285.280,2.701
286.280,2.644
287.280,2.587
288.280,2.528
289.280,2.467
290.000,2.420
##END=
