##TITLE=(E)-2-[(2-chloroethenyl)thio]-2-metthylpropane
##JCAMP-DX=4.24
##DATA TYPE=UV/VIS SPECTRUM
##ORIGIN=INSTITUTE OF ENERGY PROBLEMS OF CHEMICAL PHYSICS, RAS
##OWNER=INEP CP RAS, NIST OSRD
Collection (C) 2007 copyright by the U.S. Secretary of Commerce
on behalf of the United States of America. All rights reserved.
##CAS REGISTRY NO=57295-89-3
##MOLFORM=C6H11ClS
##SOURCE REFERENCE=RAS UV No. 23361
##$NIST SQUIB=1975TUR/PRO2099
##$NIST SOURCE=TYUGLMTE
##SPECTROMETER/DATA SYSTEM=Unicam SP 700
##XUNITS=Wavelength (nm)
##YUNITS=Logarithm epsilon
##XFACTOR=1.0
##YFACTOR=1.0
##FIRSTX=204.27
##LASTX=291.289
##FIRSTY=3.993
##MAXX=291.289
##MINX=204.27
##MAXY=3.993
##MINY=2.555
##NPOINTS=90
##$REF AUTHOR=Turecek, F.; Prochazka, M.
##$REF JOURNAL=Coll. Czech. Chem. Comm.
##$REF VOLUME=40
##$REF PAGE=2099
##$REF DATE=1975
##XYPOINTS=(XY..XY)
204.270,3.993
205.270,3.949
206.270,3.913
207.270,3.885
208.270,3.863
209.270,3.845
210.270,3.831
211.270,3.819
212.270,3.809
213.270,3.799
214.270,3.790
215.270,3.780
216.270,3.769
217.270,3.756
218.270,3.742
219.270,3.727
220.270,3.709
221.270,3.690
222.270,3.669
223.270,3.647
224.270,3.625
225.270,3.601
226.270,3.578
227.270,3.556
228.270,3.535
229.270,3.516
230.270,3.500
231.088,3.489
232.088,3.483
233.088,3.477
234.088,3.472
235.088,3.467
236.088,3.464
237.088,3.461
238.088,3.460
239.088,3.459
240.088,3.459
241.088,3.461
242.088,3.464
243.088,3.467
244.088,3.472
245.088,3.477
246.088,3.483
247.088,3.490
248.088,3.497
249.088,3.505
250.088,3.513
251.088,3.522
252.088,3.531
252.956,3.540
253.956,3.551
254.956,3.561
255.956,3.571
256.956,3.582
257.956,3.593
258.956,3.606
259.956,3.619
260.956,3.633
261.956,3.648
262.956,3.663
263.956,3.678
264.956,3.691
265.956,3.704
266.956,3.714
267.956,3.722
268.956,3.726
269.956,3.726
270.956,3.723
271.956,3.715
272.956,3.703
273.035,3.703
274.035,3.680
275.035,3.656
276.035,3.616
277.035,3.557
277.057,3.556
278.057,3.480
279.057,3.406
280.057,3.334
281.057,3.263
282.057,3.194
283.057,3.125
284.057,3.057
285.057,2.989
286.057,2.921
287.057,2.853
288.057,2.784
289.057,2.713
290.057,2.641
291.289,2.555
##END=
