##TITLE=N-[(2-hydroxyphenyl)methylene]benzenesulfenamide
##JCAMP-DX=4.24
##DATA TYPE=UV/VIS SPECTRUM
##ORIGIN=INSTITUTE OF ENERGY PROBLEMS OF CHEMICAL PHYSICS, RAS
##OWNER=INEP CP RAS, NIST OSRD
Collection (C) 2007 copyright by the U.S. Secretary of Commerce
on behalf of the United States of America. All rights reserved.
##CAS REGISTRY NO=57272-48-7
##MOLFORM=C13H11NOS
##MP=82-83
##SOURCE REFERENCE=RAS UV No. 23214
##$NIST SQUIB=1975DAV/7085
##$NIST SOURCE=TYUGLMTE
##SPECTROMETER/DATA SYSTEM=Perkin-Elmer 402
##XUNITS=Wavelength (nm)
##YUNITS=Logarithm epsilon
##XFACTOR=1.0
##YFACTOR=1.0
##FIRSTX=244.215
##LASTX=375.357
##FIRSTY=3.933
##MAXX=375.357
##MINX=244.215
##MAXY=4.188
##MINY=1.821
##NPOINTS=132
##$REF AUTHOR=Davis, F.A.; et al.
##$REF JOURNAL=J. Am. Chem. Soc.
##$REF VOLUME=97
##$REF PAGE=7085
##$REF DATE=1975
##XYPOINTS=(XY..XY)
244.215,3.933
245.215,3.946
246.215,3.957
247.215,3.967
248.215,3.977
249.215,3.986
250.215,3.995
251.215,4.005
252.215,4.014
253.215,4.024
254.215,4.035
255.215,4.046
256.215,4.057
257.215,4.069
258.215,4.081
259.215,4.094
260.215,4.106
261.215,4.118
262.215,4.130
263.215,4.141
264.215,4.152
265.215,4.161
266.215,4.170
267.215,4.177
268.215,4.182
269.215,4.186
270.215,4.188
271.215,4.188
272.215,4.186
273.215,4.183
274.215,4.177
275.215,4.170
276.215,4.161
277.215,4.151
278.215,4.139
279.215,4.126
280.215,4.113
281.215,4.099
282.215,4.085
283.215,4.070
284.215,4.056
285.215,4.041
286.215,4.027
287.215,4.012
288.215,3.996
289.215,3.978
290.119,3.964
291.119,3.943
292.119,3.926
293.119,3.904
294.119,3.880
295.119,3.856
296.119,3.833
297.119,3.813
298.119,3.796
299.119,3.782
300.119,3.771
301.119,3.763
302.119,3.758
303.119,3.755
304.119,3.755
305.119,3.756
306.119,3.758
307.119,3.762
308.119,3.766
309.119,3.772
310.119,3.779
311.119,3.787
312.119,3.795
313.119,3.805
314.119,3.816
315.119,3.827
316.119,3.838
317.119,3.848
318.119,3.855
319.357,3.873
320.357,3.883
321.357,3.893
322.357,3.902
323.357,3.911
324.357,3.919
325.357,3.928
326.357,3.935
327.357,3.943
328.357,3.950
329.357,3.956
330.357,3.962
331.357,3.966
332.357,3.970
333.357,3.973
334.357,3.974
335.357,3.973
336.357,3.971
337.357,3.968
338.357,3.962
339.357,3.955
340.357,3.945
341.357,3.933
342.357,3.919
343.357,3.903
344.357,3.884
345.357,3.863
346.357,3.840
347.357,3.814
348.357,3.786
349.357,3.755
350.357,3.723
351.357,3.688
352.357,3.650
353.357,3.611
354.357,3.569
355.357,3.525
356.357,3.479
357.357,3.431
358.357,3.380
359.357,3.327
360.357,3.271
361.357,3.213
362.357,3.152
363.357,3.087
364.357,3.019
365.357,2.946
366.357,2.869
367.357,2.787
368.357,2.698
369.357,2.603
370.357,2.500
371.357,2.388
372.357,2.265
373.357,2.131
374.357,1.984
375.357,1.821
##END=
