##TITLE=1,3-Dimethylisophosphinoline
##JCAMP-DX=4.24
##DATA TYPE=UV/VIS SPECTRUM
##ORIGIN=INSTITUTE OF ENERGY PROBLEMS OF CHEMICAL PHYSICS, RAS
##OWNER=INEP CP RAS, NIST OSRD
Collection (C) 2007 copyright by the U.S. Secretary of Commerce
on behalf of the United States of America. All rights reserved.
##CAS REGISTRY NO=57328-61-7
##MOLFORM=C11H11P
##BP=70-0.01 mm
##SOURCE REFERENCE=RAS UV No. 23356
##$NIST SQUIB=1975GRA/BIC1097
##$NIST SOURCE=TYUGLMTE
##SPECTROMETER/DATA SYSTEM=Perkin-Elmer 137
##XUNITS=Wavelength (nm)
##YUNITS=Logarithm epsilon
##XFACTOR=1.0
##YFACTOR=1.0
##FIRSTX=234.84
##LASTX=363.119
##FIRSTY=4.307
##MAXX=363.119
##MINX=234.84
##MAXY=4.475
##MINY=2.472
##NPOINTS=5113
##$REF AUTHOR=Graaf, H.G.; Bickelhaupt, F.
##$REF JOURNAL=Tetrahedron
##$REF VOLUME=31
##$REF PAGE=1097
##$REF DATE=1975
##XYPOINTS=(XY..XY)
234.840,4.307
234.865,4.308
234.890,4.308
234.915,4.308
234.940,4.308
234.965,4.308
234.990,4.308
235.015,4.308
235.040,4.308
235.065,4.308
235.090,4.308
235.115,4.308
235.140,4.308
235.165,4.309
235.190,4.309
235.215,4.309
235.240,4.309
235.265,4.309
235.290,4.309
235.315,4.309
235.340,4.310
235.365,4.310
235.390,4.310
235.415,4.310
235.440,4.310
235.465,4.310
235.490,4.310
235.515,4.311
235.540,4.311
235.565,4.311
235.590,4.311
235.615,4.311
235.640,4.311
235.665,4.312
235.690,4.312
235.715,4.312
235.740,4.312
235.765,4.312
235.790,4.313
235.815,4.313
235.840,4.313
235.865,4.313
235.890,4.313
235.915,4.314
235.940,4.314
235.965,4.314
235.990,4.314
236.015,4.315
236.040,4.315
236.065,4.315
236.090,4.315
236.115,4.316
236.140,4.316
236.165,4.316
236.190,4.316
236.215,4.317
236.240,4.317
236.265,4.317
236.290,4.317
236.315,4.318
236.340,4.318
236.365,4.318
236.390,4.318
236.415,4.319
236.440,4.319
236.465,4.319
236.490,4.319
236.515,4.320
236.540,4.320
236.565,4.320
236.590,4.320
236.615,4.321
236.640,4.321
236.665,4.321
236.690,4.322
236.715,4.322
236.740,4.322
236.765,4.322
236.790,4.323
236.815,4.323
236.840,4.323
236.865,4.324
236.890,4.324
236.915,4.324
236.940,4.324
236.965,4.325
236.990,4.325
237.015,4.325
237.040,4.326
237.065,4.326
237.090,4.326
237.115,4.327
237.140,4.327
237.165,4.327
237.190,4.328
237.215,4.328
237.240,4.328
237.265,4.328
237.290,4.329
237.315,4.329
237.340,4.329
237.365,4.330
237.390,4.330
237.415,4.330
237.440,4.331
237.465,4.331
237.490,4.331
237.515,4.332
237.540,4.332
237.565,4.332
237.590,4.333
237.615,4.333
237.640,4.333
237.665,4.334
237.690,4.334
237.715,4.334
237.740,4.334
237.765,4.335
237.790,4.335
237.815,4.335
237.840,4.336
237.865,4.336
237.890,4.336
237.915,4.337
237.940,4.337
237.965,4.337
237.990,4.338
238.015,4.338
238.040,4.338
238.065,4.339
238.090,4.339
238.115,4.339
238.140,4.340
238.165,4.340
238.190,4.340
238.215,4.341
238.240,4.341
238.265,4.341
238.290,4.342
238.315,4.342
238.340,4.342
238.365,4.343
238.390,4.343
238.415,4.343
238.440,4.344
238.465,4.344
238.490,4.344
238.515,4.345
238.540,4.345
238.565,4.345
238.590,4.346
238.615,4.346
238.640,4.346
238.665,4.347
238.690,4.347
238.715,4.347
238.740,4.348
238.765,4.348
238.790,4.348
238.815,4.349
238.840,4.349
238.865,4.349
238.890,4.350
238.915,4.350
238.940,4.350
238.965,4.351
238.990,4.351
239.015,4.351
239.040,4.352
239.065,4.352
239.090,4.352
239.115,4.353
239.140,4.353
239.165,4.353
239.190,4.353
239.215,4.354
239.240,4.354
239.265,4.354
239.290,4.355
239.315,4.355
239.340,4.355
239.365,4.356
239.390,4.356
239.415,4.356
239.440,4.357
239.465,4.357
239.490,4.357
239.515,4.358
239.540,4.358
239.565,4.358
239.590,4.359
239.615,4.359
239.640,4.359
239.665,4.360
239.690,4.360
239.715,4.360
239.740,4.360
239.765,4.361
239.790,4.361
239.815,4.361
239.840,4.362
239.865,4.362
239.890,4.362
239.915,4.363
239.940,4.363
239.965,4.363
239.990,4.364
240.015,4.364
240.040,4.364
240.065,4.364
240.090,4.365
240.115,4.365
240.140,4.365
240.165,4.366
240.190,4.366
240.215,4.366
240.240,4.367
240.265,4.367
240.290,4.367
240.315,4.367
240.340,4.368
240.365,4.368
240.390,4.368
240.415,4.369
240.440,4.369
240.465,4.369
240.490,4.369
240.515,4.370
240.540,4.370
240.565,4.370
240.590,4.371
240.615,4.371
240.640,4.371
240.665,4.371
240.690,4.372
240.715,4.372
240.740,4.372
240.765,4.373
240.790,4.373
240.815,4.373
240.840,4.373
240.865,4.374
240.890,4.374
240.915,4.374
240.940,4.375
240.965,4.375
240.990,4.375
241.015,4.375
241.040,4.376
241.065,4.376
241.090,4.376
241.115,4.376
241.140,4.377
241.165,4.377
241.190,4.377
241.215,4.378
241.240,4.378
241.265,4.378
241.290,4.378
241.315,4.379
241.340,4.379
241.365,4.379
241.390,4.379
241.415,4.380
241.440,4.380
241.465,4.380
241.490,4.380
241.515,4.381
241.540,4.381
241.565,4.381
241.590,4.381
241.615,4.382
241.640,4.382
241.665,4.382
241.690,4.382
241.715,4.383
241.740,4.383
241.765,4.383
241.790,4.383
241.815,4.384
241.840,4.384
241.865,4.384
241.890,4.384
241.915,4.385
241.940,4.385
241.965,4.385
241.990,4.385
242.015,4.386
242.040,4.386
242.065,4.386
242.090,4.386
242.115,4.387
242.140,4.387
242.165,4.387
242.190,4.387
242.215,4.388
242.240,4.388
242.265,4.388
242.290,4.388
242.315,4.389
242.340,4.389
242.365,4.389
242.390,4.389
242.415,4.390
242.440,4.390
242.465,4.390
242.490,4.390
242.515,4.391
242.540,4.391
242.565,4.391
242.590,4.391
242.615,4.391
242.640,4.392
242.665,4.392
242.690,4.392
242.715,4.392
242.740,4.393
242.765,4.393
242.790,4.393
242.815,4.393
242.840,4.394
242.865,4.394
242.890,4.394
242.915,4.394
242.940,4.394
242.965,4.395
242.990,4.395
243.015,4.395
243.040,4.395
243.065,4.396
243.090,4.396
243.115,4.396
243.140,4.396
243.165,4.396
243.190,4.397
243.215,4.397
243.240,4.397
243.265,4.397
243.290,4.398
243.315,4.398
243.340,4.398
243.365,4.398
243.390,4.398
243.415,4.399
243.440,4.399
243.465,4.399
243.490,4.399
243.515,4.400
243.540,4.400
243.565,4.400
243.590,4.400
243.615,4.400
243.640,4.401
243.665,4.401
243.690,4.401
243.715,4.401
243.740,4.401
243.765,4.402
243.790,4.402
243.815,4.402
243.840,4.402
243.865,4.403
243.890,4.403
243.915,4.403
243.940,4.403
243.965,4.403
243.990,4.404
244.015,4.404
244.040,4.404
244.065,4.404
244.090,4.404
244.115,4.405
244.140,4.405
244.165,4.405
244.190,4.405
244.215,4.405
244.240,4.406
244.265,4.406
244.290,4.406
244.315,4.406
244.340,4.407
244.365,4.407
244.390,4.407
244.415,4.407
244.440,4.407
244.465,4.408
244.490,4.408
244.515,4.408
244.540,4.408
244.565,4.408
244.590,4.409
244.615,4.409
244.640,4.409
244.665,4.409
244.690,4.409
244.715,4.410
244.740,4.410
244.765,4.410
244.790,4.410
244.815,4.410
244.840,4.411
244.865,4.411
244.890,4.411
244.915,4.411
244.940,4.412
244.965,4.412
244.990,4.412
245.015,4.412
245.040,4.412
245.065,4.413
245.090,4.413
245.115,4.413
245.140,4.413
245.165,4.413
245.190,4.414
245.215,4.414
245.240,4.414
245.265,4.414
245.290,4.414
245.315,4.415
245.340,4.415
245.365,4.415
245.390,4.415
245.415,4.415
245.440,4.416
245.465,4.416
245.490,4.416
245.515,4.416
245.540,4.416
245.565,4.417
245.590,4.417
245.615,4.417
245.640,4.417
245.665,4.418
245.690,4.418
245.715,4.418
245.740,4.418
245.765,4.418
245.790,4.419
245.815,4.419
245.840,4.419
245.865,4.419
245.890,4.419
245.915,4.420
245.940,4.420
245.965,4.420
245.990,4.420
246.015,4.420
246.040,4.421
246.065,4.421
246.090,4.421
246.115,4.421
246.140,4.421
246.165,4.422
246.190,4.422
246.215,4.422
246.240,4.422
246.265,4.422
246.290,4.423
246.315,4.423
246.340,4.423
246.365,4.423
246.390,4.424
246.415,4.424
246.440,4.424
246.465,4.424
246.490,4.424
246.515,4.425
246.540,4.425
246.565,4.425
246.590,4.425
246.615,4.425
246.640,4.426
246.665,4.426
246.690,4.426
246.715,4.426
246.740,4.426
246.765,4.427
246.790,4.427
246.815,4.427
246.840,4.427
246.865,4.427
246.890,4.428
246.915,4.428
246.940,4.428
246.965,4.428
246.990,4.428
247.015,4.429
247.040,4.429
247.065,4.429
247.090,4.429
247.115,4.429
247.140,4.430
247.165,4.430
247.190,4.430
247.215,4.430
247.240,4.431
247.265,4.431
247.290,4.431
247.315,4.431
247.340,4.431
247.365,4.432
247.390,4.432
247.415,4.432
247.440,4.432
247.465,4.432
247.490,4.433
247.515,4.433
247.540,4.433
247.565,4.433
247.590,4.433
247.615,4.434
247.640,4.434
247.665,4.434
247.690,4.434
247.715,4.434
247.740,4.435
247.765,4.435
248.011,4.437
248.036,4.438
248.061,4.438
248.086,4.439
248.111,4.439
248.136,4.439
248.161,4.440
248.186,4.440
248.211,4.440
248.236,4.441
248.261,4.441
248.286,4.442
248.311,4.442
248.336,4.442
248.361,4.443
248.386,4.443
248.411,4.443
248.436,4.444
248.461,4.444
248.486,4.445
248.511,4.445
248.536,4.445
248.561,4.446
248.586,4.446
248.611,4.446
248.636,4.447
248.661,4.447
248.686,4.448
248.711,4.448
248.736,4.448
248.761,4.449
248.786,4.449
248.811,4.449
248.836,4.450
248.861,4.450
248.886,4.451
248.911,4.451
248.936,4.451
248.961,4.452
248.986,4.452
249.011,4.452
249.036,4.453
249.061,4.453
249.086,4.454
249.111,4.454
249.136,4.454
249.161,4.455
249.186,4.455
249.211,4.455
249.236,4.456
249.261,4.456
249.286,4.456
249.311,4.457
249.336,4.457
249.361,4.457
249.386,4.458
249.411,4.458
249.436,4.458
249.461,4.459
249.486,4.459
249.511,4.459
249.536,4.460
249.561,4.460
249.586,4.460
249.611,4.461
249.636,4.461
249.661,4.461
249.686,4.462
249.711,4.462
249.736,4.462
249.761,4.462
249.786,4.463
249.811,4.463
249.836,4.463
249.861,4.464
249.886,4.464
249.911,4.464
249.936,4.464
249.961,4.465
249.986,4.465
250.011,4.465
250.036,4.466
250.061,4.466
250.086,4.466
250.111,4.466
250.136,4.467
250.161,4.467
250.186,4.467
250.211,4.467
250.236,4.468
250.261,4.468
250.286,4.468
250.311,4.468
250.336,4.469
250.361,4.469
250.386,4.469
250.411,4.469
250.436,4.469
250.461,4.470
250.486,4.470
250.511,4.470
250.536,4.470
250.561,4.470
250.586,4.471
250.611,4.471
250.636,4.471
250.661,4.471
250.686,4.471
250.711,4.471
250.736,4.472
250.761,4.472
250.786,4.472
250.811,4.472
250.836,4.472
250.861,4.472
250.886,4.473
250.911,4.473
250.936,4.473
250.961,4.473
250.986,4.473
251.011,4.473
251.036,4.473
251.061,4.473
251.086,4.473
251.111,4.474
251.136,4.474
251.161,4.474
251.186,4.474
251.211,4.474
251.236,4.474
251.261,4.474
251.286,4.474
251.311,4.474
251.336,4.474
251.361,4.474
251.386,4.474
251.411,4.474
251.436,4.474
251.461,4.474
251.486,4.474
251.511,4.475
251.536,4.475
251.561,4.475
251.586,4.475
251.611,4.475
251.636,4.475
251.661,4.475
251.686,4.475
251.711,4.474
251.736,4.474
251.761,4.474
251.786,4.474
251.811,4.474
251.836,4.474
251.861,4.474
251.886,4.474
251.911,4.474
251.936,4.474
251.961,4.474
251.986,4.474
252.011,4.474
252.036,4.474
252.061,4.474
252.086,4.474
252.111,4.473
252.136,4.473
252.161,4.473
252.186,4.473
252.211,4.473
252.236,4.473
252.261,4.473
252.286,4.473
252.311,4.472
252.336,4.472
252.361,4.472
252.386,4.472
252.411,4.472
252.436,4.472
252.461,4.471
252.486,4.471
252.511,4.471
252.536,4.471
252.561,4.471
252.586,4.470
252.611,4.470
252.636,4.470
252.661,4.470
252.686,4.470
252.711,4.469
252.736,4.469
252.761,4.469
252.786,4.469
252.811,4.468
252.836,4.468
252.861,4.468
252.886,4.468
252.911,4.467
252.936,4.467
252.961,4.467
252.986,4.466
253.011,4.466
253.036,4.466
253.061,4.465
253.086,4.465
253.111,4.465
253.136,4.465
253.161,4.464
253.186,4.464
253.211,4.463
253.236,4.463
253.261,4.463
253.286,4.462
253.311,4.462
253.336,4.462
253.361,4.461
253.386,4.461
253.411,4.460
253.436,4.460
253.461,4.460
253.486,4.459
253.511,4.459
253.536,4.458
253.561,4.458
253.586,4.458
253.611,4.457
253.636,4.457
253.661,4.456
253.686,4.456
253.711,4.455
253.736,4.455
253.761,4.454
253.786,4.454
253.811,4.453
253.836,4.453
253.861,4.452
253.886,4.452
253.911,4.451
253.936,4.451
253.961,4.450
253.986,4.450
254.011,4.449
254.036,4.449
254.061,4.448
254.086,4.448
254.111,4.447
254.136,4.447
254.161,4.446
254.186,4.446
254.211,4.445
254.236,4.444
254.261,4.444
254.286,4.443
254.311,4.443
254.336,4.442
254.361,4.441
254.386,4.441
254.411,4.440
254.436,4.440
254.461,4.439
254.486,4.438
254.511,4.438
254.536,4.437
254.561,4.436
254.586,4.436
254.611,4.435
254.636,4.434
254.661,4.434
254.686,4.433
254.711,4.432
254.736,4.432
254.761,4.431
254.786,4.430
254.811,4.430
254.836,4.429
254.861,4.428
254.886,4.428
254.911,4.427
254.936,4.426
254.961,4.425
254.986,4.425
255.011,4.424
255.036,4.423
255.061,4.423
255.086,4.422
255.111,4.421
255.136,4.420
255.161,4.419
255.186,4.419
255.211,4.418
255.236,4.417
255.261,4.416
255.286,4.416
255.311,4.415
255.336,4.414
255.361,4.413
255.386,4.412
255.411,4.412
255.436,4.411
255.461,4.410
255.486,4.409
255.511,4.408
255.536,4.407
255.561,4.407
255.586,4.406
255.611,4.405
255.636,4.404
255.661,4.403
255.686,4.402
255.711,4.402
255.736,4.401
255.761,4.400
255.786,4.399
255.811,4.398
255.836,4.397
255.861,4.396
255.886,4.395
255.911,4.395
255.936,4.394
255.961,4.393
255.986,4.392
256.011,4.391
256.036,4.390
256.061,4.389
256.086,4.388
256.111,4.387
256.136,4.386
256.161,4.385
256.186,4.384
256.211,4.383
256.236,4.383
256.261,4.382
256.286,4.381
256.311,4.380
256.336,4.379
256.361,4.378
256.386,4.377
256.411,4.376
256.436,4.375
256.461,4.374
256.486,4.373
256.511,4.372
256.536,4.371
256.561,4.370
256.586,4.369
256.611,4.368
256.636,4.367
256.661,4.366
256.686,4.365
256.711,4.364
256.736,4.363
256.761,4.362
256.786,4.361
256.811,4.360
256.836,4.359
256.861,4.358
256.886,4.357
256.911,4.356
256.936,4.355
256.961,4.354
256.986,4.353
257.011,4.352
257.036,4.351
257.061,4.350
257.086,4.349
257.111,4.348
257.136,4.347
257.161,4.346
257.186,4.344
257.211,4.343
257.236,4.342
257.261,4.341
257.286,4.340
257.311,4.339
257.336,4.338
257.361,4.337
257.386,4.336
257.411,4.335
257.436,4.334
257.461,4.333
257.486,4.332
257.511,4.331
257.536,4.330
257.561,4.329
257.586,4.327
257.611,4.326
257.636,4.325
257.661,4.324
257.686,4.323
257.711,4.322
257.736,4.321
257.761,4.320
257.786,4.319
257.811,4.318
257.836,4.317
257.861,4.316
257.886,4.314
257.911,4.313
257.936,4.312
257.961,4.311
257.986,4.310
258.011,4.309
258.036,4.308
258.061,4.307
258.086,4.306
258.111,4.305
258.136,4.303
258.161,4.302
258.186,4.301
258.211,4.300
258.236,4.299
258.261,4.298
258.286,4.297
258.311,4.296
258.336,4.295
258.361,4.294
258.386,4.293
258.411,4.291
258.436,4.290
258.461,4.289
258.486,4.288
258.511,4.287
258.536,4.286
258.561,4.285
258.586,4.284
258.611,4.283
258.636,4.282
258.661,4.281
258.686,4.279
258.711,4.278
258.736,4.277
258.761,4.276
258.786,4.275
258.811,4.274
258.836,4.273
258.861,4.272
258.886,4.271
258.911,4.270
258.936,4.269
258.961,4.268
258.986,4.267
259.011,4.265
259.036,4.264
259.061,4.263
259.086,4.262
259.111,4.261
259.136,4.260
259.161,4.259
259.186,4.258
259.211,4.257
259.236,4.256
259.261,4.255
259.286,4.254
259.311,4.253
259.336,4.252
259.361,4.251
259.386,4.250
259.411,4.249
259.436,4.248
259.461,4.247
259.486,4.246
259.511,4.245
259.536,4.244
259.561,4.243
259.586,4.241
259.611,4.240
259.636,4.239
259.661,4.238
259.686,4.237
259.711,4.236
259.736,4.235
259.761,4.235
259.786,4.234
259.811,4.233
259.836,4.232
259.861,4.231
259.886,4.230
259.911,4.229
259.936,4.228
259.961,4.227
259.986,4.226
260.011,4.225
260.036,4.224
260.061,4.223
260.086,4.222
260.111,4.221
260.136,4.220
260.161,4.219
260.186,4.218
260.211,4.217
260.236,4.217
260.261,4.216
260.286,4.215
260.311,4.214
260.336,4.213
260.361,4.212
260.386,4.211
260.411,4.210
260.436,4.209
260.461,4.209
260.486,4.208
260.511,4.207
260.536,4.206
260.561,4.205
260.586,4.204
260.611,4.204
260.636,4.203
260.661,4.202
260.686,4.201
260.711,4.200
260.736,4.200
260.761,4.199
260.786,4.198
260.811,4.197
260.836,4.196
260.861,4.196
260.886,4.195
260.911,4.194
260.936,4.193
260.961,4.193
260.986,4.192
261.011,4.191
261.036,4.191
261.061,4.190
261.086,4.189
261.111,4.188
261.136,4.188
261.161,4.187
261.186,4.186
261.211,4.186
261.236,4.185
261.261,4.185
261.286,4.184
261.311,4.183
261.336,4.183
261.361,4.182
261.386,4.181
261.411,4.181
261.436,4.180
261.461,4.180
261.486,4.179
261.511,4.179
261.536,4.178
261.561,4.178
261.586,4.177
261.611,4.176
261.636,4.176
261.661,4.175
261.686,4.175
261.711,4.175
261.736,4.174
261.761,4.174
261.786,4.173
261.811,4.173
261.836,4.172
261.861,4.172
261.886,4.171
261.911,4.171
261.936,4.171
261.961,4.170
261.986,4.170
262.011,4.170
262.036,4.169
262.061,4.169
262.086,4.168
262.111,4.168
262.136,4.168
262.161,4.168
262.186,4.167
262.211,4.167
262.236,4.167
262.261,4.167
262.286,4.166
262.311,4.166
262.336,4.166
262.361,4.166
262.386,4.165
262.411,4.165
262.436,4.165
262.436,4.166
262.461,4.166
262.486,4.165
262.511,4.165
262.536,4.165
262.561,4.165
262.586,4.164
262.611,4.164
262.636,4.164
262.661,4.163
262.686,4.163
262.711,4.162
262.736,4.162
262.761,4.162
262.786,4.161
262.811,4.161
262.836,4.160
262.861,4.160
262.886,4.160
262.911,4.159
262.936,4.159
262.961,4.158
262.986,4.158
263.011,4.157
263.036,4.157
263.061,4.156
263.086,4.156
263.111,4.155
263.136,4.155
263.161,4.154
263.186,4.154
263.211,4.153
263.236,4.153
263.261,4.152
263.286,4.151
263.311,4.151
263.336,4.150
263.361,4.150
263.386,4.149
263.411,4.149
263.436,4.148
263.461,4.147
263.486,4.147
263.511,4.146
263.536,4.145
263.561,4.145
263.586,4.144
263.611,4.143
263.636,4.143
263.661,4.142
263.686,4.141
263.711,4.141
263.736,4.140
263.761,4.139
263.786,4.139
263.811,4.138
263.836,4.137
263.861,4.136
263.886,4.136
263.911,4.135
263.936,4.134
263.961,4.133
263.986,4.133
264.011,4.132
264.036,4.131
264.061,4.130
264.086,4.129
264.111,4.129
264.136,4.128
264.161,4.127
264.186,4.126
264.211,4.125
264.236,4.125
264.261,4.124
264.286,4.123
264.311,4.122
264.336,4.121
264.361,4.120
264.386,4.120
264.411,4.119
264.436,4.118
264.461,4.117
264.486,4.116
264.511,4.115
264.536,4.114
264.561,4.113
264.586,4.112
264.611,4.112
264.636,4.111
264.661,4.110
264.686,4.109
264.711,4.108
264.736,4.107
264.761,4.106
264.786,4.105
264.811,4.104
264.836,4.103
264.861,4.102
264.886,4.101
264.911,4.100
264.936,4.100
264.961,4.099
264.986,4.098
265.011,4.097
265.036,4.096
265.061,4.095
265.086,4.094
265.111,4.093
265.136,4.092
265.161,4.091
265.186,4.090
265.211,4.089
265.236,4.088
265.261,4.087
265.286,4.086
265.311,4.085
265.336,4.084
265.361,4.083
265.386,4.082
265.411,4.081
265.436,4.080
265.461,4.079
265.486,4.078
265.511,4.077
265.536,4.076
265.561,4.075
265.586,4.074
265.611,4.073
265.636,4.072
265.661,4.070
265.686,4.069
265.711,4.068
265.736,4.067
265.761,4.066
265.786,4.065
265.811,4.064
265.836,4.063
265.861,4.062
265.886,4.061
265.911,4.060
265.936,4.059
265.961,4.058
265.986,4.057
266.011,4.056
266.036,4.055
266.061,4.054
266.086,4.053
266.111,4.051
266.136,4.050
266.161,4.049
266.186,4.048
266.211,4.047
266.236,4.046
266.261,4.045
266.286,4.044
266.311,4.043
266.336,4.042
266.361,4.041
266.386,4.040
266.411,4.039
266.436,4.037
266.461,4.036
266.486,4.035
266.511,4.034
266.536,4.033
266.561,4.032
266.586,4.031
266.611,4.030
266.636,4.029
266.661,4.028
266.686,4.027
266.711,4.025
266.736,4.024
266.761,4.023
266.786,4.022
266.811,4.021
266.836,4.020
266.861,4.019
266.886,4.018
266.911,4.017
266.936,4.016
266.961,4.015
266.986,4.013
267.011,4.012
267.036,4.011
267.061,4.010
267.086,4.009
267.111,4.008
267.136,4.007
267.161,4.006
267.186,4.005
267.211,4.004
267.236,4.003
267.261,4.001
267.286,4.000
267.311,3.999
267.336,3.998
267.361,3.997
267.386,3.996
267.411,3.995
267.436,3.994
267.461,3.993
267.486,3.992
267.511,3.991
267.536,3.990
267.561,3.989
267.586,3.987
267.611,3.986
267.636,3.985
267.661,3.984
267.686,3.983
267.711,3.982
267.736,3.981
267.761,3.980
267.786,3.979
267.811,3.978
267.836,3.977
267.861,3.976
267.886,3.975
267.911,3.974
267.936,3.973
267.961,3.971
267.986,3.970
268.011,3.969
268.036,3.968
268.061,3.967
268.086,3.966
268.111,3.965
268.136,3.964
268.161,3.963
268.186,3.962
268.211,3.961
268.236,3.960
268.261,3.959
268.286,3.958
268.311,3.957
268.336,3.956
268.361,3.955
268.386,3.954
268.411,3.953
268.436,3.952
268.461,3.951
268.486,3.950
268.511,3.949
268.536,3.948
268.561,3.947
268.586,3.946
268.611,3.945
268.636,3.944
268.661,3.943
268.686,3.942
268.711,3.941
268.736,3.940
268.761,3.939
268.786,3.938
268.811,3.937
268.836,3.936
268.861,3.935
268.886,3.934
268.911,3.933
268.936,3.932
268.961,3.931
268.986,3.930
269.011,3.929
269.036,3.928
269.061,3.927
269.086,3.926
269.111,3.925
269.136,3.924
269.161,3.923
269.186,3.922
269.211,3.921
269.236,3.920
269.261,3.920
269.286,3.919
269.311,3.918
269.336,3.917
269.361,3.916
269.386,3.915
269.411,3.914
269.436,3.913
269.461,3.912
269.486,3.911
269.511,3.910
269.536,3.909
269.561,3.909
269.586,3.908
269.611,3.907
269.636,3.906
269.661,3.905
269.686,3.904
269.711,3.903
269.736,3.902
269.761,3.902
269.786,3.901
269.811,3.900
269.836,3.899
269.861,3.898
269.886,3.897
269.911,3.896
269.936,3.896
269.961,3.895
269.986,3.894
270.011,3.893
270.036,3.892
270.061,3.891
270.086,3.891
270.111,3.890
270.136,3.889
270.161,3.888
270.186,3.887
270.211,3.886
270.236,3.886
270.261,3.885
270.286,3.884
270.311,3.883
270.336,3.882
270.361,3.882
270.386,3.881
270.411,3.880
270.436,3.879
270.461,3.879
270.486,3.878
270.511,3.877
270.536,3.876
270.561,3.876
270.586,3.875
270.611,3.874
270.636,3.873
270.661,3.873
270.686,3.872
270.711,3.871
270.736,3.870
270.761,3.870
270.786,3.869
270.811,3.868
270.836,3.868
270.861,3.867
270.886,3.866
270.911,3.865
270.936,3.865
270.961,3.864
270.986,3.863
271.011,3.863
271.036,3.862
271.061,3.861
271.086,3.861
271.111,3.860
271.136,3.859
271.161,3.859
271.186,3.858
271.211,3.857
271.236,3.857
271.261,3.856
271.286,3.855
271.311,3.855
271.336,3.854
271.361,3.854
271.386,3.853
271.411,3.852
271.436,3.852
271.461,3.851
271.486,3.851
271.511,3.850
271.536,3.849
271.561,3.849
271.586,3.848
271.611,3.848
271.636,3.847
271.661,3.846
271.686,3.846
271.711,3.845
271.736,3.845
271.761,3.844
271.786,3.844
271.811,3.843
271.836,3.842
271.861,3.842
271.886,3.841
271.911,3.841
271.936,3.840
271.961,3.840
271.986,3.839
272.011,3.839
272.036,3.838
272.061,3.838
272.086,3.837
272.111,3.837
272.136,3.836
272.161,3.836
272.186,3.835
272.211,3.835
272.236,3.834
272.261,3.834
272.286,3.833
272.311,3.833
272.336,3.832
272.361,3.832
272.386,3.831
272.411,3.831
272.436,3.831
272.461,3.830
272.486,3.830
272.511,3.829
272.536,3.829
272.561,3.828
272.586,3.828
272.611,3.828
272.636,3.827
272.661,3.827
272.686,3.826
272.711,3.826
272.736,3.826
272.761,3.825
272.786,3.825
272.811,3.824
272.836,3.824
272.861,3.824
272.886,3.823
272.911,3.823
272.936,3.823
272.961,3.822
272.986,3.822
273.011,3.821
273.036,3.821
273.061,3.821
273.086,3.820
273.111,3.820
273.136,3.820
273.161,3.819
273.186,3.819
273.211,3.819
273.236,3.818
273.261,3.818
273.286,3.818
273.311,3.817
273.336,3.817
273.361,3.817
273.386,3.817
273.411,3.816
273.436,3.816
273.461,3.816
273.486,3.815
273.511,3.815
273.536,3.815
273.561,3.815
273.586,3.814
273.611,3.814
273.636,3.814
273.661,3.814
273.686,3.813
273.711,3.813
273.736,3.813
273.761,3.813
273.786,3.812
273.811,3.812
273.836,3.812
273.861,3.812
273.886,3.811
273.911,3.811
273.936,3.811
273.961,3.811
273.986,3.811
274.011,3.810
274.036,3.810
274.061,3.810
274.086,3.810
274.111,3.810
274.136,3.809
274.161,3.809
274.186,3.809
274.211,3.809
274.236,3.809
274.261,3.809
274.286,3.808
274.311,3.808
274.336,3.808
274.361,3.808
274.386,3.808
274.411,3.808
274.436,3.807
274.461,3.807
274.486,3.807
274.511,3.807
274.536,3.807
274.561,3.807
274.586,3.807
274.611,3.806
274.636,3.806
274.661,3.806
274.686,3.806
274.711,3.806
274.736,3.806
274.761,3.806
274.786,3.806
274.811,3.806
274.836,3.805
274.861,3.805
274.886,3.805
274.911,3.805
274.936,3.805
274.961,3.805
274.986,3.805
275.011,3.805
275.036,3.805
275.061,3.805
275.086,3.805
275.111,3.805
275.136,3.804
275.161,3.804
275.186,3.804
275.211,3.804
275.236,3.804
275.261,3.804
275.286,3.804
275.311,3.804
275.336,3.804
275.361,3.804
275.386,3.804
275.411,3.804
275.436,3.804
275.461,3.804
275.486,3.804
275.511,3.804
275.536,3.804
275.561,3.804
275.586,3.804
275.611,3.804
275.636,3.804
275.661,3.804
275.686,3.804
275.711,3.804
275.736,3.804
275.761,3.804
275.786,3.803
275.811,3.803
275.836,3.803
275.861,3.803
275.886,3.803
275.911,3.803
275.936,3.803
275.961,3.803
275.986,3.803
276.011,3.803
276.036,3.803
276.061,3.803
276.086,3.803
276.111,3.803
276.136,3.803
276.161,3.803
276.186,3.803
276.211,3.804
276.236,3.804
276.261,3.804
276.286,3.804
276.311,3.804
276.336,3.804
276.361,3.804
276.386,3.804
276.411,3.804
276.436,3.804
276.461,3.804
276.486,3.804
276.511,3.804
276.536,3.804
276.561,3.804
276.586,3.804
276.611,3.804
276.636,3.804
276.661,3.804
276.686,3.804
276.711,3.804
276.736,3.804
276.761,3.804
276.786,3.804
276.811,3.804
276.836,3.804
276.861,3.804
276.886,3.804
276.911,3.804
276.936,3.804
276.961,3.804
276.986,3.804
277.011,3.804
277.036,3.804
277.061,3.804
277.086,3.804
277.111,3.804
277.136,3.804
277.161,3.805
277.186,3.805
277.211,3.805
277.236,3.805
277.261,3.805
277.286,3.805
277.311,3.805
277.336,3.805
277.361,3.805
277.386,3.805
277.411,3.805
277.436,3.805
277.461,3.805
277.486,3.805
277.511,3.805
277.536,3.805
277.561,3.805
277.586,3.805
277.611,3.805
277.636,3.805
277.661,3.805
277.686,3.805
277.711,3.805
277.736,3.805
277.761,3.805
277.786,3.805
277.811,3.805
277.836,3.805
277.861,3.805
277.886,3.805
277.967,3.805
278.100,3.806
278.125,3.806
278.150,3.806
278.175,3.806
278.200,3.806
278.225,3.806
278.250,3.806
278.275,3.806
278.300,3.806
278.325,3.806
278.350,3.806
278.375,3.806
278.400,3.806
278.425,3.807
278.450,3.807
278.475,3.807
278.500,3.807
278.525,3.807
278.550,3.807
278.575,3.807
278.600,3.807
278.625,3.807
278.650,3.807
278.675,3.807
278.700,3.807
278.725,3.807
278.750,3.807
278.775,3.807
278.800,3.807
278.825,3.808
278.850,3.808
278.875,3.808
278.900,3.808
278.925,3.808
278.950,3.808
278.975,3.808
279.000,3.808
279.025,3.808
279.050,3.808
279.075,3.808
279.100,3.808
279.125,3.808
279.150,3.808
279.175,3.808
279.200,3.809
279.225,3.809
279.250,3.809
279.275,3.809
279.300,3.809
279.325,3.809
279.350,3.809
279.375,3.809
279.400,3.809
279.425,3.809
279.450,3.809
279.475,3.809
279.500,3.809
279.525,3.809
279.550,3.809
279.575,3.809
279.600,3.810
279.625,3.810
279.650,3.810
279.675,3.810
279.700,3.810
279.725,3.810
279.750,3.810
279.775,3.810
279.800,3.810
279.825,3.810
279.850,3.810
279.875,3.810
279.900,3.810
279.925,3.810
279.950,3.810
279.975,3.810
280.000,3.811
280.025,3.811
280.050,3.811
280.075,3.811
280.100,3.811
280.125,3.811
280.150,3.811
280.175,3.811
280.200,3.811
280.225,3.811
280.250,3.811
280.275,3.811
280.300,3.811
280.325,3.811
280.350,3.811
280.375,3.812
280.400,3.812
280.425,3.812
280.450,3.812
280.475,3.812
280.500,3.812
280.525,3.812
280.550,3.812
280.575,3.812
280.600,3.812
280.625,3.812
280.650,3.812
280.675,3.812
280.700,3.812
280.725,3.812
280.750,3.812
280.775,3.813
280.800,3.813
280.825,3.813
280.850,3.813
280.875,3.813
280.900,3.813
280.925,3.813
280.950,3.813
280.975,3.813
281.000,3.813
281.025,3.813
281.050,3.813
281.075,3.813
281.100,3.813
281.125,3.813
281.150,3.814
281.175,3.814
281.200,3.814
281.225,3.814
281.250,3.814
281.275,3.814
281.300,3.814
281.325,3.814
281.350,3.814
281.375,3.814
281.400,3.814
281.425,3.814
281.450,3.814
281.475,3.814
281.500,3.815
281.525,3.815
281.550,3.815
281.575,3.815
281.600,3.815
281.625,3.815
281.650,3.815
281.675,3.815
281.700,3.815
281.725,3.815
281.750,3.815
281.775,3.815
281.800,3.815
281.825,3.815
281.850,3.815
281.875,3.816
281.900,3.816
281.925,3.816
281.950,3.816
281.975,3.816
282.000,3.816
282.025,3.816
282.050,3.816
282.075,3.816
282.100,3.816
282.125,3.816
282.150,3.816
282.175,3.816
282.200,3.816
282.225,3.817
282.250,3.817
282.275,3.817
282.300,3.817
282.325,3.817
282.350,3.817
282.375,3.817
282.400,3.817
282.425,3.817
282.450,3.817
282.475,3.817
282.500,3.817
282.525,3.817
282.550,3.817
282.575,3.818
282.600,3.818
282.625,3.818
282.650,3.818
282.675,3.818
282.700,3.818
282.725,3.818
282.750,3.818
282.775,3.818
282.800,3.818
282.825,3.818
282.850,3.818
282.875,3.818
282.900,3.818
282.925,3.819
282.950,3.819
282.975,3.819
283.000,3.819
283.025,3.819
283.050,3.819
283.075,3.819
283.100,3.819
283.125,3.819
283.150,3.819
283.175,3.819
283.200,3.819
283.225,3.819
283.250,3.819
283.275,3.820
283.300,3.820
283.325,3.820
283.350,3.820
283.375,3.820
283.400,3.820
283.425,3.820
283.450,3.820
283.475,3.820
283.500,3.820
283.525,3.820
283.550,3.820
283.575,3.820
283.600,3.820
283.625,3.821
283.650,3.821
283.675,3.821
283.700,3.821
283.725,3.821
283.750,3.821
283.775,3.821
283.800,3.821
283.825,3.821
283.850,3.821
283.875,3.821
283.900,3.821
283.925,3.821
283.950,3.822
283.975,3.822
284.000,3.822
284.025,3.822
284.050,3.822
284.075,3.822
284.100,3.822
284.125,3.822
284.150,3.822
284.175,3.822
284.200,3.822
284.225,3.822
284.250,3.822
284.275,3.823
284.300,3.823
284.325,3.823
284.350,3.823
284.375,3.823
284.400,3.823
284.425,3.823
284.450,3.823
284.475,3.823
284.500,3.823
284.525,3.823
284.550,3.823
284.575,3.823
284.600,3.824
284.625,3.824
284.650,3.824
284.675,3.824
284.700,3.824
284.725,3.824
284.750,3.824
284.775,3.824
284.800,3.824
284.825,3.824
284.850,3.824
284.875,3.824
284.900,3.824
284.925,3.825
284.950,3.825
284.975,3.825
285.000,3.825
285.025,3.825
285.050,3.825
285.075,3.825
285.100,3.825
285.125,3.825
285.150,3.825
285.175,3.825
285.200,3.825
285.225,3.826
285.250,3.826
285.275,3.826
285.300,3.826
285.325,3.826
285.350,3.826
285.375,3.826
285.400,3.826
285.425,3.826
285.450,3.826
285.475,3.826
285.500,3.826
285.525,3.826
285.550,3.827
285.575,3.827
285.600,3.827
285.625,3.827
285.650,3.827
285.675,3.827
285.700,3.827
285.725,3.827
285.750,3.827
285.775,3.827
285.800,3.827
285.825,3.827
285.850,3.828
285.875,3.828
285.900,3.828
285.925,3.828
285.950,3.828
285.975,3.828
286.000,3.828
286.025,3.828
286.050,3.828
286.075,3.828
286.100,3.828
286.125,3.828
286.150,3.829
286.175,3.829
286.200,3.829
286.225,3.829
286.250,3.829
286.275,3.829
286.300,3.829
286.325,3.829
286.350,3.829
286.375,3.829
286.400,3.829
286.425,3.829
286.450,3.830
286.475,3.830
286.500,3.830
286.525,3.830
286.550,3.830
286.575,3.830
286.600,3.830
286.625,3.830
286.650,3.830
286.675,3.830
286.700,3.830
286.725,3.830
286.750,3.831
286.775,3.831
286.800,3.831
286.825,3.831
286.850,3.831
286.875,3.831
286.900,3.831
286.925,3.831
286.950,3.831
286.975,3.831
287.000,3.831
287.025,3.831
287.050,3.832
287.075,3.832
287.100,3.832
287.125,3.832
287.150,3.832
287.175,3.832
287.200,3.832
287.225,3.832
287.250,3.832
287.275,3.832
287.300,3.832
287.325,3.832
287.350,3.833
287.375,3.833
287.400,3.833
287.425,3.833
287.450,3.833
287.475,3.833
287.500,3.833
287.525,3.833
287.550,3.833
287.575,3.833
287.600,3.833
287.625,3.833
287.650,3.834
287.675,3.834
287.700,3.834
287.725,3.834
287.750,3.834
287.775,3.834
287.800,3.834
287.825,3.834
287.850,3.834
287.875,3.834
287.900,3.834
287.925,3.834
287.950,3.835
287.975,3.835
288.000,3.835
288.025,3.835
288.050,3.835
288.075,3.835
288.100,3.835
288.125,3.835
288.150,3.835
288.175,3.835
288.200,3.835
288.225,3.836
288.250,3.836
288.275,3.836
288.300,3.836
288.325,3.836
288.350,3.836
288.375,3.836
288.400,3.836
288.425,3.836
288.450,3.836
288.475,3.836
288.500,3.836
288.525,3.837
288.550,3.837
288.575,3.837
288.600,3.837
288.625,3.837
288.650,3.837
288.675,3.837
288.700,3.837
288.725,3.837
288.750,3.837
288.775,3.837
288.800,3.837
288.825,3.838
288.850,3.838
288.875,3.838
288.900,3.838
288.925,3.838
288.950,3.838
288.975,3.838
289.000,3.838
289.025,3.838
289.050,3.838
289.075,3.838
289.100,3.839
289.125,3.839
289.150,3.839
289.175,3.839
289.200,3.839
289.225,3.839
289.250,3.839
289.275,3.839
289.300,3.839
289.325,3.839
289.350,3.839
289.375,3.839
289.400,3.840
289.425,3.840
289.450,3.840
289.475,3.840
289.500,3.840
289.525,3.840
289.550,3.840
289.575,3.840
289.600,3.840
289.625,3.840
289.650,3.840
289.675,3.841
289.700,3.841
289.725,3.841
289.750,3.841
289.775,3.841
289.800,3.841
289.825,3.841
289.850,3.841
289.875,3.841
289.900,3.841
289.925,3.841
289.950,3.841
289.975,3.842
290.000,3.842
290.025,3.842
290.050,3.842
290.075,3.842
290.100,3.842
290.125,3.842
290.150,3.842
290.175,3.842
290.200,3.842
290.225,3.842
290.250,3.842
290.275,3.843
290.300,3.843
290.325,3.843
290.350,3.843
290.375,3.843
290.400,3.843
290.425,3.843
290.450,3.843
290.475,3.843
290.500,3.843
290.525,3.843
290.550,3.844
290.575,3.844
290.600,3.844
290.625,3.844
290.650,3.844
290.675,3.844
290.700,3.844
290.725,3.844
290.750,3.844
290.775,3.844
290.800,3.844
290.825,3.844
290.850,3.845
290.875,3.845
290.900,3.845
290.925,3.845
290.950,3.845
290.975,3.845
291.000,3.845
291.025,3.845
291.050,3.845
291.075,3.845
291.100,3.845
291.125,3.845
291.150,3.846
291.175,3.846
291.200,3.846
291.225,3.846
291.250,3.846
291.275,3.846
291.300,3.846
291.325,3.846
291.350,3.846
291.375,3.846
291.400,3.846
291.425,3.846
291.450,3.847
291.475,3.847
291.500,3.847
291.525,3.847
291.550,3.847
291.575,3.847
291.600,3.847
291.625,3.847
291.650,3.847
291.675,3.847
291.700,3.847
291.725,3.847
291.750,3.848
291.775,3.848
291.800,3.848
291.825,3.848
291.850,3.848
291.875,3.848
291.900,3.848
291.925,3.848
291.950,3.848
291.975,3.848
292.000,3.848
292.025,3.848
292.050,3.849
292.075,3.849
292.100,3.849
292.125,3.849
292.150,3.849
292.175,3.849
292.200,3.849
292.225,3.849
292.250,3.849
292.275,3.849
292.300,3.849
292.325,3.849
292.350,3.850
292.375,3.850
292.400,3.850
292.425,3.850
292.450,3.850
292.475,3.850
292.500,3.850
292.525,3.850
292.550,3.850
292.575,3.850
292.600,3.850
292.625,3.850
292.650,3.850
292.675,3.851
292.700,3.851
292.725,3.851
292.750,3.851
292.775,3.851
292.800,3.851
292.825,3.851
292.850,3.851
292.875,3.851
292.900,3.851
292.925,3.851
292.950,3.851
292.975,3.852
293.000,3.852
293.025,3.852
293.050,3.852
293.075,3.852
293.100,3.852
293.125,3.852
293.150,3.852
293.175,3.852
293.200,3.852
293.225,3.852
293.250,3.852
293.275,3.852
293.300,3.853
293.325,3.853
293.350,3.853
293.375,3.853
293.400,3.853
293.425,3.853
293.450,3.853
293.475,3.853
293.500,3.853
293.525,3.853
293.550,3.853
293.575,3.853
293.600,3.853
293.625,3.854
293.650,3.854
293.675,3.854
293.700,3.854
293.725,3.854
293.750,3.854
293.775,3.854
293.800,3.854
293.825,3.854
293.850,3.854
293.875,3.854
293.900,3.854
293.925,3.854
293.950,3.855
293.975,3.855
294.000,3.855
294.025,3.855
294.050,3.855
294.075,3.855
294.100,3.855
294.125,3.855
294.150,3.855
294.175,3.855
294.200,3.855
294.225,3.855
294.250,3.855
294.275,3.855
294.300,3.856
294.325,3.856
294.350,3.856
294.375,3.856
294.400,3.856
294.425,3.856
294.450,3.856
294.475,3.856
294.500,3.856
294.525,3.856
294.550,3.856
294.575,3.856
294.600,3.856
294.625,3.856
294.650,3.857
294.675,3.857
294.700,3.857
294.725,3.857
294.750,3.857
294.775,3.857
294.800,3.857
294.825,3.857
294.850,3.857
294.875,3.857
294.900,3.857
294.925,3.857
294.950,3.857
294.975,3.857
295.000,3.858
295.025,3.858
295.050,3.858
295.075,3.858
295.100,3.858
295.125,3.858
295.150,3.858
295.175,3.858
295.200,3.858
295.225,3.858
295.250,3.858
295.275,3.858
295.300,3.858
295.325,3.858
295.350,3.858
295.375,3.859
295.400,3.859
295.425,3.859
295.450,3.859
295.475,3.859
295.500,3.859
295.525,3.859
295.550,3.859
295.575,3.859
295.600,3.859
295.625,3.859
295.650,3.859
295.675,3.859
295.700,3.859
295.725,3.859
295.750,3.860
295.775,3.860
295.800,3.860
295.825,3.860
295.850,3.860
295.875,3.860
295.900,3.860
295.925,3.860
295.950,3.860
295.975,3.860
296.000,3.860
296.025,3.860
296.050,3.860
296.075,3.860
296.100,3.860
296.125,3.860
296.150,3.861
296.175,3.861
296.200,3.861
296.225,3.861
296.250,3.861
296.275,3.861
296.300,3.861
296.325,3.861
296.350,3.861
296.375,3.861
296.400,3.861
296.425,3.861
296.450,3.861
296.475,3.861
296.500,3.861
296.525,3.861
296.550,3.861
296.575,3.862
296.600,3.862
296.625,3.862
296.650,3.862
296.675,3.862
296.700,3.862
296.725,3.862
296.750,3.862
296.775,3.862
296.800,3.862
296.825,3.862
296.850,3.862
296.875,3.862
296.900,3.862
296.925,3.862
296.950,3.862
296.975,3.862
297.000,3.863
297.025,3.863
297.050,3.863
297.075,3.863
297.100,3.863
297.125,3.863
297.150,3.863
297.175,3.863
297.200,3.863
297.225,3.863
297.250,3.863
297.275,3.863
297.300,3.863
297.325,3.863
297.350,3.863
297.375,3.863
297.400,3.863
297.425,3.863
297.450,3.863
297.475,3.864
297.500,3.864
297.525,3.864
297.550,3.864
297.575,3.864
297.600,3.864
297.625,3.864
297.650,3.864
297.675,3.864
297.700,3.864
297.725,3.864
297.750,3.864
297.775,3.864
297.800,3.864
297.825,3.864
297.850,3.864
297.875,3.864
297.900,3.864
297.925,3.864
297.950,3.864
297.975,3.865
298.000,3.865
298.025,3.865
298.050,3.865
298.075,3.865
298.100,3.865
298.125,3.865
298.150,3.865
298.175,3.865
298.200,3.865
298.225,3.865
298.250,3.865
298.275,3.865
298.300,3.865
298.325,3.865
298.350,3.865
298.375,3.865
298.400,3.865
298.425,3.865
298.450,3.865
298.475,3.865
298.500,3.865
298.525,3.866
298.550,3.866
298.575,3.866
298.600,3.866
298.625,3.866
298.650,3.866
298.675,3.866
298.700,3.866
298.725,3.866
298.750,3.866
298.775,3.866
298.800,3.866
298.825,3.866
298.850,3.866
298.875,3.866
298.900,3.866
298.925,3.866
298.950,3.866
298.975,3.866
299.000,3.866
299.025,3.866
299.050,3.866
299.075,3.866
299.100,3.866
299.125,3.866
299.150,3.867
299.175,3.867
299.200,3.867
299.225,3.867
299.250,3.867
299.275,3.867
299.300,3.867
299.325,3.867
299.350,3.867
299.375,3.867
299.400,3.867
299.425,3.867
299.450,3.867
299.475,3.867
299.500,3.867
299.525,3.867
299.550,3.867
299.575,3.867
299.600,3.867
299.625,3.867
299.650,3.867
299.675,3.867
299.700,3.867
299.725,3.867
299.750,3.867
299.775,3.867
299.800,3.867
299.825,3.867
299.850,3.867
299.875,3.868
299.900,3.868
299.925,3.868
299.950,3.868
299.975,3.868
300.000,3.868
300.025,3.868
300.050,3.868
300.075,3.868
300.100,3.868
300.125,3.868
300.150,3.868
300.175,3.868
300.200,3.868
300.225,3.868
300.250,3.868
300.275,3.868
300.300,3.868
300.325,3.868
300.350,3.868
300.375,3.868
300.400,3.868
300.425,3.868
300.450,3.868
300.475,3.868
300.500,3.868
300.525,3.868
300.550,3.868
300.575,3.868
300.600,3.868
300.625,3.868
300.650,3.868
300.675,3.868
300.700,3.868
300.725,3.868
300.750,3.868
300.775,3.868
300.800,3.869
300.825,3.869
300.850,3.869
300.875,3.869
300.900,3.869
300.925,3.869
300.950,3.869
300.975,3.869
301.000,3.869
301.025,3.869
301.050,3.869
301.075,3.869
301.100,3.869
301.125,3.869
301.150,3.869
301.175,3.869
301.200,3.869
301.225,3.869
301.250,3.869
301.275,3.869
301.300,3.869
301.325,3.869
301.350,3.869
301.375,3.869
301.400,3.869
301.425,3.869
301.450,3.869
301.475,3.869
301.500,3.869
301.525,3.869
301.550,3.869
301.575,3.869
301.600,3.869
301.625,3.869
301.650,3.869
301.675,3.869
301.700,3.869
301.725,3.869
301.750,3.869
301.775,3.869
301.800,3.869
301.825,3.869
301.850,3.869
301.875,3.869
301.900,3.869
301.925,3.869
301.950,3.869
301.975,3.869
302.000,3.869
302.025,3.869
302.050,3.869
302.075,3.869
302.100,3.869
302.125,3.869
302.150,3.869
302.175,3.869
302.200,3.869
302.225,3.869
302.250,3.869
302.275,3.869
302.300,3.870
302.325,3.870
302.350,3.870
302.375,3.870
302.400,3.870
302.425,3.870
302.450,3.870
302.475,3.870
302.500,3.870
302.525,3.870
302.550,3.870
302.575,3.870
302.600,3.870
302.625,3.870
302.650,3.870
302.675,3.870
302.700,3.870
302.725,3.870
302.750,3.870
302.775,3.870
302.800,3.870
302.825,3.870
302.850,3.870
302.875,3.870
302.900,3.870
302.925,3.870
302.950,3.870
302.975,3.870
303.000,3.870
303.025,3.870
303.050,3.870
303.075,3.870
303.100,3.870
303.125,3.870
303.150,3.870
303.175,3.870
303.200,3.870
303.225,3.870
303.250,3.870
303.275,3.870
303.300,3.870
303.325,3.870
303.350,3.870
303.375,3.870
303.400,3.870
303.425,3.870
303.450,3.870
303.475,3.870
303.500,3.870
303.525,3.870
303.550,3.870
303.575,3.870
303.600,3.870
303.625,3.870
303.650,3.870
303.675,3.870
303.700,3.870
303.725,3.870
303.750,3.870
303.775,3.870
303.800,3.870
303.825,3.870
303.850,3.870
303.875,3.870
303.900,3.870
303.925,3.870
303.950,3.870
303.975,3.870
304.000,3.870
304.025,3.870
304.050,3.870
304.075,3.870
304.100,3.870
304.125,3.870
304.150,3.870
304.175,3.870
304.200,3.870
304.225,3.870
304.250,3.870
304.275,3.870
304.300,3.870
304.325,3.870
304.350,3.870
304.375,3.870
304.400,3.870
304.425,3.870
304.450,3.870
304.475,3.870
304.500,3.870
304.525,3.870
304.550,3.870
304.575,3.870
304.600,3.870
304.625,3.870
304.650,3.870
304.675,3.870
304.700,3.870
304.725,3.870
304.750,3.870
304.775,3.870
304.800,3.870
304.825,3.870
304.850,3.870
304.875,3.870
304.900,3.870
304.925,3.869
304.950,3.869
304.975,3.869
305.000,3.869
305.025,3.869
305.050,3.869
305.075,3.869
305.100,3.869
305.125,3.869
305.150,3.869
305.175,3.869
305.200,3.869
305.225,3.869
305.250,3.869
305.275,3.869
305.300,3.869
305.325,3.869
305.350,3.869
305.375,3.869
305.400,3.869
305.425,3.869
305.450,3.869
305.475,3.869
305.500,3.869
305.525,3.869
305.550,3.869
305.575,3.869
305.600,3.869
305.625,3.869
305.650,3.869
305.675,3.869
305.700,3.869
305.725,3.869
305.750,3.869
305.775,3.869
305.800,3.869
305.825,3.869
305.850,3.869
305.875,3.869
305.900,3.869
305.925,3.869
305.950,3.869
305.975,3.869
306.000,3.869
306.025,3.869
306.050,3.869
306.075,3.869
306.100,3.869
306.125,3.869
306.150,3.869
306.175,3.869
306.200,3.869
306.225,3.869
306.250,3.869
306.275,3.869
306.300,3.869
306.325,3.869
306.350,3.869
306.375,3.869
306.400,3.869
306.425,3.869
306.450,3.869
306.475,3.869
306.500,3.869
306.525,3.869
306.550,3.869
306.575,3.869
306.600,3.869
306.625,3.869
306.650,3.869
306.675,3.869
306.700,3.869
306.725,3.869
306.750,3.869
306.775,3.869
306.800,3.868
306.825,3.868
306.850,3.868
306.875,3.868
306.900,3.868
306.925,3.868
306.950,3.868
306.975,3.868
307.000,3.868
307.025,3.868
307.050,3.868
307.075,3.868
307.100,3.868
307.125,3.868
307.150,3.868
307.175,3.868
307.200,3.868
307.225,3.868
307.250,3.868
307.275,3.868
307.300,3.868
307.325,3.868
307.350,3.868
307.375,3.868
307.400,3.868
307.425,3.868
307.450,3.868
307.475,3.868
307.500,3.868
307.525,3.868
307.550,3.868
307.575,3.868
307.600,3.868
307.625,3.868
307.650,3.868
307.675,3.868
307.700,3.868
307.725,3.868
307.750,3.868
307.775,3.868
307.800,3.868
307.825,3.868
307.850,3.868
307.875,3.868
307.900,3.868
307.925,3.868
307.950,3.868
307.975,3.868
308.000,3.868
308.025,3.868
308.050,3.868
308.075,3.868
308.100,3.868
308.125,3.868
308.150,3.868
308.175,3.868
308.200,3.868
308.225,3.867
308.250,3.867
308.275,3.867
308.300,3.867
308.325,3.867
308.350,3.867
308.375,3.867
308.400,3.867
308.425,3.867
308.450,3.867
308.475,3.867
308.500,3.867
308.525,3.867
308.550,3.867
308.575,3.867
308.600,3.867
308.625,3.867
308.650,3.867
308.675,3.867
308.700,3.867
308.725,3.867
308.750,3.867
308.775,3.867
308.800,3.867
308.825,3.867
308.850,3.867
308.875,3.867
308.900,3.867
308.925,3.867
308.950,3.867
308.975,3.867
309.000,3.867
309.025,3.867
309.050,3.867
309.075,3.867
309.100,3.867
309.125,3.867
309.150,3.867
309.175,3.867
309.200,3.867
309.225,3.867
309.250,3.867
309.275,3.867
309.300,3.867
309.325,3.867
309.350,3.867
309.375,3.867
309.400,3.867
309.425,3.867
309.450,3.867
309.475,3.867
309.500,3.867
309.525,3.867
309.550,3.867
309.575,3.867
309.600,3.867
309.625,3.867
309.650,3.867
309.675,3.867
309.700,3.867
309.725,3.867
309.750,3.867
309.775,3.867
309.800,3.867
309.825,3.867
309.850,3.867
309.875,3.867
309.900,3.867
309.925,3.867
309.950,3.867
309.975,3.867
310.000,3.866
310.025,3.866
310.050,3.866
310.075,3.866
310.100,3.866
310.125,3.866
310.150,3.866
310.175,3.866
310.200,3.866
310.225,3.866
310.250,3.866
310.275,3.866
310.300,3.866
310.325,3.866
310.350,3.866
310.375,3.866
310.400,3.866
310.425,3.866
310.450,3.866
310.475,3.866
310.500,3.866
310.525,3.866
310.550,3.866
310.575,3.866
310.600,3.866
310.625,3.866
310.650,3.866
310.675,3.866
310.700,3.866
310.725,3.866
310.750,3.866
310.775,3.866
310.800,3.866
310.825,3.866
310.850,3.866
310.875,3.866
310.900,3.866
310.925,3.866
310.950,3.866
310.975,3.866
311.000,3.866
311.025,3.866
311.050,3.866
311.075,3.866
311.100,3.866
311.125,3.866
311.150,3.866
311.175,3.866
311.200,3.866
311.225,3.866
311.250,3.866
311.275,3.866
311.300,3.866
311.325,3.866
311.350,3.866
311.375,3.866
311.400,3.866
311.425,3.866
311.450,3.866
311.475,3.866
311.500,3.866
311.525,3.866
311.550,3.866
311.575,3.866
311.600,3.866
311.625,3.866
311.650,3.866
311.675,3.866
311.700,3.866
311.725,3.866
311.750,3.866
311.775,3.866
311.800,3.867
311.825,3.867
311.850,3.867
311.875,3.867
311.900,3.867
311.925,3.867
311.950,3.867
311.975,3.867
312.000,3.867
312.025,3.867
312.050,3.867
312.075,3.867
312.100,3.867
312.125,3.867
312.150,3.867
312.175,3.867
312.200,3.867
312.225,3.867
312.250,3.867
312.275,3.867
312.300,3.867
312.325,3.867
312.350,3.867
312.375,3.867
312.400,3.867
312.425,3.867
312.450,3.867
312.475,3.867
312.500,3.867
312.525,3.867
312.550,3.867
312.575,3.867
312.600,3.867
312.625,3.867
312.650,3.867
312.675,3.867
312.700,3.867
312.725,3.867
312.750,3.867
312.775,3.867
312.800,3.867
312.825,3.867
312.850,3.867
312.875,3.867
312.900,3.867
312.925,3.868
312.950,3.868
312.975,3.868
313.000,3.868
313.025,3.868
313.050,3.868
313.075,3.868
313.238,3.866
313.263,3.866
313.288,3.866
313.313,3.866
313.338,3.865
313.363,3.865
313.388,3.865
313.413,3.865
313.438,3.865
313.463,3.865
313.488,3.864
313.513,3.864
313.538,3.864
313.563,3.864
313.588,3.864
313.613,3.864
313.638,3.863
313.663,3.863
313.688,3.863
313.713,3.863
313.738,3.863
313.763,3.863
313.788,3.863
313.813,3.862
313.838,3.862
313.863,3.862
313.888,3.862
313.913,3.862
313.938,3.862
313.963,3.862
313.988,3.861
314.013,3.861
314.038,3.861
314.063,3.861
314.088,3.861
314.113,3.861
314.138,3.861
314.163,3.860
314.188,3.860
314.213,3.860
314.238,3.860
314.263,3.860
314.288,3.860
314.313,3.860
314.338,3.859
314.363,3.859
314.388,3.859
314.413,3.859
314.438,3.859
314.463,3.859
314.488,3.859
314.513,3.859
314.538,3.858
314.563,3.858
314.588,3.858
314.613,3.858
314.638,3.858
314.663,3.858
314.688,3.858
314.713,3.857
314.738,3.857
314.763,3.857
314.788,3.857
314.813,3.857
314.838,3.857
314.863,3.857
314.888,3.857
314.913,3.856
314.938,3.856
314.963,3.856
314.988,3.856
315.013,3.856
315.038,3.856
315.063,3.856
315.088,3.855
315.113,3.855
315.138,3.855
315.163,3.855
315.188,3.855
315.213,3.855
315.238,3.855
315.263,3.854
315.288,3.854
315.313,3.854
315.338,3.854
315.363,3.854
315.388,3.854
315.413,3.853
315.438,3.853
315.463,3.853
315.488,3.853
315.513,3.853
315.538,3.853
315.563,3.853
315.588,3.852
315.613,3.852
315.638,3.852
315.663,3.852
315.688,3.852
315.713,3.852
315.738,3.851
315.763,3.851
315.788,3.851
315.813,3.851
315.838,3.851
315.863,3.851
315.888,3.850
315.913,3.850
315.938,3.850
315.963,3.850
315.988,3.850
316.013,3.850
316.038,3.849
316.063,3.849
316.088,3.849
316.113,3.849
316.138,3.849
316.163,3.848
316.188,3.848
316.213,3.848
316.238,3.848
316.263,3.848
316.288,3.848
316.313,3.847
316.338,3.847
316.363,3.847
316.388,3.847
316.413,3.847
316.438,3.846
316.463,3.846
316.488,3.846
316.513,3.846
316.538,3.846
316.563,3.845
316.588,3.845
316.613,3.845
316.638,3.845
316.663,3.845
316.688,3.844
316.713,3.844
316.738,3.844
316.763,3.844
316.788,3.843
316.813,3.843
316.838,3.843
316.863,3.843
316.888,3.843
316.913,3.842
316.938,3.842
316.963,3.842
316.988,3.842
317.013,3.841
317.038,3.841
317.063,3.841
317.088,3.841
317.113,3.840
317.138,3.840
317.163,3.840
317.188,3.840
317.213,3.839
317.238,3.839
317.263,3.839
317.288,3.839
317.313,3.838
317.338,3.838
317.363,3.838
317.388,3.838
317.413,3.837
317.438,3.837
317.463,3.837
317.488,3.836
317.513,3.836
317.538,3.836
317.563,3.836
317.588,3.835
317.613,3.835
317.638,3.835
317.663,3.834
317.688,3.834
317.713,3.834
317.738,3.834
317.763,3.833
317.788,3.833
317.813,3.833
317.838,3.832
317.863,3.832
317.888,3.832
317.913,3.831
317.938,3.831
317.963,3.831
317.988,3.831
318.013,3.830
318.038,3.830
318.063,3.830
318.088,3.829
318.113,3.829
318.138,3.829
318.163,3.828
318.188,3.828
318.213,3.828
318.238,3.827
318.263,3.827
318.288,3.827
318.313,3.826
318.338,3.826
318.363,3.826
318.388,3.825
318.413,3.825
318.438,3.824
318.463,3.824
318.488,3.824
318.513,3.823
318.538,3.823
318.563,3.823
318.588,3.822
318.613,3.822
318.638,3.822
318.663,3.821
318.688,3.821
318.713,3.820
318.738,3.820
318.763,3.820
318.788,3.819
318.813,3.819
318.838,3.818
318.863,3.818
318.888,3.818
318.913,3.817
318.938,3.817
318.963,3.816
318.988,3.816
319.013,3.816
319.038,3.815
319.063,3.815
319.088,3.814
319.113,3.814
319.138,3.814
319.163,3.813
319.188,3.813
319.213,3.812
319.238,3.812
319.263,3.811
319.288,3.811
319.313,3.811
319.338,3.810
319.363,3.810
319.388,3.809
319.413,3.809
319.438,3.808
319.463,3.808
319.488,3.807
319.513,3.807
319.538,3.807
319.563,3.806
319.588,3.806
319.613,3.805
319.638,3.805
319.663,3.804
319.688,3.804
319.713,3.803
319.738,3.803
319.763,3.802
319.788,3.802
319.813,3.801
319.838,3.801
319.863,3.800
319.888,3.800
319.913,3.799
319.938,3.799
319.963,3.798
319.988,3.798
320.013,3.797
320.038,3.797
320.063,3.796
320.088,3.796
320.113,3.795
320.138,3.795
320.163,3.794
320.188,3.794
320.213,3.793
320.238,3.793
320.263,3.792
320.288,3.792
320.313,3.791
320.338,3.791
320.363,3.790
320.388,3.790
320.413,3.789
320.438,3.789
320.463,3.788
320.488,3.787
320.513,3.787
320.538,3.786
320.563,3.786
320.588,3.785
320.613,3.785
320.638,3.784
320.663,3.784
320.688,3.783
320.713,3.782
320.738,3.782
320.763,3.781
320.788,3.781
320.813,3.780
320.838,3.780
320.863,3.779
320.888,3.778
320.913,3.778
320.938,3.777
320.963,3.777
320.988,3.776
321.013,3.775
321.038,3.775
321.063,3.774
321.088,3.774
321.113,3.773
321.138,3.772
321.163,3.772
321.188,3.771
321.213,3.771
321.238,3.770
321.263,3.769
321.288,3.769
321.313,3.768
321.338,3.768
321.363,3.767
321.388,3.766
321.413,3.766
321.438,3.765
321.463,3.764
321.488,3.764
321.513,3.763
321.538,3.762
321.563,3.762
321.588,3.761
321.613,3.761
321.638,3.760
321.663,3.759
321.688,3.759
321.713,3.758
321.738,3.757
321.763,3.757
321.788,3.756
321.813,3.755
321.838,3.755
321.863,3.754
321.888,3.753
321.913,3.753
321.938,3.752
321.963,3.751
321.988,3.751
322.013,3.750
322.038,3.749
322.063,3.749
322.088,3.748
322.113,3.747
322.138,3.746
322.163,3.746
322.188,3.745
322.213,3.744
322.238,3.744
322.263,3.743
322.288,3.742
322.313,3.742
322.338,3.741
322.363,3.740
322.388,3.739
322.413,3.739
322.438,3.738
322.463,3.737
322.488,3.737
322.513,3.736
322.538,3.735
322.563,3.734
322.588,3.734
322.613,3.733
322.638,3.732
322.663,3.732
322.688,3.731
322.713,3.730
322.738,3.729
322.763,3.729
322.788,3.728
322.813,3.727
322.838,3.726
322.863,3.726
322.888,3.725
322.913,3.724
322.938,3.723
322.963,3.723
322.988,3.722
323.013,3.721
323.038,3.720
323.063,3.720
323.088,3.719
323.113,3.718
323.138,3.717
323.163,3.717
323.188,3.716
323.213,3.715
323.238,3.714
323.263,3.714
323.288,3.713
323.313,3.712
323.338,3.711
323.363,3.710
323.388,3.710
323.413,3.709
323.438,3.708
323.463,3.707
323.488,3.707
323.513,3.706
323.538,3.705
323.563,3.704
323.588,3.703
323.613,3.703
323.638,3.702
323.663,3.701
323.688,3.700
323.713,3.699
323.738,3.699
323.763,3.698
323.788,3.697
323.813,3.696
323.838,3.695
323.863,3.695
323.888,3.694
323.913,3.693
323.938,3.692
323.963,3.691
323.988,3.691
324.013,3.690
324.038,3.689
324.063,3.688
324.088,3.687
324.113,3.686
324.138,3.686
324.163,3.685
324.188,3.684
324.213,3.683
324.238,3.682
324.263,3.681
324.288,3.681
324.313,3.680
324.338,3.679
324.363,3.678
324.388,3.677
324.413,3.676
324.438,3.676
324.463,3.675
324.488,3.674
324.513,3.673
324.538,3.672
324.563,3.671
324.588,3.671
324.613,3.670
324.638,3.669
324.663,3.668
324.688,3.667
324.713,3.666
324.738,3.665
324.763,3.665
324.788,3.664
324.813,3.663
324.838,3.662
324.863,3.661
324.888,3.660
324.913,3.659
324.938,3.659
324.963,3.658
324.988,3.657
325.013,3.656
325.038,3.655
325.063,3.654
325.088,3.653
325.113,3.653
325.138,3.652
325.163,3.651
325.188,3.650
325.213,3.649
325.238,3.648
325.263,3.647
325.288,3.646
325.313,3.646
325.338,3.645
325.363,3.644
325.388,3.643
325.413,3.642
325.438,3.641
325.463,3.640
325.488,3.639
325.513,3.638
325.538,3.638
325.563,3.637
325.588,3.636
325.613,3.635
325.638,3.634
325.663,3.633
325.688,3.632
325.713,3.631
325.738,3.630
325.763,3.630
325.788,3.629
325.813,3.628
325.838,3.627
325.863,3.626
325.888,3.625
325.913,3.624
325.938,3.623
325.963,3.622
325.988,3.621
326.013,3.621
326.038,3.620
326.063,3.619
326.088,3.618
326.113,3.617
326.138,3.616
326.163,3.615
326.188,3.614
326.213,3.613
326.238,3.612
326.263,3.612
326.288,3.611
326.313,3.610
326.338,3.609
326.363,3.608
326.388,3.607
326.413,3.606
326.438,3.605
326.463,3.604
326.488,3.603
326.513,3.602
326.538,3.601
326.563,3.601
326.588,3.600
326.613,3.599
326.638,3.598
326.663,3.597
326.688,3.596
326.713,3.595
326.738,3.594
326.763,3.593
326.788,3.592
326.813,3.591
326.838,3.590
326.863,3.590
326.888,3.589
326.913,3.588
326.938,3.587
326.963,3.586
326.988,3.585
327.013,3.584
327.038,3.583
327.063,3.582
327.088,3.581
327.113,3.580
327.138,3.579
327.163,3.578
327.188,3.577
327.213,3.577
327.238,3.576
327.263,3.575
327.288,3.574
327.313,3.573
327.338,3.572
327.363,3.571
327.388,3.570
327.413,3.569
327.438,3.568
327.463,3.567
327.488,3.566
327.513,3.565
327.538,3.564
327.563,3.563
327.588,3.563
327.613,3.562
327.638,3.561
327.663,3.560
327.688,3.559
327.713,3.558
327.738,3.557
327.763,3.556
327.788,3.555
327.813,3.554
327.838,3.553
327.863,3.552
327.888,3.551
327.913,3.550
327.938,3.549
327.963,3.548
327.988,3.548
328.013,3.547
328.038,3.546
328.063,3.545
328.088,3.544
328.113,3.543
328.138,3.542
328.163,3.541
328.188,3.540
328.213,3.539
328.238,3.538
328.263,3.537
328.288,3.536
328.313,3.535
328.338,3.534
328.363,3.533
328.388,3.532
328.413,3.531
328.438,3.530
328.463,3.530
328.488,3.529
328.513,3.528
328.538,3.527
328.563,3.526
328.588,3.525
328.613,3.524
328.638,3.523
328.663,3.522
328.688,3.521
328.713,3.520
328.738,3.519
328.763,3.518
328.788,3.517
328.813,3.516
328.838,3.515
328.863,3.514
328.888,3.513
328.913,3.512
328.938,3.511
328.963,3.511
328.988,3.510
329.013,3.509
329.038,3.508
329.063,3.507
329.088,3.506
329.113,3.505
329.138,3.504
329.163,3.503
329.188,3.502
329.213,3.501
329.238,3.500
329.263,3.499
329.288,3.498
329.313,3.497
329.338,3.496
329.363,3.495
329.388,3.494
329.413,3.493
329.438,3.492
329.463,3.491
329.488,3.490
329.513,3.489
329.538,3.488
329.563,3.488
329.588,3.487
329.613,3.486
329.638,3.485
329.663,3.484
329.688,3.483
329.713,3.482
329.738,3.481
329.763,3.480
329.788,3.479
329.813,3.478
329.838,3.477
329.863,3.476
329.888,3.475
329.913,3.474
329.938,3.473
329.963,3.472
329.988,3.471
330.013,3.470
330.038,3.469
330.063,3.468
330.088,3.467
330.113,3.466
330.138,3.465
330.163,3.464
330.188,3.463
330.213,3.462
330.238,3.461
330.263,3.460
330.288,3.459
330.313,3.459
330.338,3.458
330.363,3.457
330.388,3.456
330.413,3.455
330.438,3.454
330.463,3.453
330.488,3.452
330.513,3.451
330.538,3.450
330.563,3.449
330.588,3.448
330.613,3.447
330.638,3.446
330.663,3.445
330.688,3.444
330.713,3.443
330.738,3.442
330.763,3.441
330.788,3.440
330.813,3.439
330.838,3.438
330.863,3.437
330.888,3.436
330.913,3.435
330.938,3.434
330.963,3.433
330.988,3.432
331.013,3.431
331.038,3.430
331.063,3.429
331.088,3.428
331.113,3.427
331.138,3.426
331.163,3.425
331.188,3.424
331.213,3.423
331.238,3.422
331.263,3.421
331.288,3.420
331.313,3.419
331.338,3.418
331.363,3.417
331.388,3.416
331.413,3.415
331.438,3.414
331.463,3.413
331.488,3.412
331.513,3.411
331.538,3.410
331.563,3.409
331.588,3.408
331.613,3.407
331.638,3.406
331.663,3.405
331.688,3.404
331.713,3.403
331.738,3.402
331.763,3.401
331.788,3.400
331.813,3.399
331.838,3.398
331.863,3.397
331.888,3.396
331.913,3.395
331.938,3.394
331.963,3.393
331.988,3.392
332.013,3.391
332.038,3.390
332.063,3.389
332.088,3.388
332.113,3.387
332.138,3.386
332.163,3.385
332.188,3.384
332.213,3.383
332.238,3.382
332.263,3.381
332.288,3.379
332.313,3.378
332.338,3.377
332.363,3.376
332.388,3.375
332.413,3.374
332.438,3.373
332.463,3.372
332.488,3.371
332.513,3.370
332.538,3.369
332.563,3.368
332.588,3.367
332.613,3.366
332.638,3.365
332.663,3.364
332.688,3.363
332.713,3.362
332.738,3.360
332.763,3.359
332.788,3.358
332.813,3.357
332.838,3.356
332.863,3.355
332.888,3.354
332.913,3.353
332.938,3.352
332.963,3.351
332.988,3.350
333.013,3.349
333.038,3.348
333.063,3.346
333.088,3.345
333.113,3.344
333.138,3.343
333.163,3.342
333.188,3.341
333.213,3.340
333.238,3.339
333.263,3.338
333.288,3.337
333.313,3.335
333.338,3.334
333.363,3.333
333.388,3.332
333.413,3.331
333.438,3.330
333.463,3.329
333.488,3.328
333.513,3.326
333.538,3.325
333.563,3.324
333.588,3.323
333.613,3.322
333.638,3.321
333.663,3.320
333.688,3.318
333.713,3.317
333.738,3.316
333.763,3.315
333.788,3.314
333.813,3.313
333.838,3.311
333.863,3.310
333.888,3.309
333.913,3.308
333.938,3.307
333.963,3.305
333.988,3.304
334.013,3.303
334.038,3.302
334.063,3.301
334.088,3.300
334.113,3.298
334.138,3.297
334.163,3.296
334.188,3.295
334.213,3.293
334.238,3.292
334.263,3.291
334.288,3.290
334.313,3.289
334.338,3.287
334.363,3.286
334.388,3.285
334.413,3.284
334.438,3.282
334.463,3.281
334.488,3.280
334.513,3.279
334.538,3.277
334.563,3.276
334.588,3.275
334.613,3.274
334.638,3.272
334.663,3.271
334.688,3.270
334.713,3.268
334.738,3.267
334.763,3.266
334.788,3.264
334.813,3.263
334.838,3.262
334.863,3.261
334.888,3.259
334.913,3.258
334.938,3.257
334.963,3.255
334.988,3.254
335.013,3.253
335.038,3.251
335.063,3.250
335.088,3.249
335.113,3.247
335.138,3.246
335.163,3.244
335.188,3.243
335.213,3.242
335.238,3.240
335.263,3.239
335.288,3.237
335.313,3.236
335.338,3.235
335.363,3.233
335.388,3.232
335.413,3.230
335.438,3.229
335.463,3.228
335.488,3.226
335.513,3.225
335.538,3.223
335.563,3.222
335.588,3.220
335.613,3.219
335.638,3.217
335.663,3.216
335.688,3.214
335.713,3.213
335.738,3.211
335.763,3.210
335.788,3.208
335.813,3.207
335.838,3.205
335.863,3.204
335.888,3.202
335.913,3.201
335.938,3.199
335.963,3.198
335.988,3.196
336.013,3.195
336.038,3.193
336.063,3.191
336.088,3.190
336.113,3.188
336.138,3.187
336.163,3.185
336.188,3.184
336.213,3.182
336.238,3.180
336.263,3.179
336.288,3.177
336.313,3.175
336.338,3.174
336.363,3.172
336.388,3.170
336.413,3.169
336.438,3.167
336.463,3.165
336.488,3.164
336.513,3.162
336.538,3.160
336.563,3.159
336.588,3.157
336.613,3.155
336.638,3.153
336.663,3.152
336.688,3.150
336.713,3.148
336.738,3.146
336.763,3.145
336.788,3.143
336.813,3.141
336.838,3.139
336.863,3.137
336.888,3.136
336.913,3.134
336.938,3.132
336.963,3.130
336.988,3.128
337.013,3.126
337.038,3.125
337.063,3.123
337.088,3.121
337.113,3.119
337.138,3.117
337.163,3.115
337.188,3.113
337.213,3.111
337.238,3.109
337.263,3.107
337.288,3.105
337.313,3.103
337.338,3.101
337.363,3.099
337.388,3.097
337.413,3.095
337.438,3.093
337.463,3.091
337.488,3.089
337.513,3.087
337.538,3.085
337.563,3.083
337.588,3.081
337.613,3.079
337.619,3.079
337.644,3.077
337.669,3.076
337.694,3.074
337.719,3.072
337.744,3.070
337.769,3.068
337.794,3.067
337.819,3.065
337.844,3.063
337.869,3.061
337.894,3.060
337.919,3.058
337.944,3.056
337.969,3.055
337.994,3.053
338.019,3.051
338.044,3.049
338.069,3.048
338.094,3.046
338.119,3.045
338.144,3.043
338.169,3.041
338.194,3.040
338.219,3.038
338.244,3.036
338.269,3.035
338.294,3.033
338.319,3.032
338.344,3.030
338.369,3.029
338.394,3.027
338.419,3.025
338.444,3.024
338.469,3.022
338.494,3.021
338.519,3.019
338.544,3.018
338.569,3.016
338.594,3.015
338.619,3.013
338.644,3.012
338.669,3.011
338.694,3.009
338.719,3.008
338.744,3.006
338.769,3.005
338.794,3.003
338.819,3.002
338.844,3.001
338.869,2.999
338.894,2.998
338.919,2.996
338.944,2.995
338.969,2.994
338.994,2.992
339.019,2.991
339.044,2.990
339.069,2.988
339.094,2.987
339.119,2.986
339.144,2.984
339.169,2.983
339.194,2.982
339.219,2.980
339.244,2.979
339.269,2.978
339.294,2.977
339.319,2.975
339.344,2.974
339.369,2.973
339.394,2.972
339.419,2.970
339.444,2.969
339.469,2.968
339.494,2.967
339.519,2.966
339.544,2.964
339.569,2.963
339.594,2.962
339.619,2.961
339.644,2.960
339.669,2.958
339.694,2.957
339.719,2.956
339.744,2.955
339.769,2.954
339.794,2.953
339.819,2.951
339.844,2.950
339.869,2.949
339.894,2.948
339.919,2.947
339.944,2.946
339.969,2.945
339.994,2.944
340.019,2.943
340.044,2.941
340.069,2.940
340.094,2.939
340.119,2.938
340.144,2.937
340.169,2.936
340.194,2.935
340.219,2.934
340.244,2.933
340.269,2.932
340.294,2.931
340.319,2.930
340.344,2.929
340.369,2.928
340.394,2.927
340.419,2.926
340.444,2.925
340.469,2.924
340.494,2.923
340.519,2.922
340.544,2.921
340.569,2.920
340.594,2.919
340.619,2.918
340.644,2.917
340.669,2.916
340.694,2.915
340.719,2.914
340.744,2.913
340.769,2.912
340.794,2.911
340.819,2.910
340.844,2.909
340.869,2.908
340.894,2.907
340.919,2.907
340.944,2.906
340.969,2.905
340.994,2.904
341.019,2.903
341.044,2.902
341.069,2.901
341.094,2.900
341.119,2.899
341.144,2.898
341.169,2.898
341.194,2.897
341.219,2.896
341.244,2.895
341.269,2.894
341.294,2.893
341.319,2.892
341.344,2.891
341.369,2.891
341.394,2.890
341.419,2.889
341.444,2.888
341.469,2.887
341.494,2.886
341.519,2.885
341.544,2.885
341.569,2.884
341.594,2.883
341.619,2.882
341.644,2.881
341.669,2.881
341.694,2.880
341.719,2.879
341.744,2.878
341.769,2.877
341.794,2.876
341.819,2.876
341.844,2.875
341.869,2.874
341.894,2.873
341.919,2.872
341.944,2.872
341.969,2.871
341.994,2.870
342.019,2.869
342.044,2.869
342.069,2.868
342.094,2.867
342.119,2.866
342.144,2.865
342.169,2.865
342.194,2.864
342.219,2.863
342.244,2.862
342.269,2.862
342.294,2.861
342.319,2.860
342.344,2.859
342.369,2.859
342.394,2.858
342.419,2.857
342.444,2.856
342.469,2.856
342.494,2.855
342.519,2.854
342.544,2.853
342.569,2.853
342.594,2.852
342.619,2.851
342.644,2.851
342.669,2.850
342.694,2.849
342.719,2.848
342.744,2.848
342.769,2.847
342.794,2.846
342.819,2.845
342.844,2.845
342.869,2.844
342.894,2.843
342.919,2.843
342.944,2.842
342.969,2.841
342.994,2.840
343.019,2.840
343.044,2.839
343.069,2.838
343.094,2.838
343.119,2.837
343.144,2.836
343.169,2.836
343.194,2.835
343.219,2.834
343.244,2.834
343.269,2.833
343.294,2.832
343.319,2.831
343.344,2.831
343.369,2.830
343.394,2.829
343.419,2.829
343.444,2.828
343.469,2.827
343.494,2.827
343.519,2.826
343.544,2.825
343.569,2.825
343.594,2.824
343.619,2.823
343.644,2.823
343.669,2.822
343.694,2.821
343.719,2.821
343.744,2.820
343.769,2.819
343.794,2.819
343.819,2.818
343.844,2.817
343.869,2.817
343.894,2.816
343.919,2.815
343.944,2.815
343.969,2.814
343.994,2.813
344.019,2.813
344.044,2.812
344.069,2.811
344.094,2.811
344.119,2.810
344.144,2.809
344.169,2.809
344.194,2.808
344.219,2.807
344.244,2.807
344.269,2.806
344.294,2.805
344.319,2.805
344.344,2.804
344.369,2.803
344.394,2.803
344.419,2.802
344.444,2.801
344.469,2.801
344.494,2.800
344.519,2.799
344.544,2.799
344.569,2.798
344.594,2.797
344.619,2.797
344.644,2.796
344.669,2.796
344.694,2.795
344.719,2.794
344.744,2.794
344.769,2.793
344.794,2.792
344.819,2.792
344.844,2.791
344.869,2.790
344.894,2.790
344.919,2.789
344.944,2.788
344.969,2.788
344.994,2.787
345.019,2.786
345.044,2.786
345.069,2.785
345.094,2.784
345.119,2.784
345.144,2.783
345.169,2.783
345.194,2.782
345.219,2.781
345.244,2.781
345.269,2.780
345.294,2.779
345.319,2.779
345.344,2.778
345.369,2.777
345.394,2.777
345.419,2.776
345.444,2.775
345.469,2.775
345.494,2.774
345.519,2.773
345.544,2.773
345.569,2.772
345.594,2.772
345.619,2.771
345.644,2.770
345.669,2.770
345.694,2.769
345.719,2.768
345.744,2.768
345.769,2.767
345.794,2.766
345.819,2.766
345.844,2.765
345.869,2.764
345.894,2.764
345.919,2.763
345.944,2.762
345.969,2.762
345.994,2.761
346.019,2.760
346.044,2.760
346.069,2.759
346.094,2.758
346.119,2.758
346.144,2.757
346.169,2.756
346.194,2.756
346.219,2.755
346.244,2.755
346.269,2.754
346.294,2.753
346.319,2.753
346.344,2.752
346.369,2.751
346.394,2.751
346.419,2.750
346.444,2.749
346.469,2.749
346.494,2.748
346.519,2.747
346.544,2.747
346.569,2.746
346.594,2.745
346.619,2.745
346.644,2.744
346.669,2.743
346.694,2.743
346.719,2.742
346.744,2.741
346.769,2.741
346.794,2.740
346.819,2.739
346.844,2.739
346.869,2.738
346.894,2.737
346.919,2.737
346.944,2.736
346.969,2.735
346.994,2.735
347.019,2.734
347.044,2.733
347.069,2.733
347.094,2.732
347.119,2.731
347.144,2.731
347.169,2.730
347.194,2.729
347.219,2.729
347.244,2.728
347.269,2.727
347.294,2.727
347.319,2.726
347.344,2.725
347.369,2.725
347.394,2.724
347.419,2.723
347.444,2.723
347.469,2.722
347.494,2.721
347.519,2.720
347.544,2.720
347.569,2.719
347.594,2.718
347.619,2.718
347.644,2.717
347.669,2.716
347.694,2.716
347.719,2.715
347.744,2.714
347.769,2.714
347.794,2.713
347.819,2.712
347.844,2.712
347.869,2.711
347.894,2.710
347.919,2.710
347.944,2.709
347.969,2.708
347.994,2.707
348.019,2.707
348.044,2.706
348.069,2.705
348.094,2.705
348.119,2.704
348.144,2.703
348.169,2.703
348.194,2.702
348.219,2.701
348.244,2.701
348.269,2.700
348.294,2.699
348.319,2.699
348.344,2.698
348.369,2.697
348.394,2.696
348.419,2.696
348.444,2.695
348.469,2.694
348.494,2.694
348.519,2.693
348.544,2.692
348.569,2.692
348.594,2.691
348.619,2.690
348.644,2.689
348.669,2.689
348.694,2.688
348.719,2.687
348.744,2.687
348.769,2.686
348.794,2.685
348.819,2.685
348.844,2.684
348.869,2.683
348.894,2.682
348.919,2.682
348.944,2.681
348.969,2.680
348.994,2.680
349.019,2.679
349.044,2.678
349.069,2.678
349.094,2.677
349.119,2.676
349.144,2.675
349.169,2.675
349.194,2.674
349.219,2.673
349.244,2.673
349.269,2.672
349.294,2.671
349.319,2.670
349.344,2.670
349.369,2.669
349.394,2.668
349.419,2.668
349.444,2.667
349.469,2.666
349.494,2.666
349.519,2.665
349.544,2.664
349.569,2.663
349.594,2.663
349.619,2.662
349.644,2.661
349.669,2.661
349.694,2.660
349.719,2.659
349.744,2.658
349.769,2.658
349.794,2.657
349.819,2.656
349.844,2.656
349.869,2.655
349.894,2.654
349.919,2.653
349.944,2.653
349.969,2.652
349.994,2.651
350.019,2.651
350.044,2.650
350.069,2.649
350.094,2.649
350.119,2.648
350.144,2.647
350.169,2.646
350.194,2.646
350.219,2.645
350.244,2.644
350.269,2.644
350.294,2.643
350.319,2.642
350.344,2.641
350.369,2.641
350.394,2.640
350.419,2.639
350.444,2.639
350.469,2.638
350.494,2.637
350.519,2.636
350.544,2.636
350.569,2.635
350.594,2.634
350.619,2.634
350.644,2.633
350.669,2.632
350.694,2.631
350.719,2.631
350.744,2.630
350.769,2.629
350.794,2.629
350.819,2.628
350.844,2.627
350.869,2.627
350.894,2.626
350.919,2.625
350.944,2.624
350.969,2.624
350.994,2.623
351.019,2.622
351.044,2.622
351.069,2.621
351.094,2.620
351.119,2.619
351.144,2.619
351.169,2.618
351.194,2.617
351.219,2.617
351.244,2.616
351.269,2.615
351.294,2.615
351.319,2.614
351.344,2.613
351.369,2.612
351.394,2.612
351.419,2.611
351.444,2.610
351.469,2.610
351.494,2.609
351.519,2.608
351.544,2.608
351.569,2.607
351.594,2.606
351.619,2.606
351.644,2.605
351.669,2.604
351.694,2.603
351.719,2.603
351.744,2.602
351.769,2.601
351.794,2.601
351.819,2.600
351.844,2.599
351.869,2.599
351.894,2.598
351.919,2.597
351.944,2.597
351.969,2.596
351.994,2.595
352.019,2.595
352.044,2.594
352.069,2.593
352.094,2.592
352.119,2.592
352.144,2.591
352.169,2.590
352.194,2.590
352.219,2.589
352.244,2.588
352.269,2.588
352.294,2.587
352.319,2.586
352.344,2.586
352.369,2.585
352.394,2.584
352.419,2.584
352.444,2.583
352.469,2.582
352.494,2.582
352.519,2.581
352.544,2.580
352.569,2.580
352.594,2.579
352.619,2.578
352.644,2.578
352.669,2.577
352.694,2.576
352.719,2.576
352.744,2.575
352.769,2.574
352.794,2.574
352.819,2.573
352.844,2.573
352.869,2.572
352.894,2.571
352.919,2.571
352.944,2.570
352.969,2.569
352.994,2.569
353.019,2.568
353.044,2.567
353.069,2.567
353.094,2.566
353.119,2.565
353.144,2.565
353.169,2.564
353.194,2.564
353.219,2.563
353.244,2.562
353.269,2.562
353.294,2.561
353.319,2.560
353.344,2.560
353.369,2.559
353.394,2.559
353.419,2.558
353.444,2.557
353.469,2.557
353.494,2.556
353.519,2.555
353.544,2.555
353.569,2.554
353.594,2.554
353.619,2.553
353.644,2.552
353.669,2.552
353.694,2.551
353.719,2.551
353.744,2.550
353.769,2.549
353.794,2.549
353.819,2.548
353.844,2.548
353.869,2.547
353.894,2.546
353.919,2.546
353.944,2.545
353.969,2.545
353.994,2.544
354.019,2.543
354.044,2.543
354.069,2.542
354.094,2.542
354.119,2.541
354.144,2.541
354.169,2.540
354.194,2.539
354.219,2.539
354.244,2.538
354.269,2.538
354.294,2.537
354.319,2.537
354.344,2.536
354.369,2.535
354.394,2.535
354.419,2.534
354.444,2.534
354.469,2.533
354.494,2.533
354.519,2.532
354.544,2.532
354.569,2.531
354.594,2.531
354.619,2.530
354.644,2.529
354.669,2.529
354.694,2.528
354.719,2.528
354.744,2.527
354.769,2.527
354.794,2.526
354.819,2.526
354.844,2.525
354.869,2.525
354.894,2.524
354.919,2.524
354.944,2.523
354.969,2.523
354.994,2.522
355.019,2.522
355.044,2.521
355.069,2.521
355.094,2.520
355.119,2.520
355.144,2.519
355.169,2.519
355.194,2.518
355.219,2.518
355.244,2.517
355.269,2.517
355.294,2.516
355.319,2.516
355.344,2.515
355.369,2.515
355.394,2.514
355.419,2.514
355.444,2.513
355.469,2.513
355.494,2.512
355.519,2.512
355.544,2.512
355.569,2.511
355.594,2.511
355.619,2.510
355.644,2.510
355.669,2.509
355.694,2.509
355.719,2.508
355.744,2.508
355.769,2.507
355.794,2.507
355.819,2.507
355.844,2.506
355.869,2.506
355.894,2.505
355.919,2.505
355.944,2.504
355.969,2.504
355.994,2.504
356.019,2.503
356.044,2.503
356.069,2.502
356.094,2.502
356.119,2.502
356.144,2.501
356.169,2.501
356.194,2.500
356.219,2.500
356.244,2.500
356.269,2.499
356.294,2.499
356.319,2.498
356.344,2.498
356.369,2.498
356.394,2.497
356.419,2.497
356.444,2.497
356.469,2.496
356.494,2.496
356.519,2.496
356.544,2.495
356.569,2.495
356.594,2.494
356.619,2.494
356.644,2.494
356.669,2.493
356.694,2.493
356.719,2.493
356.744,2.492
356.769,2.492
356.794,2.492
356.819,2.491
356.844,2.491
356.869,2.491
356.894,2.490
356.919,2.490
356.944,2.490
356.969,2.489
356.994,2.489
357.019,2.489
357.044,2.489
357.069,2.488
357.094,2.488
357.119,2.488
357.144,2.487
357.169,2.487
357.194,2.487
357.219,2.486
357.244,2.486
357.269,2.486
357.294,2.486
357.319,2.485
357.344,2.485
357.369,2.485
357.394,2.485
357.419,2.484
357.444,2.484
357.469,2.484
357.494,2.484
357.519,2.483
357.544,2.483
357.569,2.483
357.594,2.483
357.619,2.482
357.644,2.482
357.669,2.482
357.694,2.482
357.719,2.481
357.744,2.481
357.769,2.481
357.794,2.481
357.819,2.480
357.844,2.480
357.869,2.480
357.894,2.480
357.919,2.480
357.944,2.479
357.969,2.479
357.994,2.479
358.019,2.479
358.044,2.479
358.069,2.478
358.094,2.478
358.119,2.478
358.144,2.478
358.169,2.478
358.194,2.478
358.219,2.477
358.244,2.477
358.269,2.477
358.294,2.477
358.319,2.477
358.344,2.477
358.369,2.476
358.394,2.476
358.419,2.476
358.444,2.476
358.469,2.476
358.494,2.476
358.519,2.476
358.544,2.475
358.569,2.475
358.594,2.475
358.619,2.475
358.644,2.475
358.669,2.475
358.694,2.475
358.719,2.475
358.744,2.474
358.769,2.474
358.794,2.474
358.819,2.474
358.844,2.474
358.869,2.474
358.894,2.474
358.919,2.474
358.944,2.474
358.969,2.474
358.994,2.473
359.019,2.473
359.044,2.473
359.069,2.473
359.094,2.473
359.119,2.473
359.144,2.473
359.169,2.473
359.194,2.473
359.219,2.473
359.244,2.473
359.269,2.473
359.294,2.473
359.319,2.473
359.344,2.473
359.369,2.472
359.394,2.472
359.419,2.472
359.444,2.472
359.469,2.472
359.494,2.472
359.519,2.472
359.544,2.472
359.569,2.472
359.594,2.472
359.619,2.472
359.644,2.472
359.669,2.472
359.694,2.472
359.719,2.472
359.744,2.472
359.769,2.472
359.794,2.472
359.819,2.472
359.844,2.472
359.869,2.472
359.894,2.472
359.919,2.472
359.944,2.472
359.969,2.472
359.994,2.472
360.019,2.472
360.044,2.472
360.069,2.472
360.094,2.472
360.119,2.472
360.144,2.472
360.169,2.472
360.194,2.472
360.219,2.473
360.244,2.473
360.269,2.473
360.294,2.473
360.319,2.473
360.344,2.473
360.369,2.473
360.394,2.473
360.419,2.473
360.444,2.473
360.469,2.473
360.494,2.473
360.519,2.473
360.544,2.473
360.569,2.473
360.594,2.473
360.619,2.474
360.644,2.474
360.669,2.474
360.694,2.474
360.719,2.474
360.744,2.474
360.769,2.474
360.794,2.474
360.819,2.474
360.844,2.474
360.869,2.474
360.894,2.474
360.919,2.475
360.944,2.475
360.969,2.475
360.994,2.475
361.019,2.475
361.044,2.475
361.069,2.475
361.094,2.475
361.119,2.475
361.144,2.476
361.169,2.476
361.194,2.476
361.219,2.476
361.244,2.476
361.269,2.476
361.294,2.476
361.319,2.476
361.344,2.477
361.369,2.477
361.394,2.477
361.419,2.477
361.444,2.477
361.469,2.477
361.494,2.477
361.519,2.478
361.544,2.478
361.569,2.478
361.594,2.478
361.619,2.478
361.644,2.478
361.669,2.478
361.694,2.479
361.719,2.479
361.744,2.479
361.769,2.479
361.794,2.479
361.819,2.479
361.844,2.480
361.869,2.480
361.894,2.480
361.919,2.480
361.944,2.480
361.969,2.480
361.994,2.481
362.019,2.481
362.044,2.481
362.069,2.481
362.094,2.481
362.119,2.481
362.144,2.482
362.169,2.482
362.194,2.482
362.219,2.482
362.244,2.482
362.269,2.482
362.294,2.483
362.319,2.483
362.344,2.483
362.369,2.483
362.394,2.483
362.419,2.483
362.444,2.484
362.469,2.484
362.494,2.484
362.519,2.484
362.544,2.484
362.569,2.484
362.594,2.485
362.619,2.485
362.644,2.485
362.669,2.485
362.694,2.485
362.719,2.486
362.744,2.486
362.769,2.486
362.794,2.486
362.819,2.486
362.844,2.486
362.869,2.487
362.894,2.487
362.919,2.487
362.944,2.487
362.969,2.487
362.994,2.488
363.019,2.488
363.044,2.488
363.069,2.488
363.094,2.488
363.119,2.488
##END=
