##TITLE=9-Bromophenanthrene
##JCAMP-DX=4.24
##DATA TYPE=UV/VIS SPECTRUM
##ORIGIN=INSTITUTE OF ENERGY PROBLEMS OF CHEMICAL PHYSICS, RAS
##OWNER=INEP CP RAS, NIST OSRD
Collection (C) 2007 copyright by the U.S. Secretary of Commerce
on behalf of the United States of America. All rights reserved.
##CAS REGISTRY NO=573-17-1
##MOLFORM=C14H9Br
##MP=63
##SOURCE REFERENCE=RAS UV No. 8693
##$NIST SQUIB=1966BAR/SZO208B
##$NIST SOURCE=TSGMTE
##SPECTROMETER/DATA SYSTEM=Beckman DU
##XUNITS=Wavelength (nm)
##YUNITS=Logarithm epsilon
##XFACTOR=1.000000
##YFACTOR=1.000000
##FIRSTX=206.1238
##LASTX=335.1575
##FIRSTY=4.24441
##MAXX=335.158
##MINX=206.124
##MAXY=4.71725
##MINY=2.23176
##NPOINTS=998
##$REF AUTHOR=Bartecki, A.; Szoke, J.; Varsanyi, G.; Vizesy, M.
##$REF TITLE=Absorption spectra in the ultraviolet and visible region. Volume 7
##$REF PAGE=208
##$REF DATE=1966
##$REF PUBLISHER=Academic Press
##$REF LOCATION=New York
##XYPOINTS=(XY..XY)
206.1238,4.244414
206.1256,4.237233
206.2751,4.247507
206.2759,4.244430
206.4770,4.250605
206.4778,4.247528
206.6280,4.254724
206.6290,4.250621
206.7793,4.257817
206.7800,4.254740
206.9812,4.260916
206.9820,4.257838
207.1322,4.265035
207.1332,4.260931
207.2827,4.271205
207.2835,4.268128
207.4844,4.275329
207.4854,4.271226
207.6356,4.278422
207.6364,4.275345
207.7869,4.281516
207.7877,4.278438
207.9886,4.285640
207.9896,4.281536
208.1398,4.288733
208.1406,4.285655
208.2911,4.291826
208.2918,4.288748
208.4928,4.295950
208.4938,4.291846
208.6440,4.299043
208.6448,4.295965
208.7953,4.302136
208.7960,4.299058
208.9969,4.306260
208.9980,4.302156
209.1482,4.309353
209.1490,4.306275
209.3002,4.309368
209.8044,4.319679
210.1591,4.319715
210.3104,4.322808
211.5265,4.322931
211.6793,4.319868
212.0340,4.319904
212.1867,4.316842
212.3388,4.316857
212.6952,4.309712
212.8472,4.309728
212.8480,4.306650
213.0507,4.306670
213.2037,4.302582
213.3557,4.302598
213.3565,4.299520
213.5592,4.299540
213.8650,4.292390
214.0677,4.292411
214.3732,4.286286
214.5759,4.286306
214.7290,4.282218
214.8810,4.282234
214.8817,4.279156
215.0844,4.279177
215.2372,4.276114
215.3892,4.276130
215.7457,4.268984
215.8977,4.269000
216.2542,4.261854
216.6089,4.261890
216.7617,4.258828
216.9137,4.258843
217.1171,4.255786
217.2691,4.255802
217.4222,4.251713
217.6249,4.251734
217.7776,4.248672
217.9296,4.248687
218.1331,4.245630
218.2851,4.245645
218.2861,4.241542
218.6408,4.241578
218.7936,4.238515
218.9456,4.238531
219.1491,4.235474
219.6558,4.235525
219.8088,4.231437
219.9608,4.231452
220.1643,4.228395
220.4683,4.228426
220.6718,4.225369
221.1785,4.225420
221.1795,4.221316
221.6862,4.221368
221.6870,4.218290
221.9910,4.218321
222.1945,4.215264
222.3465,4.215279
222.7029,4.208134
222.8550,4.208149
222.8557,4.205071
223.0077,4.205087
223.0088,4.200983
223.2114,4.201004
223.2122,4.197926
223.3642,4.197941
223.3650,4.194864
224.0273,4.180568
224.0280,4.177490
224.2307,4.177511
224.2315,4.174433
224.3835,4.174448
224.3845,4.170345
224.5365,4.170360
224.5373,4.167283
224.7400,4.167303
224.7417,4.160122
224.8937,4.160137
224.8945,4.157060
225.0465,4.157075
225.0473,4.153997
225.2500,4.154018
225.2510,4.149914
225.4030,4.149930
225.4038,4.146852
225.5558,4.146867
225.5565,4.143790
225.7602,4.139707
225.7610,4.136629
225.9130,4.136644
225.9138,4.133567
226.0658,4.133582
226.0668,4.129479
226.2695,4.129499
226.2703,4.126421
226.4223,4.126437
226.4230,4.123359
226.5750,4.123374
226.5761,4.119271
226.7787,4.119291
226.7795,4.116214
226.9315,4.116229
226.9323,4.113151
227.0843,4.113167
227.0853,4.109063
227.4415,4.102944
227.4425,4.098840
227.5946,4.098856
227.5953,4.095778
227.7980,4.095799
227.7988,4.092721
227.9508,4.092736
227.9518,4.088633
228.1038,4.088648
228.1046,4.085570
228.3073,4.085591
228.3080,4.082513
228.4600,4.082529
228.4611,4.078425
228.6131,4.078440
228.6138,4.075363
228.8165,4.075383
228.8173,4.072306
228.9693,4.072321
228.9703,4.068217
229.1223,4.068233
229.1231,4.065155
229.3265,4.062098
229.4785,4.062113
229.6316,4.058025
229.9863,4.058061
230.1391,4.054999
230.3417,4.055019
230.4930,4.058112
230.9997,4.058164
231.1500,4.065360
231.1507,4.062283
231.3509,4.072562
231.3519,4.068459
231.5014,4.078733
231.5021,4.075655
231.6516,4.085929
231.6524,4.082852
231.8518,4.096209
231.8535,4.089028
232.0020,4.103406
232.0030,4.099302
232.1525,4.109576
232.1533,4.106499
232.3527,4.119856
232.3542,4.113700
232.5029,4.127052
232.5037,4.123975
232.6524,4.137327
232.6542,4.130145
232.8533,4.144528
232.8551,4.137347
233.0038,4.150699
233.0046,4.147621
233.1533,4.160973
233.1548,4.154818
233.3542,4.168175
233.3550,4.165097
233.5037,4.178449
233.5062,4.168191
233.6539,4.185646
233.6557,4.178465
233.8551,4.191822
233.8566,4.185667
234.0053,4.199019
234.0071,4.191837
234.1548,4.209293
234.1566,4.202112
234.3557,4.216495
234.3567,4.212391
234.5062,4.222665
234.5070,4.219588
234.6565,4.229862
234.6572,4.226784
234.8574,4.237064
234.8584,4.232960
235.0069,4.247338
235.0086,4.240157
235.1574,4.253509
235.1581,4.250431
235.3583,4.260711
235.3590,4.257633
235.5085,4.267907
235.5095,4.263804
235.6590,4.274078
235.6605,4.267923
235.8599,4.281280
235.8607,4.278202
236.0102,4.288476
236.0112,4.284373
236.1596,4.298751
236.1614,4.291569
236.3616,4.301849
236.3623,4.298771
236.5118,4.309045
236.5128,4.304942
236.6613,4.319320
236.6631,4.312138
236.8625,4.325496
236.8632,4.322418
237.0127,4.332692
237.0135,4.329614
237.1630,4.339889
237.1640,4.335785
237.3641,4.346065
237.3649,4.342987
237.5144,4.353261
237.5151,4.350184
237.6638,4.363536
237.6656,4.356354
238.0153,4.376908
238.0168,4.370753
238.1655,4.384105
238.1663,4.381027
238.3664,4.391306
238.3674,4.387203
238.5169,4.397477
238.5177,4.394399
238.6664,4.407751
238.6689,4.397493
238.8681,4.411876
238.8691,4.407772
239.0186,4.418046
239.0193,4.414969
239.1688,4.425243
239.1696,4.422165
239.3697,4.432445
239.3707,4.428341
239.5210,4.435538
242.6862,4.545631
242.8874,4.551807
242.8881,4.548729
243.1889,4.562097
243.1896,4.559019
243.3905,4.566221
243.3916,4.562117
243.6920,4.576510
243.6930,4.572407
244.0442,4.586805
244.0452,4.582702
244.1955,4.589898
244.1962,4.586821
244.5476,4.600193
244.5484,4.597116
244.6989,4.603286
244.6996,4.600209
245.9082,4.631108
246.0602,4.631124
246.5644,4.641434
246.7156,4.644527
246.7164,4.641449
247.0693,4.648667
247.0703,4.644563
247.4240,4.648702
247.5753,4.651795
247.9300,4.651831
248.0812,4.654924
248.2333,4.654940
248.4349,4.659064
248.5862,4.662157
248.5869,4.659079
248.9409,4.662193
249.0921,4.665286
249.2442,4.665301
249.4458,4.669425
249.7491,4.672534
249.7499,4.669456
250.1038,4.672570
250.2551,4.675663
250.4567,4.679787
250.4578,4.675683
250.7608,4.679818
250.9627,4.682916
251.1147,4.682931
251.2660,4.686024
251.4687,4.686045
251.7709,4.693257
252.1256,4.693293
252.2769,4.696386
252.4796,4.696406
252.6306,4.700525
252.7826,4.700541
252.9845,4.703639
253.1365,4.703654
253.2878,4.706747
253.4905,4.706768
253.6415,4.710887
253.7935,4.710902
253.9954,4.714000
254.1474,4.714016
254.2987,4.717109
255.6668,4.717247
255.6676,4.714170
256.0223,4.714206
256.0231,4.711128
256.1761,4.707040
256.1768,4.703962
256.3296,4.700900
256.3306,4.696796
256.5341,4.693739
256.5384,4.676299
256.6912,4.673237
256.6962,4.652719
256.8490,4.649657
256.8551,4.625035
257.0585,4.621978
257.0628,4.604538
257.2156,4.601476
257.2189,4.588139
257.3719,4.584051
257.3752,4.570714
257.5787,4.567657
257.5822,4.553295
257.7350,4.550232
257.8939,4.522549
258.0973,4.519491
258.0999,4.509233
258.2526,4.506170
258.2552,4.495911
258.4082,4.491823
258.4107,4.481564
258.6134,4.481585
258.6167,4.468248
258.7695,4.465186
258.7720,4.454927
258.9250,4.450839
258.9266,4.444684
259.1303,4.440600
259.1318,4.434445
259.2848,4.430357
259.2873,4.420098
259.4401,4.417036
259.4419,4.409855
259.6453,4.406797
259.6471,4.399616
259.7999,4.396554
259.8017,4.389373
259.9544,4.386310
259.9562,4.379129
260.1589,4.379150
260.1604,4.372994
260.3135,4.368906
260.3150,4.362751
260.4680,4.358663
260.4695,4.352507
260.6732,4.348424
260.6740,4.345347
260.8268,4.342284
260.8278,4.338181
260.9806,4.335118
260.9813,4.332041
261.1850,4.327958
261.1858,4.324880
261.3385,4.321818
261.3403,4.314636
261.4931,4.311574
261.4941,4.307471
261.6976,4.304413
261.6983,4.301336
261.8514,4.297248
261.8521,4.294170
262.0049,4.291108
262.0059,4.287004
262.2093,4.283947
262.2101,4.280869
262.5159,4.273719
262.5167,4.270641
262.7204,4.266558
262.7211,4.263480
263.0269,4.256330
263.0277,4.253252
263.2311,4.250195
263.2322,4.246092
263.3849,4.243029
263.3857,4.239952
263.7422,4.232806
263.7429,4.229729
263.8950,4.229744
263.8960,4.225640
264.0487,4.222578
264.0495,4.219500
264.4060,4.212355
264.4067,4.209277
264.7632,4.202132
264.7640,4.199054
265.0698,4.191904
265.0705,4.188826
265.2732,4.188847
265.2742,4.184743
265.4270,4.181681
265.4278,4.178603
265.5798,4.178619
265.5808,4.174515
265.7835,4.174536
265.7843,4.171458
266.0901,4.164308
266.0908,4.161230
266.4473,4.154085
266.4481,4.151007
266.8045,4.143862
266.8053,4.140784
266.9573,4.140799
266.9581,4.137722
267.1111,4.133633
267.1119,4.130556
267.3145,4.130576
267.3153,4.127499
267.4673,4.127514
267.4683,4.123410
267.6211,4.120348
267.6219,4.117270
267.8246,4.117291
267.8256,4.113187
267.9784,4.110125
267.9791,4.107047
268.4884,4.096840
268.4894,4.092736
268.8456,4.086617
268.8466,4.082513
269.3559,4.072306
269.3566,4.069228
269.5086,4.069243
269.5094,4.066166
269.8659,4.059020
269.8666,4.055943
270.3759,4.045735
270.3769,4.041632
270.5289,4.041647
270.5297,4.038569
270.8862,4.031424
270.8869,4.028346
271.0397,4.025284
271.0407,4.021180
271.1935,4.018118
271.1942,4.015040
271.5507,4.007895
271.5515,4.004817
271.9080,3.997672
271.9087,3.994594
272.0607,3.994610
272.0625,3.987429
272.2145,3.987444
272.2163,3.980263
272.4190,3.980283
272.4205,3.974128
272.5725,3.974143
272.5743,3.966962
272.7263,3.966977
272.7271,3.963900
272.9308,3.959817
272.9315,3.956739
273.2373,3.949589
273.2381,3.946511
273.5946,3.939366
273.5953,3.936288
273.7474,3.936303
273.9508,3.933246
275.1163,3.933364
275.2668,3.939535
275.2675,3.936457
275.4684,3.943659
275.4694,3.939555
275.6197,3.946752
275.6204,3.943674
275.7709,3.949845
275.7717,3.946767
275.9726,3.953969
275.9736,3.949866
276.2759,3.957078
276.2766,3.954000
276.9853,3.957149
277.1366,3.960243
277.4913,3.960278
277.6440,3.957216
278.1507,3.957267
278.5072,3.950122
278.5080,3.947044
278.6600,3.947060
278.6608,3.943982
278.8128,3.943998
278.8138,3.939894
279.0165,3.939914
279.0172,3.936837
279.3230,3.929686
279.3238,3.926609
280.3423,3.906193
280.3431,3.903116
281.0560,3.888825
281.0568,3.885747
281.2088,3.885763
281.2096,3.882685
281.3626,3.878597
281.5653,3.878618
281.5660,3.875540
281.7181,3.875555
281.7188,3.872478
281.8708,3.872493
282.0745,3.868410
282.2265,3.868425
282.3793,3.865363
284.1022,3.865537
284.2534,3.868630
284.4044,3.872749
284.4054,3.868646
284.6064,3.875848
284.6071,3.872770
284.7576,3.878941
284.7584,3.875863
285.2608,3.893354
285.2618,3.889251
285.4113,3.899525
285.4120,3.896447
285.6122,3.906727
285.6130,3.903649
285.7617,3.917001
285.7635,3.909820
285.9119,3.924198
285.9129,3.920094
286.1113,3.937555
286.1138,3.927296
286.2616,3.944752
286.2633,3.937570
286.4121,3.950922
286.4136,3.944767
286.6130,3.958124
286.6137,3.955046
286.7632,3.965321
286.7642,3.961217
286.9127,3.975595
286.9145,3.968414
287.4169,3.985905
287.7716,3.985941
287.9228,3.989034
288.2775,3.989070
288.4303,3.986008
288.9370,3.986059
288.9381,3.981955
289.1407,3.981976
289.1415,3.978898
289.2943,3.975836
289.2960,3.968655
289.4481,3.968670
289.4498,3.961489
289.6525,3.961509
289.6540,3.955354
289.8061,3.955370
289.8086,3.945111
289.9606,3.945126
289.9624,3.937945
290.1651,3.937965
290.1676,3.927706
290.3196,3.927722
290.3214,3.920541
290.4734,3.920556
290.4749,3.914401
290.6786,3.910318
290.6802,3.904162
290.8332,3.900074
290.8339,3.896996
290.9867,3.893934
290.9885,3.886753
291.1912,3.886773
291.1937,3.876514
291.3457,3.876530
291.3475,3.869349
291.5003,3.866286
291.5021,3.859105
291.7047,3.859126
291.7063,3.852970
291.8593,3.848882
291.8601,3.845804
292.0128,3.842742
292.0146,3.835561
292.2173,3.835581
292.2198,3.825322
292.3726,3.822260
292.3736,3.818157
292.5264,3.815094
292.5271,3.812017
292.8836,3.804871
293.8971,3.804974
294.2485,3.818346
294.2500,3.812191
294.3987,3.825543
294.4005,3.818362
294.5490,3.832740
294.5500,3.828636
294.7491,3.843019
294.7509,3.835838
294.8986,3.853293
294.9004,3.846112
295.0491,3.859464
295.0506,3.853309
295.2500,3.866666
295.2518,3.859485
295.3995,3.876940
295.4013,3.869759
295.5490,3.887214
295.5515,3.876956
295.7491,3.897494
295.7517,3.887235
295.8994,3.904691
295.9011,3.897509
296.0488,3.914965
296.0514,3.904706
296.2500,3.921141
296.2515,3.914985
296.3995,3.931415
296.4010,3.925260
296.5490,3.941689
296.5515,3.931430
296.7499,3.948891
296.7517,3.941710
296.8994,3.959165
296.9012,3.951984
297.0489,3.969440
297.0514,3.959181
297.2498,3.976641
297.2515,3.969460
297.3993,3.986916
297.4018,3.976657
297.5498,3.993086
297.5513,3.986931
297.7507,4.000288
297.7524,3.993107
297.9001,4.010562
297.9027,4.000304
298.0504,4.017759
298.0522,4.010578
298.2505,4.028039
298.2531,4.017780
298.4010,4.034209
298.4026,4.028054
298.5505,4.044484
298.5531,4.034225
298.7522,4.048608
298.7532,4.044504
298.9027,4.054778
298.9035,4.051701
299.0529,4.061975
299.0537,4.058897
299.2549,4.065073
299.2556,4.061996
299.4069,4.065089
299.5579,4.069208
300.0646,4.069259
300.2683,4.065176
300.5723,4.065207
300.7758,4.062149
300.7783,4.051890
300.9303,4.051906
300.9321,4.044725
301.0849,4.041662
301.0892,4.024222
301.2926,4.021165
301.2959,4.007828
301.4490,4.003740
301.4523,3.990404
301.6050,3.987341
301.6111,3.962720
301.8146,3.959663
302.1295,3.915580
302.1330,3.901218
302.3365,3.898161
302.3433,3.870462
302.4961,3.867399
302.5004,3.849959
302.6532,3.846897
302.6575,3.829457
302.8609,3.826400
302.8668,3.802804
303.0198,3.798716
303.0249,3.778198
303.1776,3.775136
303.1827,3.754618
303.3862,3.751561
303.3938,3.720784
303.5468,3.716696
303.5518,3.696178
303.7046,3.693116
303.7097,3.672598
303.9131,3.669541
303.9192,3.644920
304.0720,3.641857
304.0778,3.618262
304.2309,3.614174
304.2349,3.597759
304.4386,3.593676
304.4427,3.577262
304.5957,3.573174
304.6033,3.542397
304.7561,3.539335
304.7604,3.521895
304.9638,3.518838
304.9697,3.495242
305.1227,3.491154
305.1293,3.464481
305.2823,3.460393
305.2881,3.436797
305.4916,3.433740
305.4959,3.416300
305.6487,3.413238
305.6547,3.388616
305.8075,3.385554
305.8133,3.361958
306.0170,3.357875
306.0229,3.334280
306.1756,3.331218
306.1807,3.310700
306.3337,3.306612
306.3403,3.279938
306.5440,3.275855
306.5499,3.252260
306.7019,3.252275
306.7087,3.224576
306.8615,3.221514
306.8673,3.197918
307.0710,3.193835
307.0768,3.170240
307.2296,3.167178
307.2357,3.142556
307.3877,3.142572
307.3953,3.111795
307.5980,3.111815
307.6038,3.088220
307.7566,3.085158
307.7635,3.057459
307.9162,3.054396
307.9223,3.029775
308.1250,3.029795
308.1316,3.003122
308.2846,2.999034
308.2922,2.968257
308.4450,2.965195
308.4501,2.944677
308.6535,2.941620
308.6603,2.913921
308.8131,2.910859
308.8192,2.886237
308.9720,2.883175
308.9763,2.865735
309.1790,2.865756
309.1856,2.839082
309.3386,2.834994
309.3419,2.821658
309.4947,2.818595
309.4982,2.804233
309.7017,2.801176
309.7060,2.783736
309.8587,2.780673
309.8630,2.763233
310.0158,2.760171
310.0191,2.746834
310.2228,2.742751
310.2269,2.726337
310.3799,2.722249
310.3832,2.708912
310.5352,2.708928
310.5395,2.691487
310.7430,2.688430
310.7463,2.675094
310.8993,2.671005
310.9026,2.657669
311.0554,2.654607
311.0589,2.640244
311.2624,2.637187
311.2641,2.630006
311.4169,2.626944
311.4220,2.606426
311.5747,2.603363
311.5773,2.593105
311.7810,2.589021
311.7835,2.578763
311.9363,2.575700
311.9396,2.562364
312.0926,2.558275
312.0951,2.548017
312.2986,2.544959
312.3019,2.531623
312.4549,2.527535
312.4574,2.517276
312.6102,2.514213
312.6128,2.503955
312.8162,2.500897
312.8187,2.490638
312.9708,2.490654
312.9733,2.480395
313.1263,2.476307
313.1289,2.466048
313.3315,2.466068
313.3331,2.459913
313.4861,2.455825
313.4876,2.449670
313.6406,2.445581
313.6422,2.439426
313.8448,2.439447
313.8459,2.435343
313.9979,2.435358
313.9986,2.432281
314.1507,2.432296
314.1514,2.429219
314.5079,2.422073
314.6599,2.422088
314.8634,2.419031
317.7010,2.419319
317.9047,2.415236
318.0567,2.415251
318.2095,2.412189
318.5642,2.412225
318.7170,2.409162
318.9196,2.409183
318.9207,2.405079
319.0727,2.405095
319.0734,2.402017
319.2262,2.398955
319.2280,2.391773
319.4307,2.391794
319.4314,2.388716
319.5845,2.384628
319.5852,2.381550
319.7380,2.378488
319.7405,2.368229
319.9432,2.368250
319.9468,2.353887
320.0995,2.350825
320.1028,2.337488
320.2559,2.333400
320.2584,2.323141
320.4618,2.320084
320.4651,2.306748
320.6182,2.302659
320.6232,2.282142
320.7760,2.279079
320.7778,2.271898
320.9812,2.268841
320.9838,2.258582
321.1358,2.258598
321.1376,2.251416
321.2896,2.251432
321.2903,2.248354
321.4930,2.248374
321.4938,2.245297
321.6458,2.245312
321.7988,2.241224
323.0150,2.241347
323.1660,2.245466
323.3180,2.245481
323.5191,2.251657
323.5199,2.248580
323.6694,2.258854
323.6712,2.251673
324.0208,2.272226
324.0223,2.266071
324.1703,2.282501
324.1718,2.276345
324.3205,2.289697
324.3223,2.282516
324.5214,2.296899
324.5232,2.289718
324.6719,2.303070
324.6734,2.296915
324.8222,2.310266
324.8239,2.303085
325.0231,2.317468
325.0241,2.313365
325.1736,2.323639
325.1743,2.320561
325.3238,2.330835
325.3246,2.327758
325.5258,2.333934
325.6778,2.333949
325.8288,2.338068
326.5382,2.338140
326.6912,2.334052
326.8432,2.334067
326.8447,2.327912
327.0474,2.327932
327.0492,2.320751
327.2020,2.317689
327.2030,2.313585
327.3558,2.310523
327.3565,2.307445
327.5602,2.303362
327.5618,2.297207
327.7148,2.293119
327.7163,2.286963
327.8693,2.282875
327.8701,2.279797
328.0735,2.276740
328.0753,2.269559
328.2281,2.266497
328.2291,2.262393
328.3819,2.259331
328.3826,2.256253
328.5863,2.252170
328.5871,2.249093
328.8929,2.241942
328.8937,2.238864
329.0971,2.235807
329.4011,2.235838
329.6048,2.231755
329.9089,2.231786
330.1106,2.235910
330.2618,2.239003
330.2626,2.235925
330.4120,2.246200
330.4138,2.239018
330.6122,2.256479
330.6147,2.246220
330.7602,2.272909
330.7635,2.259572
330.9096,2.283183
330.9122,2.272924
331.1080,2.300644
331.1113,2.287307
331.2575,2.310918
331.2600,2.300659
331.4052,2.328373
331.4088,2.314011
331.6046,2.341730
331.6079,2.328394
331.7541,2.352005
331.7559,2.344824
331.9036,2.362279
331.9061,2.352020
332.1030,2.375636
332.1055,2.365377
332.2514,2.390014
332.2540,2.379755
332.4019,2.396185
332.4027,2.393107
332.6021,2.406464
332.6036,2.400309
332.7531,2.410583
332.9043,2.413676
332.9051,2.410599
333.2591,2.413712
333.4103,2.416805
333.6138,2.413748
333.9178,2.413779
334.1212,2.410722
334.1223,2.406618
334.2743,2.406634
334.2768,2.396375
334.4288,2.396390
334.4321,2.383053
334.6356,2.379996
334.6391,2.365634
334.7919,2.362571
334.7952,2.349235
334.9472,2.349250
334.9515,2.331810
335.1542,2.331831
335.1575,2.318494
##END=
