##TITLE=2,6 - Dinitrophenol
##JCAMP-DX=4.24
##DATA TYPE=UV/VIS SPECTRUM
##ORIGIN=INSTITUTE OF ENERGY PROBLEMS OF CHEMICAL PHYSICS, RAS
##OWNER=INEP CP RAS, NIST OSRD
Collection (C) 2007 copyright by the U.S. Secretary of Commerce
on behalf of the United States of America. All rights reserved.
##CAS REGISTRY NO=573-56-8
##MOLFORM=C6H4N2O5
##MP=63.5
##SOURCE REFERENCE=RAS UV No. 8995
##$NIST SQUIB=1966TIMd9/61C
##$NIST SOURCE=TSGMTE
##SPECTROMETER/DATA SYSTEM=Unicam SP 700
##XUNITS=Wavelength (nm)
##YUNITS=Logarithm epsilon
##XFACTOR=1.000000
##YFACTOR=1.000000
##FIRSTX=406.4767
##LASTX=198.2304
##FIRSTY=2.31053
##MAXX=406.477
##MINX=198.23
##MAXY=4.19453
##MINY=2.31053
##NPOINTS=170
##$REF AUTHOR=Timmons, C.J.
##$REF TITLE=2,6-Dinitrophenol
##$REF BOOK TITLE=UV Atlas of Organic Compounds - Vol. 2
##$REF PAGE=D9/61
##$REF DATE=1966
##$REF PUBLISHER=Plenum Press
##$REF LOCATION=New York
##XYPOINTS=(XY..XY)
406.4767,2.310535
405.8541,2.342248
405.2150,2.373964
404.5602,2.405684
403.8905,2.437406
403.2066,2.469127
402.5093,2.500847
401.7993,2.532562
401.0773,2.564272
400.3441,2.595975
399.6004,2.627669
398.8470,2.659352
398.0844,2.691023
397.3134,2.722679
396.5347,2.754320
395.7490,2.785943
394.9569,2.817547
394.1592,2.849130
393.3564,2.880689
392.5492,2.912225
391.7382,2.943734
390.9241,2.975215
390.1075,3.006666
389.2889,3.038086
388.4691,3.069473
387.6485,3.100825
386.8277,3.132140
386.0073,3.163417
386.0073,3.163417
383.8869,3.228331
382.4070,3.273690
381.3492,3.305503
380.5036,3.329780
379.6654,3.352530
378.6333,3.379764
378.6333,3.379764
377.1488,3.411861
375.6571,3.444187
374.1293,3.476558
372.5372,3.508787
370.8536,3.540688
369.0527,3.572075
367.1097,3.602763
365.0014,3.632565
362.7063,3.661296
360.2044,3.688769
360.2044,3.688769
356.2031,3.711029
352.2227,3.722713
348.2396,3.724157
344.2323,3.715693
340.1818,3.697655
340.1818,3.697655
337.9018,3.680129
335.5048,3.660723
333.6823,3.637709
333.6823,3.637709
331.0919,3.617542
328.1227,3.582338
325.2405,3.543040
322.8806,3.510593
322.8806,3.510593
321.8496,3.500536
320.5555,3.484095
319.9209,3.471119
319.9209,3.471119
317.3678,3.437333
314.8942,3.401948
312.3536,3.366281
312.3536,3.366281
310.8752,3.353489
309.3241,3.341099
307.4726,3.331228
307.4726,3.331228
305.5844,3.315234
303.9884,3.309447
301.6516,3.314181
301.6516,3.314181
299.1816,3.347291
296.4069,3.375274
293.8742,3.405307
293.8742,3.405307
292.8985,3.430082
291.6935,3.458004
290.3443,3.480395
290.3443,3.480395
289.4672,3.502400
287.7734,3.531678
286.6454,3.550097
286.6454,3.550097
285.0278,3.581742
284.1555,3.598356
283.5699,3.611309
283.5699,3.611309
280.4191,3.667561
279.2177,3.690369
278.8892,3.699282
278.8892,3.699282
277.6362,3.715158
276.0376,3.742174
275.2212,3.757180
275.2212,3.757180
272.7394,3.793728
270.2979,3.830276
267.8915,3.866825
267.8915,3.866825
265.9017,3.892285
263.5892,3.920840
261.1726,3.946801
258.8562,3.964477
258.8562,3.964477
256.9693,3.979205
254.7590,3.988925
252.6255,3.993735
252.6255,3.993735
250.9230,3.999107
248.0231,3.995717
245.0366,3.988482
242.9833,3.982318
242.9833,3.982318
241.6322,3.974168
240.6828,3.967770
239.5229,3.961154
239.5229,3.961154
237.5282,3.945844
235.4219,3.930598
233.3468,3.918548
233.3468,3.918548
231.5326,3.902350
229.4957,3.888788
227.8109,3.870533
227.8109,3.870533
227.3705,3.869508
227.0105,3.866996
226.5464,3.860836
226.5464,3.860836
225.8318,3.856135
224.7372,3.848029
222.5833,3.833300
222.5833,3.833300
220.8646,3.835234
219.2514,3.839673
217.6086,3.849480
217.6086,3.849480
217.2141,3.857091
216.6828,3.866763
215.7692,3.885016
215.7692,3.885016
214.6716,3.917865
213.5928,3.951195
212.5269,3.984429
211.4683,4.016989
211.4683,4.016989
211.0686,4.034521
210.3871,4.056634
209.9237,4.070746
209.9237,4.070746
208.8775,4.109858
207.6234,4.142420
206.1717,4.171627
206.1717,4.171627
204.7634,4.186205
203.3411,4.194313
201.9386,4.194532
200.5878,4.185444
199.3191,4.165627
199.3191,4.165627
198.9549,4.162816
198.5920,4.159948
198.2304,4.156966
##END=
