##TITLE=Phenytoin
##JCAMP-DX=4.24
##DATA TYPE=UV/VIS SPECTRUM
##ORIGIN=INSTITUTE OF ENERGY PROBLEMS OF CHEMICAL PHYSICS, RAS
##OWNER=INEP CP RAS, NIST OSRD
Collection (C) 2007 copyright by the U.S. Secretary of Commerce
on behalf of the United States of America. All rights reserved.
##CAS REGISTRY NO=57-41-0
##MOLFORM=C15H12N2O2
##MP=174-175
##SOURCE REFERENCE=RAS UV No. 19141
##$NIST SQUIB=1967LAN313
##$NIST SOURCE=TYUGLMTE
##SPECTROMETER/DATA SYSTEM=Spectromom 201
##XUNITS=Wavelength (nm)
##YUNITS=Logarithm epsilon
##XFACTOR=1.0
##YFACTOR=1.0
##FIRSTX=204.89
##LASTX=282.95
##FIRSTY=4.524
##MAXX=282.95
##MINX=204.89
##MAXY=4.524
##MINY=1.427
##NPOINTS=134
##$REF AUTHOR=Lang (editor), L.
##$REF JOURNAL=Absorption Spectra in the Ultraviolet and Visible Region
##$REF VOLUME=8
##$REF PAGE=313
##$REF DATE=1967
##XYPOINTS=(XY..XY)
204.89,4.524
205.06,4.521
205.23,4.517
205.40,4.514
205.56,4.507
205.73,4.504
205.90,4.500
206.07,4.494
206.24,4.490
206.41,4.487
206.58,4.480
206.74,4.477
206.91,4.473
207.08,4.470
207.25,4.463
207.42,4.460
208.09,4.422
208.77,4.402
209.44,4.385
210.12,4.364
210.79,4.344
211.47,4.324
212.14,4.307
212.81,4.290
213.49,4.273
214.16,4.252
214.84,4.235
215.51,4.218
216.19,4.201
216.86,4.181
217.53,4.160
218.21,4.137
218.88,4.116
219.56,4.092
220.23,4.072
220.91,4.041
221.58,4.011
222.26,3.977
222.93,3.943
223.60,3.909
224.28,3.875
224.95,3.844
225.63,3.810
226.30,3.776
226.98,3.742
227.65,3.708
228.33,3.678
229.00,3.644
229.67,3.613
230.35,3.579
231.02,3.559
231.70,3.532
232.37,3.515
233.05,3.491
233.72,3.477
234.40,3.460
235.07,3.443
235.74,3.426
236.42,3.413
237.09,3.396
237.77,3.382
238.44,3.365
239.12,3.355
239.79,3.341
240.47,3.328
241.14,3.311
241.81,3.294
242.49,3.277
243.16,3.260
243.84,3.246
244.51,3.229
245.19,3.219
245.86,3.205
246.53,3.192
247.21,3.171
247.88,3.154
248.56,3.127
249.23,3.110
249.91,3.086
250.58,3.059
251.26,3.039
251.93,3.008
252.60,2.984
253.28,2.957
253.95,2.937
254.63,2.910
255.30,2.886
255.98,2.859
256.65,2.835
257.33,2.821
257.63,2.819
258.00,2.821
258.38,2.823
258.67,2.828
259.03,2.838
259.35,2.845
259.57,2.846
259.77,2.845
259.92,2.840
260.02,2.831
260.70,2.767
261.37,2.723
262.05,2.685
262.72,2.648
263.40,2.617
264.07,2.587
264.74,2.549
265.42,2.508
266.09,2.461
266.77,2.406
267.44,2.366
268.12,2.332
268.79,2.308
269.47,2.281
270.14,2.236
270.81,2.199
271.49,2.155
272.16,2.124
272.84,2.080
273.51,2.036
274.19,1.995
274.86,1.954
275.53,1.910
276.21,1.859
276.88,1.818
277.56,1.771
278.23,1.733
278.91,1.686
279.58,1.648
280.26,1.608
280.93,1.560
281.60,1.512
282.28,1.475
282.95,1.427
##END=
