##TITLE=(S)-2-ethyl-2,3-pentadienoic acid
##JCAMP-DX=4.24
##DATA TYPE=UV/VIS SPECTRUM
##ORIGIN=INSTITUTE OF ENERGY PROBLEMS OF CHEMICAL PHYSICS, RAS
##OWNER=INEP CP RAS, NIST OSRD
Collection (C) 2007 copyright by the U.S. Secretary of Commerce
on behalf of the United States of America. All rights reserved.
##CAS REGISTRY NO=57470-30-1
##MOLFORM=C7H10O2
##BP=86-89/0.06 mm
##SOURCE REFERENCE=RAS UV No. 23295
##$NIST SQUIB=1975RUN/381
##$NIST SOURCE=TYUGLMTE
##SPECTROMETER/DATA SYSTEM=unknown
##XUNITS=Wavelength (nm)
##YUNITS=Logarithm epsilon
##XFACTOR=1.0
##YFACTOR=1.0
##FIRSTX=204.167
##LASTX=330.923
##FIRSTY=4.885
##MAXX=330.923
##MINX=204.167
##MAXY=4.912
##MINY=0.396
##NPOINTS=86
##$REF AUTHOR=Runge, W.; et al.
##$REF JOURNAL=Ber. Bunsenges. phys. Chem.
##$REF VOLUME=79
##$REF PAGE=381
##$REF DATE=1975
##XYPOINTS=(XY..XY)
204.167,4.885
204.565,4.879
206.065,4.857
207.565,4.850
209.065,4.853
210.565,4.863
212.065,4.877
213.565,4.891
215.065,4.904
216.565,4.912
218.065,4.912
219.565,4.901
221.065,4.877
222.565,4.837
224.065,4.780
225.565,4.704
227.065,4.610
228.565,4.498
230.068,4.356
231.568,4.211
233.068,4.066
234.568,3.921
236.068,3.779
237.568,3.643
239.068,3.516
240.568,3.401
242.068,3.302
243.568,3.219
245.068,3.153
246.568,3.103
248.068,3.068
249.568,3.044
251.068,3.027
252.568,3.012
254.068,2.995
255.568,2.972
257.068,2.940
258.568,2.900
260.068,2.854
261.568,2.812
263.068,2.790
264.865,2.741
266.304,2.703
267.923,2.646
269.423,2.599
270.923,2.557
272.423,2.514
273.923,2.465
275.423,2.409
276.923,2.344
278.423,2.270
279.923,2.188
281.423,2.098
282.923,2.002
284.423,1.903
285.923,1.802
287.423,1.701
288.923,1.602
290.423,1.507
291.923,1.416
293.423,1.330
294.923,1.251
296.423,1.179
297.923,1.114
299.423,1.055
300.923,1.002
302.423,0.955
303.923,0.913
305.423,0.874
306.923,0.839
308.423,0.806
309.923,0.774
311.423,0.743
312.923,0.713
314.423,0.683
315.923,0.652
317.423,0.622
318.923,0.592
320.423,0.563
321.923,0.535
323.423,0.508
324.923,0.484
326.423,0.462
327.923,0.441
329.423,0.420
330.923,0.396
##END=
