##TITLE=6-thioinosine
##JCAMP-DX=4.24
##DATA TYPE=UV/VIS SPECTRUM
##ORIGIN=INSTITUTE OF ENERGY PROBLEMS OF CHEMICAL PHYSICS, RAS
##OWNER=INEP CP RAS, NIST OSRD
Collection (C) 2007 copyright by the U.S. Secretary of Commerce
on behalf of the United States of America. All rights reserved.
##CAS REGISTRY NO=574-25-4
##MOLFORM=C10H12N4O4S
##SOURCE REFERENCE=RAS UV No. 23850
##$NIST SQUIB=1974MIT/1323
##$NIST SOURCE=TYUGLMTE
##SPECTROMETER/DATA SYSTEM=Unicam SP 800
##XUNITS=Wavelength (nm)
##YUNITS=Logarithm epsilon
##XFACTOR=1.0
##YFACTOR=1.0
##FIRSTX=260.02
##LASTX=353.258
##FIRSTY=2.805
##MAXX=353.258
##MINX=260.02
##MAXY=4.403
##MINY=2.802
##NPOINTS=95
##$REF AUTHOR=Mitina, V.Kh.; et al.
##$REF JOURNAL=Zhur. Obshchei Khim.
##$REF VOLUME=44
##$REF PAGE=1323
##$REF DATE=1974
##XYPOINTS=(XY..XY)
260.020,2.805
261.020,2.802
262.020,2.804
263.020,2.810
264.020,2.821
265.020,2.837
266.020,2.857
267.020,2.881
268.020,2.908
269.020,2.938
270.020,2.971
271.020,3.005
272.020,3.041
273.020,3.078
274.020,3.115
275.020,3.152
276.020,3.188
277.020,3.224
278.020,3.259
279.020,3.294
280.020,3.327
281.020,3.360
282.020,3.391
283.020,3.422
284.020,3.453
285.020,3.483
286.020,3.513
287.020,3.544
288.020,3.575
289.020,3.607
290.020,3.640
291.020,3.674
292.020,3.710
293.020,3.748
294.020,3.786
295.020,3.826
296.020,3.867
297.020,3.909
298.020,3.951
299.020,3.992
300.020,4.033
301.020,4.072
302.020,4.109
303.020,4.144
304.020,4.176
304.069,4.176
305.069,4.208
306.069,4.239
307.069,4.267
308.069,4.293
309.069,4.316
310.069,4.336
311.069,4.353
312.069,4.367
313.069,4.378
314.069,4.387
315.069,4.394
316.069,4.398
317.069,4.401
318.069,4.403
319.069,4.402
320.069,4.399
321.069,4.394
322.069,4.387
323.069,4.377
324.069,4.363
325.069,4.346
326.069,4.326
327.069,4.301
328.069,4.271
329.069,4.238
330.069,4.199
331.069,4.157
332.069,4.111
333.069,4.062
334.069,4.009
335.069,3.955
336.069,3.900
337.069,3.845
338.069,3.790
339.069,3.736
340.069,3.685
341.069,3.636
342.069,3.589
343.069,3.545
344.069,3.503
345.069,3.461
346.069,3.419
347.069,3.376
348.069,3.330
349.069,3.281
350.069,3.231
351.069,3.182
352.069,3.141
353.258,3.105
##END=
