##TITLE=Naphthalene, 1,6-dimethyl-
##JCAMP-DX=4.24
##DATA TYPE=UV/VIS SPECTRUM
##ORIGIN=INSTITUTE OF ENERGY PROBLEMS OF CHEMICAL PHYSICS, RAS
##OWNER=INEP CP RAS, NIST OSRD
Collection (C) 2007 copyright by the U.S. Secretary of Commerce
on behalf of the United States of America. All rights reserved.
##CAS REGISTRY NO=575-43-9
##MOLFORM=C12H12
##BP=91.5/ 1 mm
##SOURCE REFERENCE=RAS UV No. 19860
##$NIST SQUIB=1967ARR/VOGe1/21
##$NIST SOURCE=TYUGLMTE
##SPECTROMETER/DATA SYSTEM=Unicam SP 500
##XUNITS=Wavelength (nm)
##YUNITS=Logarithm epsilon
##XFACTOR=1.0
##YFACTOR=1.0
##FIRSTX=210.51
##LASTX=310.07
##FIRSTY=4.396
##MAXX=310.07
##MINX=210.51
##MAXY=4.942
##MINY=2.604
##NPOINTS=169
##$REF AUTHOR=Arrowsmith, G.B.; Vogel, A.I.
##$REF JOURNAL=UV atlas of organic compounds
##$REF VOLUME=3
##$REF PAGE=E1/21
##$REF DATE=1967
##XYPOINTS=(XY..XY)
210.51,4.396
210.61,4.398
210.70,4.401
210.80,4.403
210.89,4.405
211.09,4.409
211.38,4.420
211.67,4.430
211.96,4.439
212.25,4.450
212.54,4.460
212.83,4.471
213.13,4.482
213.42,4.492
213.72,4.503
214.02,4.518
214.31,4.531
214.61,4.543
214.91,4.556
215.21,4.567
215.51,4.578
215.81,4.590
216.11,4.605
216.42,4.618
216.72,4.631
217.03,4.644
217.33,4.657
217.64,4.671
217.95,4.686
218.25,4.703
218.56,4.718
218.87,4.731
219.18,4.744
219.50,4.759
219.81,4.772
220.12,4.785
220.44,4.797
220.75,4.804
221.07,4.812
221.39,4.819
221.70,4.825
222.02,4.834
222.34,4.838
222.66,4.844
222.98,4.851
223.31,4.859
223.63,4.866
223.96,4.870
224.28,4.878
224.61,4.885
224.94,4.893
225.26,4.902
225.59,4.908
225.92,4.919
226.25,4.930
226.59,4.938
226.92,4.942
227.25,4.934
227.59,4.915
227.93,4.891
228.23,4.866
228.60,4.827
228.96,4.790
229.30,4.755
229.87,4.697
230.47,4.639
231.07,4.574
231.69,4.479
232.27,4.366
232.86,4.266
233.44,4.151
234.03,4.042
234.63,3.933
235.22,3.854
235.82,3.767
236.42,3.684
237.03,3.607
237.64,3.537
238.25,3.473
238.86,3.411
239.48,3.349
240.10,3.298
240.73,3.249
241.36,3.208
241.91,3.180
242.61,3.160
243.24,3.147
243.91,3.140
244.54,3.135
245.19,3.135
245.84,3.138
246.50,3.146
247.15,3.165
247.82,3.185
248.48,3.206
249.15,3.227
249.82,3.249
250.50,3.268
251.18,3.287
251.86,3.306
252.54,3.325
253.24,3.342
253.95,3.362
254.63,3.381
255.34,3.400
256.04,3.421
256.75,3.441
257.47,3.462
258.18,3.481
258.91,3.502
259.63,3.519
260.36,3.539
261.10,3.558
261.83,3.575
262.58,3.586
263.32,3.594
264.11,3.601
264.83,3.609
265.59,3.622
266.35,3.635
267.18,3.649
267.89,3.660
268.67,3.670
269.41,3.679
270.24,3.692
271.04,3.700
271.83,3.707
272.63,3.714
273.44,3.716
274.25,3.716
275.06,3.716
275.88,3.716
276.71,3.720
277.53,3.729
278.37,3.737
279.21,3.743
280.05,3.737
280.90,3.729
281.76,3.724
282.62,3.716
283.48,3.705
284.35,3.684
285.23,3.662
286.11,3.643
286.90,3.630
287.89,3.622
288.79,3.613
289.69,3.607
290.49,3.588
291.52,3.558
292.38,3.534
293.36,3.507
294.24,3.471
295.24,3.421
296.18,3.359
297.13,3.298
298.09,3.217
299.05,3.125
300.02,3.033
301.00,2.939
301.98,2.871
302.97,2.830
303.96,2.805
304.96,2.777
305.97,2.756
306.98,2.726
308.01,2.694
309.03,2.653
310.07,2.604
##END=
