##TITLE=Phenol, 2,3-dichloro-
##JCAMP-DX=4.24
##DATA TYPE=UV/VIS SPECTRUM
##ORIGIN=INSTITUTE OF ENERGY PROBLEMS OF CHEMICAL PHYSICS, RAS
##OWNER=INEP CP RAS, NIST OSRD
Collection (C) 2007 copyright by the U.S. Secretary of Commerce
on behalf of the United States of America. All rights reserved.
##CAS REGISTRY NO=576-24-9
##MOLFORM=C6H4Cl2O
##MP=56-57
##SOURCE REFERENCE=RAS UV No. 9019
##$NIST SQUIB=1965BAR/SZO70B
##$NIST SOURCE=TSGMTE
##SPECTROMETER/DATA SYSTEM=Spectromom 201
##XUNITS=Wavelength (nm)
##YUNITS=Logarithm epsilon
##XFACTOR=1.000000
##YFACTOR=1.000000
##FIRSTX=210.8335
##LASTX=309.9902
##FIRSTY=4.30983
##MAXX=309.99
##MINX=210.833
##MAXY=4.31667
##MINY=0.849002
##NPOINTS=1000
##$REF AUTHOR=Bartecki, A.; Szoke, J.; Varsanyi, M.
##$REF TITLE=Absorption spectra in the ultraviolet and visible region. Volume 6
##$REF PAGE=70
##$REF DATE=1965
##$REF PUBLISHER=Academic Press Inc.
##$REF LOCATION=New York
##XYPOINTS=(XY..XY)
210.8335,4.309827
210.8403,4.316667
211.0038,4.299695
211.0106,4.306535
211.1572,4.292791
211.1608,4.296412
211.3043,4.279449
211.3143,4.289508
211.4778,4.272536
211.4814,4.276157
211.6281,4.262413
211.6349,4.269253
211.7783,4.252290
211.7851,4.259130
211.9486,4.242158
211.9555,4.248998
212.0989,4.232035
212.1057,4.238875
212.2492,4.221912
212.2560,4.228752
212.4231,4.215402
212.4295,4.221839
212.5766,4.208497
212.5798,4.211716
212.7268,4.198374
212.7368,4.208433
212.9003,4.191461
212.9039,4.195083
213.0506,4.181338
213.0574,4.188178
213.2045,4.174836
213.2077,4.178055
213.3780,4.167923
213.3812,4.171142
213.5314,4.161019
213.5347,4.164238
213.6817,4.150896
213.6885,4.157736
213.8552,4.143983
213.8588,4.147604
214.0091,4.137481
214.0123,4.140700
214.1626,4.130577
214.1658,4.133796
214.3361,4.123664
214.3397,4.127285
214.4900,4.117162
214.4932,4.120381
214.6434,4.110258
214.6466,4.113476
214.7969,4.103353
214.8037,4.110193
214.9708,4.096843
214.9740,4.100062
215.1243,4.089939
215.1311,4.096779
215.2814,4.086655
215.2846,4.089874
215.4549,4.079743
215.4581,4.082962
215.6083,4.072838
215.6119,4.076460
215.7654,4.069555
215.7686,4.072774
215.9389,4.062643
215.9425,4.066264
216.0928,4.056141
216.0960,4.059359
216.4234,4.045945
216.4266,4.049164
216.9107,4.032064
216.9143,4.035685
217.0677,4.028780
217.0709,4.031999
217.3983,4.018585
217.4015,4.021803
217.5550,4.014899
217.5586,4.018520
218.0427,4.001420
218.0459,4.004639
218.1961,3.994516
218.1997,3.998137
218.5267,3.984320
218.5303,3.987941
218.8609,3.977745
219.0212,3.977681
220.8076,3.939932
220.9847,3.936640
220.9879,3.939859
221.1450,3.936576
221.7925,3.922630
221.9729,3.922558
222.2870,3.915991
222.4673,3.915919
222.6240,3.912233
222.7811,3.908950
222.7843,3.912169
223.1185,3.905594
223.1217,3.908813
223.6194,3.905393
223.7761,3.901708
223.9564,3.901635
224.1135,3.898352
224.4541,3.898215
224.6112,3.894932
224.7678,3.891246
224.7715,3.894868
224.9450,3.887955
224.9482,3.891174
225.1052,3.887891
225.2623,3.884607
225.4426,3.884535
225.5993,3.880849
225.9199,3.880721
226.0970,3.877429
226.4108,3.870460
226.4176,3.877301
226.5911,3.870388
226.9048,3.863419
227.0852,3.863347
227.3957,3.853159
227.3993,3.856780
227.7263,3.842963
227.7299,3.846585
227.8802,3.836461
227.8866,3.842899
228.0569,3.832768
228.0605,3.836389
228.2108,3.826266
228.2140,3.829484
228.3675,3.822580
228.3711,3.826201
228.5414,3.816070
228.5446,3.819289
228.6980,3.812384
228.7016,3.816005
228.8551,3.809101
228.8583,3.812320
229.1757,3.788846
229.1889,3.802124
229.3328,3.785563
229.3360,3.788782
229.5095,3.781869
229.6666,3.778586
229.6698,3.781805
229.8200,3.771682
229.8236,3.775303
229.9871,3.758332
229.9971,3.768390
230.1374,3.748208
230.1474,3.758267
230.2877,3.738085
230.2977,3.748144
230.4580,3.727954
230.4648,3.734794
230.6082,3.717830
230.6146,3.724268
230.7585,3.707707
230.7685,3.717766
230.9288,3.697576
230.9388,3.707635
231.0755,3.683831
231.0855,3.693890
231.2257,3.673708
231.2357,3.683767
231.3760,3.663585
231.3860,3.673643
231.5431,3.650234
231.5531,3.660293
231.6934,3.640111
231.7002,3.646951
232.1574,3.602893
232.1642,3.609733
232.3044,3.589551
232.3145,3.599610
232.4747,3.579420
232.4812,3.585857
232.6214,3.565675
232.6314,3.575734
232.7685,3.552333
232.7785,3.562392
232.9388,3.542202
232.9456,3.549042
233.0858,3.528859
233.0958,3.538918
233.2325,3.515115
233.2425,3.525174
233.4028,3.504984
233.4096,3.511824
233.5531,3.494860
233.5599,3.501700
233.7001,3.481518
233.7101,3.491577
233.8672,3.468168
233.8772,3.478227
234.0175,3.458045
234.0239,3.464482
234.1641,3.444300
234.1742,3.454359
234.3312,3.430950
234.3413,3.441009
234.4779,3.417205
234.4879,3.427264
234.6282,3.407082
234.6350,3.413922
234.7985,3.396951
234.8053,3.403791
234.9455,3.383609
234.9555,3.393667
235.0926,3.370266
235.1026,3.380325
235.2593,3.356514
235.2693,3.366573
235.4031,3.339953
235.4164,3.353231
235.5534,3.329829
235.5634,3.339888
235.7237,3.319698
235.7337,3.329757
235.8740,3.309575
235.8804,3.316013
236.0206,3.295830
236.0306,3.305889
236.1877,3.282480
236.1977,3.292539
236.3380,3.272357
236.3480,3.282416
236.4915,3.265452
236.4983,3.272292
236.6385,3.252110
236.6485,3.262169
236.8052,3.238358
236.8152,3.248417
236.9491,3.221797
236.9623,3.235074
237.0957,3.208052
237.1057,3.218111
237.2628,3.194702
237.2728,3.204761
237.4063,3.177739
237.4199,3.191419
237.5533,3.164396
237.5634,3.174455
237.7168,3.147425
237.7305,3.161105
237.8671,3.137302
237.8739,3.144142
238.0142,3.123960
238.0242,3.134019
238.1809,3.110207
238.1945,3.123887
238.3279,3.096865
238.3379,3.106924
238.4714,3.079902
238.4850,3.093582
238.6417,3.069770
238.6485,3.076610
238.7919,3.059647
238.7987,3.066487
238.9358,3.043086
238.9490,3.056364
239.1025,3.029333
239.1125,3.039392
239.2495,3.015991
239.2596,3.026050
239.3962,3.002247
239.4066,3.012708
239.5633,2.988896
239.5733,2.998955
239.7068,2.971933
239.7204,2.985613
239.8570,2.961810
239.8638,2.968650
240.0241,2.948460
240.0341,2.958518
240.1712,2.935117
240.1812,2.945176
240.3178,2.921373
240.3279,2.931432
240.4817,2.904804
240.4950,2.918082
240.6284,2.891059
240.6384,2.901118
240.7754,2.877717
240.7855,2.887776
240.9457,2.867586
240.9526,2.874426
241.0924,2.853841
241.1024,2.863900
241.2395,2.840499
241.2495,2.850558
241.4066,2.827149
241.4166,2.837208
241.5532,2.813404
241.5632,2.823463
241.7003,2.800062
241.7103,2.810121
241.8506,2.789939
241.8574,2.796779
242.0176,2.776589
242.0277,2.786648
242.1643,2.762844
242.1743,2.772903
242.3146,2.752721
242.3214,2.759561
242.4785,2.736152
242.4917,2.749430
242.6251,2.722407
242.6351,2.732466
242.7722,2.709065
242.7822,2.719124
242.9425,2.698934
242.9489,2.705372
243.0891,2.685189
243.0992,2.695248
243.2362,2.671847
243.2462,2.681906
243.4033,2.658497
243.4133,2.668556
243.5536,2.648374
243.5600,2.654811
243.7002,2.634629
243.7102,2.644688
243.8673,2.621279
243.8773,2.631338
244.0144,2.607937
244.0244,2.617996
244.1647,2.597814
244.1711,2.604251
244.3350,2.587682
244.3414,2.594120
244.4784,2.570719
244.4916,2.583997
244.6251,2.556974
244.6351,2.567033
244.7954,2.546843
244.8022,2.553683
244.9456,2.536720
244.9524,2.543560
245.0959,2.526596
245.1027,2.533436
245.2630,2.513246
245.2730,2.523305
245.4165,2.506342
245.4233,2.513182
245.5667,2.496218
245.5735,2.503059
245.7406,2.489708
245.7471,2.496146
245.8909,2.479585
245.8973,2.486023
246.0412,2.469462
246.0476,2.475899
246.2147,2.462549
246.2215,2.469389
246.3682,2.455645
246.3750,2.462485
246.5184,2.445522
246.5284,2.455580
246.6687,2.435398
246.6755,2.442238
246.8422,2.428486
246.8490,2.435326
246.9961,2.421984
247.0025,2.428421
247.1495,2.415079
247.1564,2.421919
247.3231,2.408167
247.3299,2.415007
247.4733,2.398043
247.4833,2.408102
247.6304,2.394760
247.6336,2.397979
247.8039,2.387848
247.8107,2.394688
247.9578,2.381345
247.9642,2.387783
248.1145,2.377660
248.1181,2.381281
248.2884,2.371150
248.2916,2.374369
248.4418,2.364245
248.4451,2.367464
248.5989,2.360962
248.6021,2.364181
248.7756,2.357268
248.7792,2.360890
248.9295,2.350766
248.9327,2.353985
249.0862,2.347081
249.0898,2.350702
249.5739,2.333602
249.5771,2.336821
249.7510,2.330310
249.7542,2.333529
249.9077,2.326625
249.9113,2.330246
250.0647,2.323342
250.0679,2.326561
250.2418,2.320050
250.2451,2.323269
250.3985,2.316365
250.4021,2.319986
250.5588,2.316300
250.7359,2.313009
250.8962,2.312945
251.0533,2.309661
251.7345,2.309388
251.8912,2.305702
252.0551,2.309259
252.7163,2.308994
252.8998,2.312140
253.0601,2.312076
253.7345,2.325088
253.7381,2.328709
253.9184,2.328636
253.9216,2.331855
254.0851,2.335010
254.0887,2.338631
254.2490,2.338567
254.2522,2.341785
254.4325,2.341713
254.4393,2.348553
254.5996,2.348489
254.6060,2.354926
254.7663,2.354862
254.7731,2.361702
254.9535,2.361630
254.9567,2.364848
255.1206,2.368405
255.1270,2.374843
255.2872,2.374779
255.2909,2.378400
255.4712,2.378327
255.4776,2.384765
255.6415,2.388322
255.6447,2.391541
255.8082,2.394695
255.8118,2.398316
255.9953,2.401463
255.9985,2.404682
256.1624,2.408239
256.1656,2.411457
256.3291,2.414612
256.3327,2.418233
256.5162,2.421379
256.5231,2.428220
256.6833,2.428155
256.6902,2.434995
256.8537,2.438150
256.8569,2.441369
257.0408,2.444917
257.0440,2.448136
257.2075,2.451291
257.2111,2.454912
257.3746,2.458066
257.3814,2.464907
257.5617,2.464834
257.5681,2.471272
257.7320,2.474829
257.7352,2.478047
257.8955,2.477983
257.9023,2.484823
258.0626,2.484759
258.0690,2.491196
258.2493,2.491124
258.2594,2.501183
258.4197,2.501118
258.4265,2.507958
258.5867,2.507894
258.5936,2.514734
258.7771,2.517881
258.7803,2.521099
258.9442,2.524656
258.9474,2.527875
259.1109,2.531030
259.1145,2.534651
259.2980,2.537797
259.3048,2.544637
259.4651,2.544573
259.4715,2.551011
259.6354,2.554567
259.6386,2.557786
259.8222,2.560933
259.8290,2.567773
259.9929,2.571330
259.9961,2.574549
260.1596,2.577703
260.1632,2.581324
260.3467,2.584471
260.3535,2.591311
260.5138,2.591246
260.5202,2.597684
260.6841,2.601241
260.6873,2.604460
260.8708,2.607606
260.8776,2.614446
261.0411,2.617601
261.0447,2.621222
261.2082,2.624376
261.2151,2.631216
261.3986,2.634363
261.4018,2.637582
261.5657,2.641138
261.5721,2.647576
261.7360,2.651133
261.7392,2.654352
261.9227,2.657498
261.9327,2.667557
262.2601,2.674268
262.2669,2.681108
262.4505,2.684255
262.4537,2.687474
262.6176,2.691031
262.6240,2.697468
262.7843,2.697404
262.7911,2.704244
262.9714,2.704172
262.9782,2.711012
263.1417,2.714166
263.1453,2.717787
263.3088,2.720942
263.3188,2.731001
263.5023,2.734147
263.5059,2.737768
263.6694,2.740923
263.6763,2.747763
264.0032,2.754072
264.0133,2.764131
264.1972,2.767679
264.2004,2.770898
264.3639,2.774053
264.3707,2.780893
264.5342,2.784047
264.5410,2.790887
264.7245,2.794034
264.7313,2.800874
264.8916,2.800809
264.9016,2.810868
265.0651,2.814023
265.0687,2.817644
265.2523,2.820790
265.2591,2.827630
265.4226,2.830785
265.4326,2.840844
265.5929,2.840779
265.5997,2.847620
265.7832,2.850766
265.7932,2.860825
265.9535,2.860761
265.9603,2.867601
266.1238,2.870755
266.1306,2.877595
266.3110,2.877523
266.3210,2.887582
266.4813,2.887517
266.4881,2.894357
266.6484,2.894293
266.6584,2.904352
266.8387,2.904279
266.8451,2.910717
267.0090,2.914274
267.0154,2.920712
267.1757,2.920647
267.1825,2.927487
267.3661,2.930634
267.3729,2.937474
267.5332,2.937409
267.5400,2.944249
267.7035,2.947404
267.7103,2.954244
267.8906,2.954172
267.8938,2.957390
268.0541,2.957326
268.0573,2.960545
268.2212,2.964102
268.2344,2.977379
268.4179,2.980526
268.4215,2.984147
268.5850,2.987302
268.5882,2.990520
268.7521,2.994077
268.7589,3.000917
268.9393,3.000845
268.9457,3.007283
269.1096,3.010839
269.1160,3.017277
269.2763,3.017213
269.2831,3.024053
269.4666,3.027199
269.4702,3.030820
269.6337,3.033975
269.6369,3.037194
269.8008,3.040751
269.8040,3.043969
269.9675,3.047124
269.9711,3.050745
270.1546,3.053891
270.1578,3.057110
270.3217,3.060667
270.3249,3.063886
270.4884,3.067040
270.4920,3.070662
270.6756,3.073808
270.6788,3.077027
270.8427,3.080584
270.8459,3.083803
271.0094,3.086957
271.0130,3.090578
271.1965,3.093725
271.1997,3.096944
271.5271,3.103655
271.5303,3.106874
271.7142,3.110422
271.7174,3.113641
271.8809,3.116796
271.8845,3.120417
272.0480,3.123571
272.0548,3.130412
272.2352,3.130339
272.2384,3.133558
272.5658,3.140269
272.5690,3.143488
272.7529,3.147037
272.7629,3.157096
272.9264,3.160250
272.9296,3.163469
273.0935,3.167026
273.0967,3.170245
273.4441,3.176948
273.4473,3.180167
273.7948,3.186870
273.7980,3.190089
273.9582,3.190025
273.9614,3.193243
274.1217,3.193179
274.1253,3.196800
274.3057,3.196728
274.3089,3.199947
274.4692,3.199882
274.4724,3.203101
274.6363,3.206658
274.6395,3.209877
274.9869,3.216580
274.9901,3.219799
275.3375,3.226502
275.3475,3.236561
275.5078,3.236497
275.5110,3.239716
275.8384,3.246427
276.0187,3.246354
276.0219,3.249573
276.1822,3.249509
276.1854,3.252728
276.6963,3.262585
276.6999,3.266207
276.8634,3.269361
276.8666,3.272580
277.0470,3.272508
277.0506,3.276129
277.3780,3.282840
277.3812,3.286059
277.5615,3.285986
277.5647,3.289205
277.8921,3.295917
277.8989,3.302757
278.0792,3.302684
278.0824,3.305903
278.2427,3.305839
278.4062,3.308993
278.4098,3.312614
278.5901,3.312542
278.5933,3.315761
279.4316,3.332330
279.6119,3.332257
279.6151,3.335476
279.7754,3.335412
280.1229,3.342115
280.9443,3.341785
281.1210,3.338091
281.6019,3.337898
281.7790,3.334607
282.0996,3.334478
282.2767,3.331187
282.5973,3.331058
282.7740,3.327365
283.4352,3.327099
283.5922,3.323816
283.9328,3.323679
283.9360,3.326898
284.0963,3.326833
284.2803,3.330382
284.4405,3.330318
284.7876,3.336619
284.9479,3.336554
284.9515,3.340175
285.1117,3.340111
285.1150,3.343330
285.2953,3.343258
285.2985,3.346476
285.4588,3.346412
285.6227,3.349969
285.8030,3.349896
285.8062,3.353115
285.9665,3.353051
285.9697,3.356270
286.1300,3.356205
286.1336,3.359826
286.4742,3.359690
286.6377,3.362844
286.8180,3.362772
286.9815,3.365926
287.6427,3.365661
287.7997,3.362377
287.9801,3.362305
288.7815,3.341857
288.7847,3.345076
288.9518,3.331726
288.9586,3.338566
289.1021,3.321602
289.1121,3.331661
289.2555,3.314698
289.2591,3.318319
289.4226,3.301348
289.4326,3.311407
289.5697,3.288006
289.5797,3.298065
289.7200,3.277882
289.7264,3.284320
289.8834,3.260911
289.8967,3.274189
290.0337,3.250788
290.0401,3.257225
290.1804,3.237043
290.1904,3.247102
290.3475,3.223693
290.3575,3.233752
290.4945,3.210351
290.5045,3.220410
290.6412,3.196606
290.6548,3.210286
290.8083,3.183256
290.8183,3.193315
290.9585,3.173133
290.9654,3.179973
291.1056,3.159791
291.1156,3.169850
291.2723,3.146038
291.2823,3.156097
291.4194,3.132696
291.4294,3.142755
291.5660,3.118951
291.5760,3.129010
291.7299,3.102382
291.7431,3.115660
291.8766,3.088638
291.8866,3.098697
292.0204,3.072077
292.0337,3.085355
292.1871,3.058324
292.1971,3.068383
292.3342,3.044982
292.3442,3.055041
292.4776,3.028019
292.4913,3.041699
292.6215,3.011458
292.6347,3.024735
292.7882,2.997705
292.7982,3.007764
292.9316,2.980742
292.9453,2.994422
293.0755,2.964181
293.0887,2.977459
293.2390,2.947209
293.2522,2.960487
293.3824,2.930246
293.3961,2.943926
293.5227,2.910064
293.5395,2.926963
293.6830,2.889874
293.6998,2.906773
293.8268,2.873313
293.8400,2.886590
293.9703,2.856349
293.9835,2.869627
294.1306,2.836159
294.1474,2.853058
294.2740,2.819196
294.2872,2.832473
294.4175,2.802232
294.4311,2.815912
294.5745,2.778823
294.5946,2.798941
294.7180,2.761860
294.7316,2.775540
294.8582,2.741677
294.8751,2.758577
295.0185,2.721487
295.0354,2.738386
295.1556,2.698086
295.1788,2.721423
295.2958,2.677904
295.3159,2.698022
295.4525,2.654092
295.4725,2.674210
295.5927,2.633910
295.6096,2.650809
295.7330,2.613728
295.7530,2.633846
295.8933,2.593538
295.9101,2.610437
296.0335,2.573356
296.0503,2.590255
296.1774,2.556795
296.1938,2.573291
296.3340,2.532983
296.3541,2.553101
296.4743,2.512801
296.4943,2.532919
296.6177,2.495838
296.6346,2.512737
296.7780,2.475647
296.7981,2.495765
296.9183,2.455465
296.9351,2.472364
297.0621,2.438904
297.0786,2.455401
297.2256,2.421933
297.2388,2.435210
297.3659,2.401750
297.3827,2.418649
297.5061,2.381568
297.5225,2.398065
297.6496,2.364605
297.6628,2.377883
297.8131,2.347633
297.8299,2.364532
297.9533,2.327451
297.9701,2.344350
298.0936,2.307269
298.1104,2.324168
298.2506,2.283860
298.2739,2.307197
298.3941,2.266897
298.4109,2.283795
298.5311,2.243495
298.5544,2.266832
298.6914,2.223305
298.7114,2.243423
298.8381,2.209561
298.8481,2.219620
298.9783,2.189379
298.9951,2.206277
299.1386,2.169188
299.1554,2.186087
299.2788,2.149006
299.2957,2.165905
299.4227,2.132445
299.4359,2.145723
299.5826,2.111852
299.5994,2.128751
299.7228,2.091670
299.7397,2.108569
299.8667,2.075109
299.8799,2.088387
300.0270,2.054919
300.0434,2.071415
300.1736,2.041174
300.1836,2.051233
300.3139,2.020992
300.3307,2.037891
300.4778,2.004423
300.4910,2.017701
300.6180,1.984241
300.6344,2.000738
300.7579,1.963656
300.7783,1.984177
300.9250,1.950306
300.9350,1.960365
301.0652,1.930124
301.0820,1.947023
301.2054,1.909941
301.2223,1.926841
301.3657,1.889751
301.3826,1.906650
301.5092,1.872788
301.5228,1.886468
301.6530,1.856227
301.6663,1.869505
301.8133,1.836037
301.8298,1.852534
301.9600,1.822292
301.9700,1.832351
302.1002,1.802110
302.1171,1.819009
302.2637,1.785138
302.2773,1.798818
302.4040,1.764957
302.4208,1.781855
302.5510,1.751614
302.5610,1.761673
302.6981,1.738272
302.7081,1.748331
302.8584,1.718082
302.8748,1.734578
303.0018,1.701119
303.0150,1.714396
303.1489,1.687776
303.1589,1.697835
303.3088,1.667184
303.3256,1.684083
303.4490,1.647001
303.4658,1.663901
303.5893,1.626820
303.6061,1.643718
303.7495,1.606629
303.7664,1.623528
303.8866,1.583228
303.9066,1.603346
304.0300,1.566264
304.0469,1.583164
304.1939,1.549696
304.2072,1.562973
304.3338,1.529111
304.3506,1.546009
304.4740,1.508928
304.4909,1.525827
304.6343,1.488738
304.6511,1.505637
304.7746,1.468556
304.7914,1.485455
304.9148,1.448374
304.9316,1.465273
305.0787,1.431804
305.0919,1.445082
305.2253,1.418061
305.2354,1.428119
305.3624,1.394660
305.3824,1.414778
305.5259,1.377689
305.5391,1.390965
305.6693,1.360724
305.6830,1.374406
305.8064,1.337323
305.8264,1.357441
305.9735,1.323974
305.9835,1.334031
306.1169,1.307010
306.1301,1.320288
306.2572,1.286827
306.2740,1.303727
306.4207,1.269856
306.4343,1.283536
306.5641,1.252892
306.5777,1.266573
306.7080,1.236333
306.7212,1.249609
306.8682,1.216142
306.8847,1.232638
307.0049,1.192339
307.0249,1.212457
307.1519,1.178997
307.1620,1.189055
307.3122,1.158806
307.3291,1.175706
307.4557,1.141842
307.4693,1.155521
307.5995,1.125283
307.6128,1.138558
307.7462,1.111538
307.7562,1.121596
307.9065,1.091347
307.9233,1.108247
308.0467,1.071164
308.0636,1.088065
308.1902,1.054199
308.2038,1.067881
308.3541,1.037634
308.3673,1.050909
308.5007,1.023886
308.5108,1.033946
308.6410,1.003706
308.6578,1.020606
308.8013,0.983514
308.8181,1.000412
308.9451,0.966953
308.9583,0.980231
309.0886,0.949990
309.1018,0.963268
309.2553,0.936237
309.2653,0.946295
309.3991,0.919679
309.4123,0.932955
309.5394,0.899498
309.5558,0.915990
309.7029,0.882525
309.7161,0.895804
309.8463,0.865560
309.8599,0.879239
309.9902,0.849002
##END=
