##TITLE=N-Acetylindole
##JCAMP-DX=4.24
##DATA TYPE=UV/VIS SPECTRUM
##ORIGIN=INSTITUTE OF ENERGY PROBLEMS OF CHEMICAL PHYSICS, RAS
##OWNER=INEP CP RAS, NIST OSRD
Collection (C) 2007 copyright by the U.S. Secretary of Commerce
on behalf of the United States of America. All rights reserved.
##CAS REGISTRY NO=576-15-8
##MOLFORM=C10H9NO
##SOURCE REFERENCE=RAS UV No. 15841
##$NIST SQUIB=1971TOT/GER229
##$NIST SOURCE=TYUGLMTE
##SPECTROMETER/DATA SYSTEM=Optica Milano CF4R
##XUNITS=Wavelength (nm)
##YUNITS=Logarithm epsilon
##XFACTOR=1.0
##YFACTOR=1.0
##FIRSTX=220.05
##LASTX=294.42
##FIRSTY=4.026
##MAXX=294.42
##MINX=220.05
##MAXY=4.371
##MINY=2.799
##NPOINTS=101
##$REF AUTHOR=Toth, T.; Gerecs, A.
##$REF JOURNAL=Acta Chim. Acad. Sci. Hung.
##$REF VOLUME=67
##$REF PAGE=229
##$REF DATE=1971
##XYPOINTS=(XY..XY)
220.05,4.026
220.30,4.028
220.55,4.031
221.05,4.033
221.31,4.036
222.31,4.053
223.06,4.071
223.82,4.094
224.57,4.114
225.33,4.134
226.08,4.157
226.83,4.180
227.59,4.192
228.34,4.212
229.09,4.227
229.85,4.248
230.60,4.268
231.36,4.286
232.11,4.303
232.86,4.318
233.62,4.331
234.37,4.341
235.12,4.354
235.88,4.361
236.63,4.366
237.39,4.369
238.14,4.371
238.89,4.371
239.65,4.366
240.40,4.364
241.15,4.354
241.91,4.341
242.66,4.331
243.42,4.316
244.17,4.296
244.92,4.278
245.68,4.260
246.43,4.238
247.18,4.210
247.94,4.177
248.69,4.149
249.45,4.119
250.20,4.091
250.95,4.063
251.71,4.036
252.46,4.021
253.21,4.003
253.97,3.988
254.72,3.975
255.48,3.965
256.23,3.958
256.98,3.947
257.74,3.940
258.49,3.932
259.24,3.922
260.00,3.917
260.75,3.910
261.50,3.907
262.26,3.899
263.01,3.897
263.77,3.889
264.52,3.882
265.27,3.877
266.03,3.864
266.78,3.857
267.53,3.844
268.29,3.829
269.04,3.811
269.80,3.773
270.55,3.720
271.30,3.662
272.06,3.622
272.81,3.594
273.56,3.569
274.32,3.544
275.07,3.534
275.83,3.526
276.58,3.524
277.33,3.524
278.09,3.524
278.84,3.526
279.59,3.531
280.35,3.534
281.10,3.541
281.86,3.546
282.61,3.551
283.36,3.561
284.12,3.569
284.87,3.579
285.62,3.592
286.38,3.612
287.13,3.647
287.89,3.670
288.64,3.677
289.39,3.642
290.40,3.299
291.40,3.185
292.16,3.074
292.91,2.976
293.66,2.880
294.42,2.799
##END=
