##TITLE=N-[2-(1H-indol-3-yl)ethyl]-1H-purin-6-amine
##JCAMP-DX=4.24
##DATA TYPE=UV/VIS SPECTRUM
##ORIGIN=INSTITUTE OF ENERGY PROBLEMS OF CHEMICAL PHYSICS, RAS
##OWNER=INEP CP RAS, NIST OSRD
Collection (C) 2007 copyright by the U.S. Secretary of Commerce
on behalf of the United States of America. All rights reserved.
##CAS REGISTRY NO=5779-22-6
##MOLFORM=C15H14N6
##MP=242-243
##SOURCE REFERENCE=RAS UV No. 23270
##$NIST SQUIB=1975MIT/4095
##$NIST SOURCE=TYUGLMTE
##SPECTROMETER/DATA SYSTEM=Cary 15
##XUNITS=Wavelength (nm)
##YUNITS=Logarithm epsilon
##XFACTOR=1.0
##YFACTOR=1.0
##FIRSTX=191.669
##LASTX=303.893
##FIRSTY=4.46
##MAXX=303.893
##MINX=191.669
##MAXY=4.604
##MINY=2.606
##NPOINTS=115
##$REF AUTHOR=Mitai, K.; et al.
##$REF JOURNAL=J. Am. Chem. Soc.
##$REF VOLUME=97
##$REF PAGE=4095
##$REF DATE=1975
##XYPOINTS=(XY..XY)
191.669,4.460
192.669,4.468
193.669,4.472
194.669,4.473
195.669,4.473
196.669,4.473
197.669,4.474
198.669,4.475
199.669,4.478
200.669,4.483
201.669,4.488
202.669,4.495
203.669,4.502
204.669,4.510
205.669,4.519
206.669,4.528
207.669,4.536
208.669,4.545
209.669,4.554
210.669,4.562
211.669,4.570
212.669,4.577
213.669,4.584
214.669,4.591
215.669,4.596
216.669,4.601
217.669,4.604
218.669,4.604
219.669,4.600
220.669,4.591
221.669,4.575
222.657,4.551
223.657,4.501
224.657,4.459
225.657,4.413
226.657,4.357
227.657,4.289
228.657,4.210
229.657,4.123
230.657,4.035
231.657,3.951
232.657,3.878
233.657,3.823
234.657,3.788
235.657,3.775
236.657,3.782
237.657,3.802
237.886,3.805
238.886,3.818
239.886,3.833
240.886,3.851
241.886,3.870
242.886,3.891
243.886,3.913
244.886,3.936
245.886,3.960
246.886,3.984
247.886,4.009
248.886,4.034
249.886,4.059
250.886,4.084
251.886,4.108
252.886,4.132
253.886,4.155
254.886,4.177
255.886,4.198
256.886,4.218
257.886,4.236
258.886,4.254
259.886,4.269
260.886,4.284
261.886,4.296
262.886,4.307
263.886,4.316
264.886,4.323
265.863,4.332
266.863,4.331
267.863,4.330
268.863,4.330
269.863,4.329
270.863,4.326
271.863,4.321
272.863,4.314
273.863,4.305
274.863,4.293
275.863,4.278
276.863,4.261
277.863,4.242
278.863,4.220
279.863,4.196
280.863,4.170
281.863,4.142
282.863,4.111
283.863,4.079
284.863,4.043
285.863,4.005
286.863,3.963
287.863,3.916
288.863,3.864
289.863,3.805
290.863,3.737
291.863,3.659
291.893,3.656
292.893,3.559
293.893,3.478
294.893,3.403
295.893,3.327
296.893,3.249
297.893,3.167
298.893,3.082
299.893,2.995
300.893,2.906
301.893,2.814
302.893,2.716
303.893,2.606
##END=
