##TITLE=2,3-Butanedione, monooxime
##JCAMP-DX=4.24
##DATA TYPE=UV/VIS SPECTRUM
##ORIGIN=INSTITUTE OF ENERGY PROBLEMS OF CHEMICAL PHYSICS, RAS
##OWNER=INEP CP RAS, NIST OSRD
Collection (C) 2007 copyright by the U.S. Secretary of Commerce
on behalf of the United States of America. All rights reserved.
##CAS REGISTRY NO=57-71-6
##MOLFORM=C4H7NO2
##MP=72.5
##SOURCE REFERENCE=RAS UV No. 19690
##$NIST SQUIB=1962LAN53
##$NIST SOURCE=TYUGLMTE
##SPECTROMETER/DATA SYSTEM=Beckman DU
##XUNITS=Wavelength (nm)
##YUNITS=Logarithm epsilon
##XFACTOR=1.0
##YFACTOR=1.0
##FIRSTX=215.05
##LASTX=314.2
##FIRSTY=4.709
##MAXX=314.2
##MINX=215.05
##MAXY=4.923
##MINY=2.784
##NPOINTS=107
##$REF AUTHOR=Lang (editor), L.
##$REF JOURNAL=Absorption Spectra in the Ultraviolet and Visible Region
##$REF VOLUME=3
##$REF PAGE=53
##$REF DATE=1962
##XYPOINTS=(XY..XY)
215.05,4.709
215.88,4.732
216.89,4.756
217.89,4.779
218.73,4.802
219.90,4.823
220.90,4.846
222.07,4.866
223.24,4.883
224.58,4.900
225.92,4.913
227.25,4.923
228.76,4.920
230.26,4.920
231.60,4.906
232.94,4.893
233.94,4.873
234.78,4.849
235.78,4.829
236.62,4.806
237.45,4.782
238.29,4.759
239.13,4.732
239.96,4.705
240.80,4.682
241.47,4.655
242.30,4.632
242.97,4.605
243.81,4.582
244.48,4.555
245.15,4.528
245.98,4.505
246.65,4.478
247.32,4.451
247.82,4.424
248.49,4.397
249.16,4.371
249.83,4.344
250.33,4.317
251.16,4.290
251.83,4.264
252.50,4.237
253.00,4.210
253.84,4.183
254.51,4.156
255.18,4.130
256.01,4.103
256.68,4.076
257.52,4.049
258.35,4.022
259.02,3.996
259.69,3.969
260.53,3.942
261.20,3.915
262.03,3.892
262.87,3.868
263.70,3.845
264.54,3.822
265.38,3.795
266.21,3.771
267.05,3.745
267.88,3.718
268.72,3.691
269.56,3.668
270.39,3.644
271.23,3.621
272.07,3.597
272.90,3.574
273.74,3.550
274.57,3.527
275.58,3.504
276.58,3.480
277.42,3.457
278.42,3.433
279.42,3.410
280.43,3.390
281.26,3.366
282.26,3.343
283.27,3.319
284.10,3.296
285.11,3.276
286.11,3.253
287.11,3.232
288.12,3.212
289.12,3.192
290.12,3.172
291.29,3.152
292.30,3.132
293.30,3.112
294.30,3.088
295.31,3.068
296.48,3.052
297.48,3.032
298.48,3.011
299.65,2.991
300.82,2.971
301.99,2.951
303.17,2.934
304.34,2.918
305.34,2.898
306.51,2.881
307.68,2.864
309.02,2.847
310.19,2.831
311.53,2.814
312.86,2.797
314.20,2.784
##END=
