##TITLE=3-Hydroxyflavone
##JCAMP-DX=4.24
##DATA TYPE=UV/VIS SPECTRUM
##ORIGIN=INSTITUTE OF ENERGY PROBLEMS OF CHEMICAL PHYSICS, RAS
##OWNER=INEP CP RAS, NIST OSRD
Collection (C) 2007 copyright by the U.S. Secretary of Commerce
on behalf of the United States of America. All rights reserved.
##CAS REGISTRY NO=577-85-5
##MOLFORM=C15H10O3
##MP=169.5-170.5
##SOURCE REFERENCE=RAS UV No. 8698
##$NIST SQUIB=1966BAR/SZO248B
##$NIST SOURCE=TSGMTE
##SPECTROMETER/DATA SYSTEM=Beckman DU
##XUNITS=Wavelength (nm)
##YUNITS=Logarithm epsilon
##XFACTOR=1.000000
##YFACTOR=1.000000
##FIRSTX=217.1290
##LASTX=384.6219
##FIRSTY=4.1907
##MAXX=384.622
##MINX=217.129
##MAXY=4.28127
##MINY=3.17922
##NPOINTS=1000
##$REF AUTHOR=Bartecki, A.; Szoke, J.; Varsanyi, G.; Vizesy, M.
##$REF TITLE=Absorption spectra in the ultraviolet and visible region. Volume 1
##$REF PAGE=248
##$REF DATE=1966
##$REF PUBLISHER=Academic Press Inc.
##$REF LOCATION=New York
##XYPOINTS=(XY..XY)
217.1290,4.190704
217.3092,4.190722
217.4738,4.187463
217.6376,4.187479
217.6385,4.183876
217.8186,4.183894
217.9832,4.180635
218.1634,4.180653
218.1643,4.177050
218.4918,4.177083
218.4927,4.173807
218.6728,4.173825
218.8374,4.170566
219.0012,4.170582
219.1823,4.166997
219.3460,4.167014
219.3468,4.163738
219.5270,4.163756
219.6916,4.160497
219.8554,4.160513
219.8563,4.156910
220.2002,4.156944
220.2010,4.153669
220.3812,4.153687
220.5458,4.150428
220.7096,4.150444
220.7105,4.146841
221.0544,4.146875
221.0552,4.143600
221.3992,4.143634
221.5638,4.140375
221.7439,4.140393
221.9086,4.136806
222.0724,4.136822
222.0732,4.133547
222.5973,4.133599
222.7620,4.130012
225.1368,4.130250
225.3161,4.133871
225.8238,4.133922
225.9867,4.137214
226.5108,4.137266
226.6737,4.140886
226.8375,4.140902
227.0168,4.144196
227.1806,4.144212
227.3436,4.147504
227.5237,4.147522
227.6866,4.151142
227.8668,4.151160
228.1927,4.157744
228.3719,4.161365
228.3728,4.157762
228.5349,4.164657
228.5357,4.161381
228.7142,4.167950
228.7151,4.164675
228.8771,4.171570
228.8780,4.167967
229.0401,4.174862
229.0409,4.171586
229.2194,4.178155
229.2202,4.174880
229.3823,4.181775
229.3832,4.178172
229.5453,4.185067
229.5461,4.181791
229.7245,4.188688
229.7254,4.185085
229.8875,4.191980
229.8883,4.188705
230.0668,4.195274
230.0676,4.191998
230.2297,4.198893
230.2306,4.195290
230.3927,4.202185
230.3935,4.198910
230.5720,4.205479
230.5728,4.202203
230.7358,4.205495
231.0772,4.215684
231.0780,4.212408
231.2410,4.215700
231.4202,4.219322
231.5832,4.222614
231.5840,4.219338
231.7633,4.222632
231.9262,4.226251
232.0892,4.229543
232.0900,4.226268
232.4323,4.232853
232.4331,4.229578
232.5952,4.236473
232.5961,4.232869
232.9383,4.239783
232.9391,4.236507
233.2814,4.243093
233.2822,4.239817
233.4443,4.246712
233.4452,4.243109
233.6236,4.250006
233.6245,4.246730
233.9676,4.250040
234.1305,4.253332
234.2943,4.253349
234.4736,4.256970
234.6374,4.256986
234.8167,4.260280
235.3244,4.260330
235.6502,4.267242
235.8304,4.267260
235.9934,4.270552
236.6812,4.270621
236.8441,4.274240
237.3518,4.274291
237.5312,4.277585
238.8906,4.277721
239.0535,4.281013
241.6085,4.281268
241.7731,4.278009
242.8049,4.278112
242.9695,4.274853
244.5090,4.275007
244.5099,4.271404
244.8375,4.271436
245.0185,4.268179
245.1822,4.268195
245.3632,4.264938
246.0347,4.265005
246.2158,4.261420
246.3796,4.261436
246.7252,4.254592
247.0528,4.254624
247.2338,4.251367
247.3975,4.251383
247.3984,4.248108
247.9061,4.248158
247.9070,4.244555
248.0871,4.244573
248.2517,4.241314
248.4319,4.241332
248.5965,4.238073
249.1042,4.238124
249.4499,4.231279
249.7938,4.231314
249.7946,4.228038
249.9584,4.228054
249.9593,4.224451
250.3032,4.224486
250.3041,4.221210
250.4678,4.221226
250.6489,4.217641
250.8127,4.217658
250.8135,4.214382
250.9773,4.214398
250.9781,4.211123
251.3220,4.211157
251.3229,4.207554
251.5031,4.207572
251.5039,4.204296
251.6677,4.204313
251.8323,4.201054
252.0124,4.201072
252.0133,4.197468
252.1771,4.197485
252.1779,4.194209
252.3417,4.194226
252.5227,4.190968
252.6865,4.190984
252.6874,4.187381
252.8675,4.187399
252.8684,4.184124
253.0321,4.184140
253.0330,4.180537
253.1968,4.180553
253.1976,4.177278
253.3778,4.177296
253.7235,4.170451
253.7243,4.167176
253.8881,4.167192
253.8889,4.163916
254.0527,4.163933
254.0536,4.160330
254.2337,4.160348
254.2345,4.157072
254.3983,4.157088
254.3991,4.153813
254.5793,4.153831
254.5802,4.150228
254.7440,4.150244
254.7448,4.146969
254.9086,4.146985
254.9094,4.143709
255.0895,4.143727
255.0904,4.140124
255.2542,4.140141
255.2550,4.136865
255.4188,4.136881
255.4197,4.133278
255.5999,4.133296
255.6007,4.130021
255.7645,4.130037
255.7653,4.126761
255.9455,4.126779
257.3134,4.092849
257.3142,4.089573
257.4779,4.089590
257.4789,4.085987
257.6426,4.086003
257.6434,4.082727
257.9891,4.075883
257.9899,4.072607
258.1701,4.072626
258.1709,4.069350
258.5002,4.062504
258.5010,4.059228
258.8467,4.052384
258.8476,4.048781
259.0277,4.048799
259.0285,4.045523
259.3578,4.038677
259.3586,4.035402
259.5388,4.035420
259.5396,4.032144
259.7034,4.032160
259.7051,4.025282
259.8853,4.025300
259.8861,4.022024
260.0499,4.022040
260.0508,4.018437
260.2154,4.015178
260.2163,4.011575
260.3972,4.008317
260.3981,4.005042
260.5618,4.005058
260.7265,4.001471
260.7273,3.998196
261.0730,3.991351
261.0738,3.988076
261.2540,3.988094
261.2548,3.984818
261.4195,3.981231
261.4203,3.977956
261.5841,3.977972
261.5849,3.974697
261.7660,3.971111
261.7668,3.967836
264.5076,3.879666
264.6714,3.879683
264.6722,3.876407
264.8532,3.873150
264.8541,3.869546
265.0187,3.866287
265.0195,3.863012
265.2006,3.859427
265.2014,3.856151
265.3660,3.852892
265.3669,3.849289
265.7126,3.842444
265.7142,3.835893
265.8780,3.835909
265.8789,3.832306
266.0435,3.829047
266.0452,3.822168
266.2254,3.822186
266.2262,3.818911
266.3908,3.815651
266.3917,3.812048
266.5727,3.808791
266.5736,3.805187
266.7373,3.805204
266.7390,3.798653
266.9037,3.795066
266.9045,3.791790
267.0854,3.788533
267.0864,3.784930
267.2509,3.781670
267.2518,3.778395
267.4328,3.774810
267.4336,3.771534
267.5982,3.768275
267.5991,3.764672
267.7637,3.761412
267.7646,3.757809
267.9456,3.754552
267.9464,3.751276
268.1111,3.747689
268.1119,3.744414
268.2929,3.741156
268.2938,3.737553
268.4584,3.734294
268.4592,3.731018
268.6239,3.727431
268.6247,3.724156
268.8058,3.720571
268.8066,3.717295
268.9712,3.714036
268.9721,3.710433
269.1367,3.707173
269.1375,3.703898
269.3186,3.700313
269.3202,3.693761
269.6659,3.686917
269.6667,3.683641
269.9960,3.676795
269.9969,3.673192
270.1779,3.669935
270.1787,3.666659
270.6889,3.656555
270.6898,3.652952
270.8544,3.649693
270.8553,3.646417
271.0354,3.646436
271.0363,3.642832
271.2009,3.639573
271.2018,3.635970
271.3828,3.632712
271.5466,3.632729
271.5483,3.625850
271.7121,3.625866
271.7129,3.622591
271.8930,3.622609
271.8939,3.619333
272.0576,3.619350
272.0585,3.615746
272.5688,3.605643
272.5696,3.602367
272.7498,3.602385
272.7507,3.598782
272.9145,3.598798
272.9153,3.595523
273.0791,3.595539
273.0799,3.592264
273.2600,3.592282
273.4247,3.588695
273.6049,3.588713
273.6057,3.585437
273.7695,3.585454
273.7703,3.582178
274.1142,3.582212
274.1151,3.578609
274.2789,3.578626
274.6245,3.572109
276.6709,3.575589
276.6717,3.572314
276.8347,3.575606
276.9977,3.578898
277.1778,3.578916
277.3407,3.582535
277.6838,3.585845
277.6846,3.582569
278.0269,3.589155
278.0278,3.585879
278.1907,3.589171
278.5329,3.596085
278.6967,3.596101
278.8761,3.599395
279.0389,3.603014
279.0398,3.599411
279.2019,3.606306
279.2027,3.603031
279.3812,3.609927
279.3821,3.606324
279.5449,3.609944
279.8872,3.616529
280.0501,3.620149
280.0510,3.616546
280.2295,3.623442
280.2303,3.620167
280.3924,3.626734
280.3932,3.623459
280.7355,3.630372
280.7364,3.626769
280.8984,3.633664
280.8992,3.630388
281.2406,3.640577
281.4036,3.643869
281.4044,3.640593
281.5828,3.647490
281.5837,3.643887
281.7450,3.654058
281.7458,3.650782
282.0880,3.657695
282.0889,3.654092
282.2502,3.664263
282.2518,3.657712
282.4294,3.667884
282.4303,3.664281
282.5932,3.667901
282.9346,3.678089
282.9355,3.674486
283.0976,3.681381
283.0984,3.678106
283.4398,3.688294
283.6027,3.691586
283.6036,3.688311
283.7812,3.698483
283.7829,3.691604
283.9441,3.701775
283.9450,3.698500
284.1234,3.705396
284.1243,3.701793
284.4484,3.715583
284.4493,3.711980
284.6278,3.718877
284.6286,3.715601
284.7907,3.722169
284.7915,3.718893
284.9700,3.725790
284.9709,3.722187
285.1329,3.729082
285.1338,3.725807
285.2950,3.735977
285.2958,3.732702
285.4743,3.739271
285.4752,3.735995
285.6372,3.742890
285.6381,3.739287
285.9786,3.753079
285.9795,3.749476
286.1416,3.756371
286.1424,3.753096
286.3209,3.759665
286.3217,3.756389
286.6459,3.770180
286.6468,3.766576
286.8252,3.773473
286.8260,3.770198
286.9882,3.776765
286.9890,3.773490
287.1666,3.783662
287.1674,3.780386
287.3296,3.786954
287.3304,3.783678
287.4924,3.790573
287.4933,3.786970
287.6710,3.797143
287.6718,3.793867
287.8338,3.800762
287.8347,3.797159
288.0124,3.807331
288.0132,3.804056
288.1744,3.814227
288.1761,3.807348
288.3373,3.817846
288.3382,3.814243
288.5166,3.821140
288.5175,3.817864
288.6796,3.824432
288.6804,3.821156
288.8417,3.831327
288.8425,3.828051
289.0210,3.834620
289.0218,3.831345
289.1839,3.838240
289.1848,3.834637
289.3624,3.844809
289.3632,3.841534
289.5253,3.848429
289.5262,3.844826
289.6882,3.851721
289.6891,3.848445
289.8667,3.858617
289.8684,3.851739
290.0296,3.861909
290.0305,3.858634
290.5339,3.875718
290.5348,3.872115
290.7133,3.879011
290.7141,3.875736
290.8753,3.885906
290.8762,3.882303
291.0547,3.889200
291.0555,3.885924
291.2176,3.892492
291.2184,3.889216
291.3805,3.896112
291.3814,3.892508
291.5589,3.903008
291.5607,3.896130
291.7219,3.906300
291.7227,3.903025
291.8849,3.909592
291.8857,3.906317
294.2633,3.960931
294.4254,3.967498
294.4262,3.964223
294.6047,3.971120
294.6056,3.967516
294.7676,3.974412
294.7684,3.971136
294.9305,3.978031
294.9314,3.974428
295.7780,3.994822
295.9572,3.998443
295.9581,3.994840
296.1202,4.001735
296.1210,3.998459
296.6254,4.011940
296.8047,4.015234
296.8055,4.011958
296.9676,4.018853
296.9685,4.015250
297.1306,4.022145
297.1314,4.018870
297.3098,4.025766
297.3107,4.022163
297.4728,4.029058
297.4736,4.025783
297.6521,4.032352
297.6529,4.029076
297.8150,4.035972
297.8159,4.032368
297.9780,4.039264
297.9788,4.035988
298.1581,4.039282
298.3211,4.042574
298.5003,4.046195
298.5012,4.042592
298.6633,4.049487
298.6641,4.046211
298.8263,4.052779
298.8271,4.049503
299.0055,4.056400
299.0064,4.052797
299.1693,4.056416
299.3486,4.059710
299.5115,4.063329
299.5124,4.059726
299.6745,4.066621
299.6753,4.063346
299.8538,4.069915
299.8546,4.066639
300.0176,4.069931
300.1805,4.073551
300.3598,4.076845
300.3606,4.073569
300.7029,4.080155
300.7038,4.076879
300.8658,4.083774
300.8667,4.080171
301.0296,4.083790
301.2089,4.087084
301.3727,4.087100
301.5521,4.090394
301.8787,4.094030
301.8796,4.090427
302.0589,4.094048
302.2218,4.097340
302.5658,4.097374
302.7287,4.100666
302.9089,4.100684
303.0718,4.104304
303.5795,4.104355
303.7588,4.107648
304.0864,4.107681
304.2656,4.111302
304.6096,4.111337
304.7725,4.114629
308.3429,4.114986
308.5075,4.111726
309.0316,4.111779
309.1963,4.108192
309.5403,4.108226
309.7049,4.104967
310.0488,4.105002
310.2135,4.101415
310.9014,4.101484
311.0660,4.098224
311.4099,4.098259
311.5745,4.095000
311.7546,4.095018
311.7555,4.091414
312.0995,4.091449
312.2641,4.088190
312.4279,4.088206
312.6088,4.084948
312.7726,4.084965
312.9537,4.081380
313.2812,4.081412
313.2821,4.078137
313.7898,4.078188
313.9708,4.074930
314.3147,4.074964
314.4794,4.071378
314.8233,4.071412
314.9879,4.068153
315.3318,4.068187
315.4964,4.064928
316.0205,4.064980
316.1852,4.061394
316.6929,4.061444
316.8575,4.058185
317.8894,4.058288
318.0540,4.054701
318.9057,4.054787
319.0867,4.051529
322.6571,4.051886
322.8200,4.055178
323.5079,4.055247
323.6708,4.058866
324.1785,4.058917
324.3578,4.062211
324.8656,4.062262
325.0284,4.065881
325.3724,4.065915
325.5353,4.069207
325.8793,4.069242
326.0422,4.072534
326.2224,4.072552
326.5646,4.079465
326.7276,4.082757
326.7284,4.079481
326.8914,4.082773
327.0706,4.086395
327.2344,4.086411
327.4137,4.089705
327.7413,4.089737
327.9206,4.093031
328.0844,4.093047
328.5896,4.103252
328.9335,4.103287
329.0964,4.106906
329.2758,4.110200
329.2766,4.106924
329.6197,4.110234
329.9455,4.117146
330.1257,4.117164
330.2886,4.120456
330.4515,4.124075
330.4524,4.120472
330.6317,4.124093
330.7946,4.127385
330.9740,4.130679
330.9748,4.127403
331.3006,4.134315
331.3015,4.130712
331.4800,4.137609
331.4808,4.134333
331.8231,4.140919
331.8239,4.137643
332.1507,4.140951
333.3420,4.158104
333.3428,4.154828
333.6859,4.158138
333.8488,4.161758
334.0282,4.165052
334.0290,4.161776
334.3549,4.168360
334.3557,4.165084
334.6979,4.171997
334.6988,4.168394
335.0411,4.175307
335.0419,4.172032
335.3842,4.178617
335.3850,4.175342
335.7272,4.182255
335.7281,4.178652
335.8910,4.182271
336.0540,4.185563
336.3971,4.188873
336.3979,4.185598
336.7401,4.192511
336.7410,4.188908
337.0832,4.195821
337.0840,4.192545
337.4099,4.199457
337.4108,4.195854
337.9332,4.202785
337.9340,4.199509
338.0961,4.206077
338.0969,4.202801
338.4401,4.206111
338.6029,4.209731
338.7831,4.209749
338.9461,4.213041
339.1098,4.213057
339.2892,4.216351
339.6167,4.216383
339.7960,4.220005
339.9598,4.220021
340.1391,4.223315
340.4667,4.223347
340.6460,4.226641
340.9900,4.226675
341.1528,4.230295
341.4968,4.230329
341.6597,4.233621
342.0037,4.233656
342.1665,4.237275
342.5105,4.237310
342.6734,4.240602
343.1975,4.240654
343.3605,4.243946
343.7044,4.243980
343.8673,4.247600
344.3750,4.247651
344.5544,4.250944
344.7173,4.254236
344.7182,4.250961
345.9129,4.254356
346.0758,4.257975
346.9275,4.258061
347.1068,4.261354
347.9421,4.261438
348.1214,4.264731
349.1369,4.264833
349.3161,4.268454
349.4799,4.268470
349.6446,4.264884
350.8402,4.265003
351.0048,4.261744
351.8564,4.261829
352.0374,4.258572
352.3813,4.258606
352.5460,4.255019
353.2175,4.255086
353.3985,4.251829
353.7424,4.251863
353.9070,4.248604
354.4148,4.248655
354.5958,4.245070
354.7596,4.245086
354.9242,4.241827
355.4483,4.241879
355.6129,4.238620
355.9568,4.238654
356.1215,4.235068
356.6292,4.235118
356.6300,4.231843
356.9740,4.231877
357.1387,4.228290
357.3188,4.228308
357.4834,4.225049
357.6636,4.225067
357.8282,4.221808
358.1721,4.221842
358.1730,4.218239
358.5006,4.218272
358.6816,4.215014
358.8453,4.215031
359.0263,4.211773
359.1901,4.211789
359.1910,4.208186
359.5349,4.208221
359.5357,4.204945
359.8797,4.204979
360.0443,4.201720
360.2081,4.201737
360.2090,4.198133
360.3891,4.198152
360.3899,4.194876
360.7339,4.194910
360.7348,4.191307
361.0623,4.191340
361.2433,4.188082
361.4071,4.188099
361.4079,4.184823
361.5717,4.184839
361.7528,4.181254
361.9165,4.181271
361.9174,4.177995
362.0975,4.178013
362.2621,4.174754
362.4259,4.174770
362.6070,4.171185
362.7707,4.171202
362.7716,4.167926
362.9517,4.167944
363.1163,4.164685
363.2801,4.164701
363.2810,4.161098
363.4611,4.161116
363.4620,4.157840
363.8059,4.157875
363.8067,4.154599
363.9705,4.154616
363.9714,4.151012
364.1352,4.151029
364.1360,4.147753
364.4799,4.147788
364.4808,4.144184
364.6446,4.144201
364.6454,4.140925
364.9894,4.140960
364.9902,4.137684
365.1704,4.137702
365.1713,4.134099
365.3350,4.134115
365.3359,4.130840
365.4996,4.130856
365.5005,4.127580
365.6806,4.127598
366.1909,4.117495
366.1918,4.113892
366.3555,4.113908
366.5365,4.110650
366.7003,4.110667
366.7012,4.107064
366.8814,4.107082
366.8822,4.103806
367.0460,4.103822
367.0468,4.100547
367.2115,4.096960
367.3916,4.096978
367.3924,4.093702
367.5570,4.090443
367.7208,4.090460
367.7225,4.083581
367.9027,4.083599
367.9035,4.080323
368.0673,4.080340
368.0682,4.076736
368.2484,4.076754
368.2492,4.073479
368.4130,4.073495
368.4138,4.070220
368.9241,4.059789
368.9249,4.056513
369.1059,4.053255
369.1068,4.049652
369.2706,4.049669
369.2714,4.046393
369.4352,4.046409
369.4369,4.039531
369.6171,4.039549
369.6187,4.032997
369.7825,4.033014
369.7834,4.029411
369.9472,4.029427
369.9480,4.026151
370.1281,4.026169
370.1299,4.019291
370.2936,4.019307
370.2945,4.016031
370.4746,4.016049
370.4763,4.009171
370.6401,4.009187
370.6418,4.002308
370.8056,4.002325
370.8064,3.999049
370.9866,3.999067
370.9883,3.992188
371.1521,3.992205
371.1529,3.988929
371.3339,3.985672
371.3348,3.982068
371.4986,3.982085
371.5003,3.975206
371.6641,3.975222
371.6657,3.968671
371.8459,3.968689
371.8476,3.961810
372.0114,3.961827
372.0131,3.954948
372.1932,3.954966
372.1941,3.951690
372.3587,3.948431
372.3596,3.944828
372.5242,3.941569
372.5251,3.937966
372.7060,3.934708
372.7069,3.931432
372.8706,3.931449
372.8724,3.924570
373.0361,3.924586
373.0379,3.917708
373.2188,3.914450
373.2197,3.911175
373.3843,3.907588
373.3852,3.904312
373.5662,3.900727
373.5678,3.894176
373.7316,3.894192
373.7333,3.887313
373.8971,3.887330
373.8988,3.880451
374.0790,3.880469
374.0806,3.873918
374.2444,3.873934
374.2470,3.863780
374.4271,3.863798
374.4288,3.856919
374.5926,3.856936
374.5935,3.853332
374.7581,3.850073
374.7598,3.843194
374.9400,3.843212
374.9416,3.836661
375.1063,3.833074
375.1071,3.829799
375.2873,3.829817
375.2890,3.822938
375.4536,3.819679
375.4545,3.816076
375.6191,3.812816
375.6208,3.805938
375.8018,3.802680
375.8035,3.795801
375.9681,3.792542
375.9698,3.785663
376.1336,3.785680
376.1353,3.779129
376.3163,3.775543
376.3189,3.765389
376.4826,3.765405
376.4844,3.758527
376.6653,3.755269
376.6662,3.751993
376.8308,3.748407
376.8334,3.738252
376.9980,3.734993
376.9989,3.731390
377.1799,3.728132
377.1824,3.717978
377.3470,3.714719
377.3487,3.707840
377.5297,3.704582
377.5322,3.694428
377.6969,3.690841
377.6986,3.683963
377.8632,3.680703
377.8658,3.670549
378.0467,3.667291
378.0493,3.657137
378.2140,3.653550
378.2157,3.646671
378.3803,3.643412
378.3836,3.629982
378.5647,3.626397
378.5655,3.623122
378.7301,3.619862
378.7336,3.606105
378.9145,3.602847
378.9171,3.592693
379.0817,3.589106
379.0843,3.578952
379.2489,3.575692
379.2514,3.565538
379.4325,3.561953
379.4350,3.551799
379.5996,3.548539
379.6013,3.541661
379.7823,3.538403
379.7849,3.528249
379.9495,3.524662
379.9529,3.511232
380.1175,3.507973
380.1192,3.501094
380.3002,3.497836
380.3027,3.487682
380.4674,3.484095
380.4691,3.477216
380.6501,3.473959
380.6526,3.463804
380.8172,3.460545
380.8198,3.450391
380.9845,3.446804
380.9870,3.436650
381.1680,3.433392
381.1697,3.426513
381.3343,3.423254
381.3377,3.409497
381.5023,3.406237
381.5049,3.396083
381.6859,3.392498
381.6876,3.385947
381.8523,3.382360
381.8548,3.372206
382.0358,3.368948
382.0383,3.358794
382.2030,3.355207
382.2038,3.351931
382.3684,3.348672
382.3709,3.338518
382.5520,3.334933
382.5545,3.324778
382.7191,3.321519
382.7217,3.311365
382.9027,3.307779
382.9053,3.297625
383.0699,3.294366
383.0724,3.284212
383.2370,3.280952
383.2396,3.270470
383.4206,3.267213
383.4223,3.260334
383.5869,3.257075
383.5903,3.243645
383.7713,3.240060
383.7731,3.233181
383.9377,3.229922
383.9394,3.223043
384.1040,3.219784
384.1073,3.206354
384.2884,3.202769
384.2909,3.192614
384.4555,3.189355
384.4573,3.182476
384.6219,3.179217
##END=
