##TITLE=o-Nitroacetophenone
##JCAMP-DX=4.24
##DATA TYPE=UV/VIS SPECTRUM
##ORIGIN=INSTITUTE OF ENERGY PROBLEMS OF CHEMICAL PHYSICS, RAS
##OWNER=INEP CP RAS, NIST OSRD
Collection (C) 2007 copyright by the U.S. Secretary of Commerce
on behalf of the United States of America. All rights reserved.
##CAS REGISTRY NO=577-59-3
##MOLFORM=C8H7NO3
##SOURCE REFERENCE=RAS UV No. 953
##$NIST SQUIB=1953GRA865-872
##$NIST SOURCE=TSGMTE
##SPECTROMETER/DATA SYSTEM=n.i.g.
##XUNITS=Wavelength (nm)
##YUNITS=Logarithm epsilon
##XFACTOR=1.000000
##YFACTOR=1.000000
##FIRSTX=403.6102
##LASTX=224.6759
##FIRSTY=0.638649
##MAXX=403.61
##MINX=224.676
##MAXY=3.72219
##MINY=0.638649
##NPOINTS=151
##$REF AUTHOR=Grammaticakis, P.
##$REF TITLE=Contribution a l'etude de l'absorption dans l'U.-V. moyen et le visible des composes carbonyles aromatiques et de leurs derives. (2^e memoire)
##$REF JOURNAL=Bull. Soc. Chim. Fr.
##$REF VOLUME=20
##$REF PAGE=865-872
##$REF DATE=1953
##XYPOINTS=(XY..XY)
403.6102,0.638649
402.8372,0.674769
402.0042,0.710633
401.1256,0.746276
400.2156,0.781712
399.2882,0.816983
398.3571,0.852102
397.4357,0.887105
396.5373,0.922014
395.6749,0.956860
394.8612,0.991669
394.8612,0.991669
393.4397,1.017292
392.1379,1.058453
390.9985,1.105725
390.0633,1.149669
389.3738,1.180851
389.3738,1.180851
386.4523,1.271563
384.2001,1.342281
382.5094,1.395580
381.2811,1.434037
380.4220,1.460230
379.8430,1.476732
379.4578,1.486121
379.1814,1.490975
378.9296,1.493868
378.9296,1.493868
378.8922,1.501633
378.8375,1.509401
378.7742,1.517172
378.7742,1.517172
375.5749,1.595000
373.9306,1.638063
373.0367,1.655851
373.0367,1.655851
371.8091,1.690171
370.5490,1.723906
369.2621,1.757173
367.9541,1.790087
366.6305,1.822767
365.2967,1.855328
363.9579,1.887887
362.6193,1.920561
361.2857,1.953466
359.9621,1.986718
359.9621,1.986718
359.4042,1.990810
358.9016,1.999699
358.0255,2.021006
358.0255,2.021006
356.4967,2.065029
353.9218,2.102832
351.1186,2.136790
351.1186,2.136790
348.8263,2.143348
346.3664,2.148226
341.6971,2.155605
341.6971,2.155605
339.5407,2.173843
337.5153,2.193730
335.6109,2.215147
333.8178,2.237977
332.1270,2.262100
330.5297,2.287401
329.0179,2.313759
327.5837,2.341058
326.2196,2.369178
324.9185,2.398004
323.6733,2.427415
322.4775,2.457295
321.3245,2.487525
320.2081,2.517987
319.1221,2.548563
318.0608,2.579136
317.0184,2.609587
315.9892,2.639798
314.9677,2.669651
313.9488,2.699028
312.9272,2.727811
311.8977,2.755883
311.8977,2.755883
310.3036,2.790029
309.0202,2.817499
307.8935,2.841235
306.7747,2.864177
305.5195,2.889264
303.9884,2.919439
302.0488,2.957642
299.5778,3.006812
299.5778,3.006812
298.9879,3.011981
297.7011,3.029877
295.3142,3.064415
291.4692,3.119513
291.4692,3.119513
289.3870,3.143440
287.3343,3.167367
285.3106,3.191293
283.3151,3.215220
283.3151,3.215220
279.4521,3.278862
277.9474,3.302346
277.4532,3.318455
277.4532,3.318455
277.4496,3.314358
277.4459,3.310170
277.4419,3.305801
277.4419,3.305801
275.8696,3.344637
274.6499,3.365537
273.5261,3.386022
272.2396,3.410957
270.5422,3.445209
268.2006,3.493645
268.2006,3.493645
266.4375,3.512404
264.6983,3.530166
262.9284,3.547184
261.0762,3.563706
261.0762,3.563706
259.6531,3.564034
258.6017,3.562860
257.0233,3.559176
257.0233,3.559176
255.4273,3.548478
253.9108,3.539166
252.4561,3.531299
251.0460,3.524937
249.6645,3.520139
248.2959,3.516966
246.9255,3.515476
245.5390,3.515731
244.1228,3.517790
242.6640,3.521712
241.1505,3.527557
241.1505,3.527557
240.6481,3.532020
239.4368,3.538534
237.4622,3.550491
237.4622,3.550491
236.7372,3.558806
235.1193,3.574976
233.0707,3.596112
231.0332,3.619326
231.0332,3.619326
230.5075,3.628538
229.5289,3.643269
228.1772,3.663681
226.5331,3.689935
224.6759,3.722193
##END=
