##TITLE=8-Aminoquinoline
##JCAMP-DX=4.24
##DATA TYPE=UV/VIS SPECTRUM
##ORIGIN=INSTITUTE OF ENERGY PROBLEMS OF CHEMICAL PHYSICS, RAS
##OWNER=INEP CP RAS, NIST OSRD
Collection (C) 2007 copyright by the U.S. Secretary of Commerce
on behalf of the United States of America. All rights reserved.
##CAS REGISTRY NO=578-66-5
##MOLFORM=C9H8N2
##MP=128
##BP=196(18)
##SOURCE REFERENCE=RAS UV No. 479
##$NIST SQUIB=1948STE/EWI3397-3406
##$NIST SOURCE=TSGMTE
##SPECTROMETER/DATA SYSTEM=n.i.g.
##XUNITS=Wavelength (nm)
##YUNITS=Logarithm epsilon
##XFACTOR=1.000000
##YFACTOR=1.000000
##FIRSTX=205.9659
##LASTX=456.2794
##FIRSTY=4.35493
##MAXX=456.279
##MINX=205.966
##MAXY=4.36268
##MINY=2.51465
##NPOINTS=506
##$REF AUTHOR=Steck, E.A.; Ewing, G.W.
##$REF TITLE=Absorption spectra of heterocyclic compounds. II. Amino-derivatives of pyridine, quinoline and isoquinoline
##$REF JOURNAL=J. Am. Chem. Soc.
##$REF VOLUME=70
##$REF PAGE=3397-3406
##$REF DATE=1948
##XYPOINTS=(XY..XY)
205.9659,4.354934
206.1072,4.350320
206.2390,4.345705
206.3516,4.341086
206.7848,4.311011
206.8040,4.304486
206.8227,4.298108
206.8411,4.291804
207.6470,4.267095
207.6634,4.261477
207.6797,4.255933
207.6955,4.250537
208.8618,4.220589
209.0060,4.214993
209.1405,4.209470
209.2553,4.204091
210.7588,4.176851
210.8989,4.173231
211.0389,4.169611
211.1789,4.165990
214.0734,4.149925
214.2476,4.149390
214.4213,4.149003
214.5948,4.148690
218.3933,4.148021
218.9084,4.149435
219.4332,4.150851
219.9771,4.152270
219.9771,4.152270
220.0179,4.153615
220.0681,4.155035
220.1370,4.156605
223.3633,4.159813
223.7425,4.158553
224.1025,4.157290
224.4529,4.156026
227.0073,4.138245
227.1388,4.136979
227.2366,4.134161
228.5914,4.083520
228.6741,4.099462
228.7515,4.107378
229.0600,4.056101
229.1918,4.054737
229.2916,4.051233
229.4448,4.042584
230.9405,4.017993
230.9490,4.015111
230.9570,4.012376
230.9648,4.009715
231.6153,3.981285
231.6361,3.989448
231.6661,3.961795
231.6661,3.961795
231.7464,3.993284
231.9362,3.954663
232.0862,3.949277
232.2446,3.941022
233.0495,3.916643
233.2015,3.908387
233.3440,3.900128
233.4673,3.891867
234.2731,3.867157
234.3611,3.862203
234.4300,3.857245
234.4892,3.852285
235.8251,3.823360
235.9636,3.819740
236.0924,3.816117
236.2021,3.812492
239.4042,3.823979
239.4148,3.820336
239.4255,3.816693
239.4362,3.813051
239.6928,3.843245
239.8016,3.850307
239.8936,3.853244
240.0479,3.854571
240.4810,3.883471
240.5140,3.887464
240.5564,3.891533
240.6175,3.895753
241.2778,3.920716
241.3610,3.926129
241.4630,3.931694
241.5743,3.937333
242.2268,3.964945
242.3100,3.970359
242.4119,3.975923
242.5232,3.981562
243.1757,4.009174
243.2618,4.013594
243.3667,4.018165
243.4809,4.022811
244.3098,4.049129
244.3426,4.053208
244.3845,4.057437
244.4454,4.061742
245.4390,4.090738
245.5263,4.094742
245.6326,4.098822
245.7481,4.103051
246.7407,4.132378
247.0847,4.142046
247.2634,4.145942
247.4301,4.147406
248.7560,4.180767
248.8638,4.187597
248.9450,4.190445
249.0690,4.191755
249.8979,4.218072
250.0557,4.223082
250.2134,4.228164
250.3707,4.233395
251.3808,4.256761
251.5480,4.259110
251.7249,4.261459
251.9209,4.263812
251.9209,4.263812
251.9579,4.266482
252.0041,4.269226
252.0692,4.272121
253.4194,4.297203
253.5077,4.300863
253.6152,4.304526
253.7323,4.308191
254.9139,4.331919
255.0326,4.335584
255.1513,4.339249
255.2700,4.342914
255.2700,4.342914
255.3680,4.343274
255.4850,4.343711
255.6111,4.344298
255.6111,4.344298
255.7735,4.348314
255.9452,4.352405
256.1357,4.356647
256.1357,4.356647
256.6497,4.358491
257.1727,4.360483
257.7147,4.362552
257.7147,4.362552
258.7226,4.362678
259.1373,4.362406
259.3141,4.361504
262.3245,4.320609
262.4687,4.315014
262.6031,4.309491
262.7180,4.304111
263.8765,4.276812
264.0207,4.271217
264.1552,4.265694
264.2700,4.260314
265.4363,4.230366
265.5250,4.225178
265.5941,4.220135
265.6534,4.215163
266.6512,4.183860
266.6618,4.180217
266.6725,4.176575
266.6832,4.172932
267.0767,4.156434
267.2252,4.149932
267.3732,4.143576
267.5210,4.137295
268.3003,4.106948
268.3138,4.102324
268.3271,4.097774
268.3400,4.093371
269.1536,4.066012
269.1672,4.061376
269.1808,4.056740
269.1944,4.052104
269.6199,4.024678
269.7629,4.020064
269.9058,4.015450
270.0487,4.010837
270.1293,3.983351
270.2611,3.981987
270.3609,3.978483
270.5140,3.969834
270.9560,3.936778
271.0945,3.933158
271.2234,3.929536
271.3330,3.925910
271.7852,3.904121
271.7965,3.900245
271.8074,3.896517
271.8182,3.892862
272.2437,3.865436
272.2572,3.860812
272.2706,3.856262
272.2835,3.851859
272.7255,3.818804
272.7361,3.815161
272.7468,3.811518
272.7575,3.807876
273.2348,3.777477
273.2426,3.774828
273.2504,3.772179
273.2581,3.769529
274.0451,3.736534
274.0587,3.731898
274.0723,3.727261
274.0859,3.722625
274.5545,3.695207
274.5736,3.688682
274.5923,3.682304
274.6108,3.676000
275.0363,3.648574
275.0470,3.644932
275.0576,3.641289
275.0683,3.637647
275.5016,3.607571
275.5129,3.603696
275.5239,3.599967
275.5346,3.596312
276.3724,3.560675
276.3809,3.557793
276.3889,3.555058
276.3967,3.552396
276.8377,3.519672
276.8462,3.516790
276.8542,3.514055
276.8620,3.511393
277.3040,3.478338
277.3842,3.476045
277.4450,3.473822
277.4959,3.471745
278.1574,3.437402
278.1658,3.434520
278.1738,3.431785
278.1816,3.429123
278.6159,3.398717
278.6961,3.396424
278.7569,3.394201
278.8078,3.392124
279.4537,3.363079
279.4673,3.358456
279.4806,3.353905
279.4935,3.349502
280.3071,3.322143
280.3185,3.318268
280.3294,3.314539
280.3401,3.310884
281.1106,3.283518
281.1964,3.279324
281.2626,3.275274
281.3190,3.271295
282.3254,3.237012
282.3339,3.234130
282.3419,3.231395
282.3497,3.228734
283.1545,3.204355
283.3017,3.197767
283.4390,3.191250
283.5568,3.184877
284.3616,3.160499
284.5438,3.157229
284.7257,3.154033
284.9072,3.150985
286.9597,3.127816
287.5171,3.124611
288.0552,3.121477
288.5833,3.118488
292.7433,3.112249
293.3166,3.112348
293.9091,3.112451
294.5112,3.112555
296.6148,3.130810
296.7048,3.133905
296.8136,3.137151
296.9317,3.140473
298.4897,3.168241
298.7583,3.169282
299.0461,3.170325
299.3434,3.171371
300.8580,3.155067
300.8665,3.152184
300.8745,3.149449
300.8823,3.146788
304.1217,3.130782
304.1936,3.131359
304.2466,3.131785
304.2904,3.132136
304.2904,3.132136
304.8337,3.132132
305.2157,3.131511
305.7642,3.129740
305.7642,3.129740
305.9542,3.123809
306.1441,3.117879
306.3341,3.111948
309.1618,3.192284
309.1618,3.192284
309.2232,3.112447
309.2569,3.193626
309.2680,3.181135
309.3037,3.118768
309.3545,3.170131
309.3712,3.194971
309.4032,3.125166
309.4313,3.159199
309.4951,3.196317
309.4951,3.196317
309.5119,3.131713
309.9542,3.217945
310.1639,3.226570
310.3036,3.229589
310.3036,3.229589
310.5310,3.229972
310.7773,3.230431
311.0328,3.231040
311.0328,3.231040
311.2448,3.232831
311.4660,3.234772
311.7062,3.236789
311.7227,3.231159
311.9798,3.231204
312.2274,3.231247
312.4558,3.231286
312.4558,3.231286
312.6162,3.220147
312.7667,3.209154
312.8978,3.198231
313.7114,3.170872
313.8605,3.163609
314.0000,3.156344
314.1204,3.149076
314.5459,3.121650
314.6793,3.120274
314.7905,3.116685
314.9747,3.107808
315.7287,3.086072
315.8772,3.079569
316.0252,3.073214
316.1731,3.066932
316.9436,3.039566
317.3529,3.026936
317.5588,3.021560
317.7377,3.018830
318.5043,2.992789
318.6528,2.986286
318.8009,2.979931
318.9487,2.973649
320.0908,2.951979
320.2321,2.947365
320.3639,2.942750
320.4765,2.938131
321.6351,2.910832
321.6435,2.907949
321.6515,2.905214
321.6593,2.902553
323.1541,2.878294
323.2955,2.873680
323.4272,2.869064
323.5398,2.864445
325.0942,2.834564
325.2255,2.833396
325.3212,2.831265
325.4635,2.826345
326.9515,2.804403
327.0899,2.800783
327.2188,2.797161
327.3285,2.793535
331.7376,2.761165
331.9647,2.761634
332.2106,2.762253
332.4658,2.762948
332.4658,2.762948
332.6769,2.765070
332.8971,2.767342
333.1363,2.769690
333.4516,2.794593
333.5416,2.797689
333.6504,2.800935
333.7684,2.804256
333.7684,2.804256
333.9958,2.804639
334.2421,2.805099
334.4734,2.813986
334.4818,2.811104
334.4898,2.808369
334.4976,2.805708
334.4976,2.805708
334.8426,2.805767
334.9742,2.804465
335.0963,2.803160
335.1992,2.801853
335.6208,2.775752
335.8837,2.773822
336.1369,2.771963
336.3704,2.770249
338.2928,2.791454
338.4563,2.794562
338.6193,2.797818
338.7821,2.801147
341.7874,2.820883
342.1834,2.822620
342.5983,2.824434
343.0224,2.826397
344.7292,2.847565
345.0641,2.851611
345.4083,2.855732
345.7713,2.860004
348.0552,2.875639
349.0502,2.880708
349.4697,2.882584
349.6734,2.882877
352.6356,2.902605
352.8074,2.903395
352.9884,2.904335
353.1884,2.905351
355.6409,2.922341
355.9826,2.924069
356.3336,2.925872
356.7034,2.927826
364.7619,2.989849
365.4624,2.990731
366.1816,2.991764
366.9102,2.992871
370.0681,3.004682
370.5430,3.005107
371.0273,3.005608
371.5303,3.006260
371.5303,3.006260
371.8730,3.007644
372.2253,3.009030
372.5967,3.010420
375.9271,3.022260
376.4551,3.023112
377.0019,3.024115
377.5580,3.025193
381.8545,3.031236
382.4250,3.032329
383.0146,3.033425
383.6137,3.034522
387.1772,3.040439
387.5238,3.040499
387.8799,3.040560
388.2553,3.040625
391.5049,3.035886
391.9390,3.034402
392.3632,3.033065
392.7680,3.031797
397.2962,3.017670
397.9333,3.016737
398.3502,3.015692
398.9043,3.013641
403.7862,2.996594
404.5692,2.994422
405.3519,2.992324
406.1342,2.990373
409.9468,2.970159
410.1494,2.969740
410.7624,2.966668
412.3112,2.958309
416.5518,2.924584
416.7259,2.924050
416.8996,2.923663
417.0731,2.923349
420.2191,2.895068
420.7060,2.890858
421.1927,2.886720
421.6789,2.882731
424.6447,2.857069
424.7792,2.854785
424.9040,2.852573
425.0091,2.850506
428.3285,2.821923
428.7376,2.815920
429.0731,2.812113
429.6227,2.807238
432.0279,2.781479
432.6950,2.774649
433.3620,2.767893
434.0285,2.761283
436.4346,2.735194
436.8667,2.731182
437.2022,2.727375
437.7288,2.720508
439.7725,2.700320
440.3161,2.695309
440.6052,2.692095
440.8874,2.687922
443.4806,2.656895
443.6851,2.656366
443.8700,2.655981
444.0451,2.655667
444.0451,2.655667
444.3024,2.651834
444.5401,2.648145
444.7680,2.644528
447.9218,2.613597
447.9276,2.611623
447.9331,2.609722
447.9383,2.607968
450.1584,2.586485
451.0795,2.574778
451.4653,2.569089
451.6464,2.564543
453.5059,2.548299
454.4436,2.536963
455.3712,2.525773
456.2794,2.514653
##END=
