##TITLE=2-butyl-1-ethenyl-1H-pyrrole
##JCAMP-DX=4.24
##DATA TYPE=UV/VIS SPECTRUM
##ORIGIN=INSTITUTE OF ENERGY PROBLEMS OF CHEMICAL PHYSICS, RAS
##OWNER=INEP CP RAS, NIST OSRD
Collection (C) 2007 copyright by the U.S. Secretary of Commerce
on behalf of the United States of America. All rights reserved.
##CAS REGISTRY NO=57807-51-9
##MOLFORM=C10H15N
##BP=74-75 /5mm
##SOURCE REFERENCE=RAS UV No. 23441
##$NIST SQUIB=1975TRO/1225
##$NIST SOURCE=TYUGLMTE
##SPECTROMETER/DATA SYSTEM=Pye Unicam SP 8000
##XUNITS=Wavelength (nm)
##YUNITS=Logarithm epsilon
##XFACTOR=1.0
##YFACTOR=1.0
##FIRSTX=199.241
##LASTX=274.342
##FIRSTY=4.046
##MAXX=274.342
##MINX=199.241
##MAXY=4.121
##MINY=3.684
##NPOINTS=81
##$REF AUTHOR=Trofimov, B.A.; et al.
##$REF JOURNAL=Khim. Geterosikl. Soedin.
##$REF PAGE=1225
##$REF DATE=1975
##XYPOINTS=(XY..XY)
199.241,4.046
199.448,4.048
199.655,4.048
199.719,4.048
200.719,4.055
201.719,4.053
202.719,4.043
203.719,4.027
204.719,4.006
205.719,3.983
206.719,3.958
207.719,3.933
207.732,3.933
208.732,3.910
209.732,3.887
210.732,3.865
211.732,3.844
212.732,3.824
213.732,3.806
214.732,3.789
215.732,3.773
216.732,3.759
217.732,3.747
218.732,3.736
219.732,3.726
220.732,3.718
221.732,3.711
222.732,3.705
223.732,3.701
224.732,3.699
225.670,3.700
226.670,3.703
227.670,3.707
228.670,3.713
229.670,3.722
230.670,3.733
231.670,3.748
232.670,3.766
233.670,3.786
234.670,3.807
235.670,3.829
236.670,3.850
237.670,3.871
238.670,3.891
239.670,3.909
240.670,3.926
241.575,3.942
242.575,3.960
243.575,3.977
244.575,3.994
245.575,4.012
246.575,4.030
247.575,4.049
248.575,4.069
249.575,4.087
250.575,4.103
251.575,4.115
251.621,4.116
252.621,4.121
253.621,4.114
254.621,4.100
255.621,4.081
256.621,4.059
257.621,4.037
258.621,4.014
259.621,3.993
260.621,3.971
261.621,3.949
262.510,3.928
263.510,3.903
264.510,3.878
265.510,3.855
266.510,3.832
267.510,3.810
268.510,3.789
269.510,3.769
270.510,3.750
271.510,3.731
272.510,3.713
273.510,3.697
274.342,3.684
##END=
