##TITLE=5-Hydroxyquinoline
##JCAMP-DX=4.24
##DATA TYPE=UV/VIS SPECTRUM
##ORIGIN=INSTITUTE OF ENERGY PROBLEMS OF CHEMICAL PHYSICS, RAS
##OWNER=INEP CP RAS, NIST OSRD
Collection (C) 2007 copyright by the U.S. Secretary of Commerce
on behalf of the United States of America. All rights reserved.
##CAS REGISTRY NO=578-67-6
##MOLFORM=C9H7NO
##MP=224
##SOURCE REFERENCE=RAS UV No. 19896
##$NIST SQUIB=1968PER/BRAh1/17
##$NIST SOURCE=TYUGLMTE
##SPECTROMETER/DATA SYSTEM=Zeiss PMQ II
##XUNITS=Wavelength (nm)
##YUNITS=Logarithm epsilon
##XFACTOR=1.0
##YFACTOR=1.0
##FIRSTX=200.31
##LASTX=368.53
##FIRSTY=4.534
##MAXX=368.53
##MINX=200.31
##MAXY=4.632
##MINY=2.237
##NPOINTS=197
##$REF AUTHOR=Perkampus, H.-H.; Braunschweig, T.H.
##$REF JOURNAL=UV atlas of organic compounds
##$REF VOLUME=4
##$REF PAGE=H1/17
##$REF DATE=1968
##XYPOINTS=(XY..XY)
200.31,4.534
200.40,4.530
200.48,4.528
200.57,4.526
200.66,4.524
200.74,4.521
200.83,4.519
200.91,4.517
201.00,4.515
201.09,4.513
201.17,4.511
201.26,4.509
201.35,4.506
201.43,4.504
201.52,4.502
201.60,4.500
201.69,4.498
201.78,4.496
201.87,4.494
201.95,4.492
202.04,4.489
202.39,4.481
202.91,4.460
203.44,4.432
203.97,4.407
204.51,4.383
205.04,4.358
205.58,4.334
206.13,4.313
206.67,4.294
207.22,4.272
207.77,4.249
208.33,4.219
208.88,4.190
209.44,4.160
210.01,4.141
210.57,4.121
211.14,4.104
211.71,4.092
212.29,4.077
212.87,4.066
213.45,4.056
214.03,4.045
214.62,4.036
215.21,4.030
215.81,4.021
216.41,4.013
217.01,4.004
217.61,3.998
218.22,3.992
218.83,3.983
219.45,3.979
220.06,3.970
220.69,3.964
221.31,3.960
221.94,3.953
222.57,3.949
223.21,3.951
223.85,3.960
224.49,3.970
225.14,3.979
225.79,3.990
226.44,3.990
227.10,4.007
227.76,4.028
228.43,4.051
229.10,4.077
229.77,4.107
230.45,4.136
231.13,4.170
231.82,4.209
232.51,4.236
233.20,4.272
233.90,4.313
234.60,4.351
235.31,4.385
236.02,4.419
236.74,4.453
237.46,4.487
238.18,4.517
238.91,4.541
239.64,4.568
240.38,4.592
241.12,4.611
241.87,4.623
242.62,4.632
243.38,4.632
244.14,4.621
244.90,4.600
245.67,4.560
246.45,4.489
247.23,4.424
248.01,4.341
248.80,4.230
249.60,4.117
250.40,3.996
251.20,3.868
252.01,3.787
252.83,3.719
253.65,3.636
254.48,3.558
255.31,3.505
256.14,3.445
256.99,3.392
257.83,3.341
258.69,3.290
259.55,3.251
260.41,3.220
261.28,3.188
262.16,3.164
263.04,3.139
263.93,3.120
264.83,3.105
265.73,3.088
266.64,3.077
267.55,3.066
268.47,3.058
269.39,3.056
270.33,3.054
271.27,3.054
272.21,3.056
273.16,3.058
274.12,3.064
275.09,3.073
276.06,3.079
277.04,3.086
278.02,3.096
279.02,3.107
280.02,3.117
281.02,3.132
282.04,3.147
283.01,3.159
284.09,3.173
285.13,3.185
286.16,3.200
287.22,3.212
288.58,3.227
289.35,3.234
290.43,3.247
291.51,3.262
292.60,3.277
293.70,3.290
294.81,3.307
295.93,3.320
297.05,3.330
298.19,3.341
299.33,3.358
300.48,3.368
301.64,3.379
302.81,3.390
303.99,3.400
305.18,3.411
306.38,3.419
307.58,3.426
308.80,3.430
310.02,3.432
311.26,3.432
312.50,3.439
313.76,3.443
315.02,3.449
316.30,3.454
317.59,3.458
318.88,3.460
320.19,3.462
321.51,3.464
322.84,3.464
324.18,3.460
325.53,3.458
326.89,3.456
328.26,3.449
329.65,3.439
331.05,3.430
332.45,3.417
333.90,3.403
335.31,3.385
336.60,3.370
338.17,3.344
339.68,3.311
341.17,3.279
342.66,3.245
344.17,3.205
345.70,3.164
347.23,3.120
348.78,3.071
349.86,3.033
350.91,3.000
352.17,2.965
353.52,2.922
355.11,2.879
356.75,2.817
358.38,2.745
360.04,2.662
361.70,2.592
363.39,2.522
365.08,2.447
366.80,2.350
368.53,2.237
##END=
