##TITLE=2'-Methoxyacetophenone
##JCAMP-DX=4.24
##DATA TYPE=UV/VIS SPECTRUM
##ORIGIN=INSTITUTE OF ENERGY PROBLEMS OF CHEMICAL PHYSICS, RAS
##OWNER=INEP CP RAS, NIST OSRD
Collection (C) 2007 copyright by the U.S. Secretary of Commerce
on behalf of the United States of America. All rights reserved.
##CAS REGISTRY NO=579-74-8
##MOLFORM=C9H10O2
##SOURCE REFERENCE=RAS UV No. 6685
##$NIST SQUIB=1969GRA730-733
##$NIST SOURCE=TSGMTE
##SPECTROMETER/DATA SYSTEM=n.i.g.
##XUNITS=Wavelength (nm)
##YUNITS=Logarithm epsilon
##XFACTOR=1.000000
##YFACTOR=1.000000
##FIRSTX=365.9685
##LASTX=202.0296
##FIRSTY=1.3255
##MAXX=365.969
##MINX=202.03
##MAXY=4.1688
##MINY=1.3255
##NPOINTS=223
##$REF AUTHOR=Grammaticakis, P.
##$REF TITLE=Remarques sur la preparation et l'absorption dans l'ultraviolet moyen de quelques acetophenones ortho-hydroxylees et de leurs derives fonctionnels
##$REF JOURNAL=C.R. Acad. Sci. Paris, Ser. C
##$REF VOLUME=268
##$REF PAGE=730-733
##$REF DATE=1969
##XYPOINTS=(XY..XY)
365.9685,1.325497
365.0579,1.379075
364.3083,1.421541
363.6781,1.455953
363.1264,1.485365
362.6129,1.512834
362.0979,1.541419
361.9740,1.501589
361.6660,1.501593
361.5421,1.574175
361.5421,1.574175
361.3585,1.501597
361.0515,1.501603
360.9515,1.595929
360.2287,1.633036
359.4980,1.659797
359.4980,1.659797
358.6088,1.708238
357.5264,1.755555
356.4904,1.802310
355.7354,1.849059
355.7354,1.849059
355.1992,1.864652
354.2653,1.900601
353.1043,1.950585
351.8838,2.008282
350.7670,2.067372
350.7670,2.067372
350.2919,2.083670
349.5223,2.113524
348.5310,2.153782
347.3901,2.201289
346.1706,2.252893
344.9418,2.305441
343.7707,2.355779
342.7232,2.400754
341.8631,2.437212
341.2537,2.462001
340.9603,2.492490
340.9603,2.492490
340.9597,2.485834
340.9590,2.478956
340.9583,2.471967
340.9583,2.471967
340.6874,2.495998
340.4148,2.499506
340.1427,2.503014
340.1427,2.503014
338.7629,2.563029
337.4455,2.620258
336.2065,2.673900
335.0610,2.723154
334.0240,2.767216
333.1103,2.805284
332.3345,2.836557
331.7114,2.860232
331.2557,2.875507
330.9826,2.881579
330.9826,2.881579
330.3570,2.917962
329.5241,2.954186
328.5235,2.990237
327.3947,3.026101
326.1761,3.061763
324.9056,3.097210
323.6199,3.132428
322.3545,3.167401
321.1440,3.202116
320.0217,3.236559
319.0205,3.270716
319.0205,3.270716
317.4914,3.306283
315.9769,3.341850
314.4768,3.377417
314.4768,3.377417
312.8551,3.392390
310.9108,3.413932
307.8757,3.444617
307.8757,3.444617
305.7862,3.446816
303.7755,3.442450
301.8443,3.432401
299.9934,3.417551
298.2237,3.398784
296.5359,3.376980
294.9309,3.353022
293.4095,3.327792
291.9725,3.302173
290.6207,3.277046
289.3553,3.253294
289.3553,3.253294
287.9438,3.219398
286.3700,3.182033
284.9973,3.142036
284.1760,3.100244
284.1760,3.100244
283.9861,3.100248
283.7965,3.100253
283.6071,3.100257
283.6071,3.100257
281.8162,3.045217
280.4408,3.000555
279.3865,2.964645
278.5644,2.935862
277.8886,2.912583
277.2759,2.893180
277.2759,2.893180
276.3989,2.860715
275.4896,2.827230
274.5660,2.792924
273.6457,2.757996
272.7455,2.722646
271.8820,2.687072
271.0715,2.651474
270.3297,2.616049
270.3297,2.616049
268.5117,2.623706
267.7584,2.643959
267.2528,2.672933
266.1988,2.706755
266.1988,2.706755
265.2535,2.775263
264.7207,2.812836
264.3620,2.846957
264.3620,2.846957
264.0287,2.867433
263.7534,2.890243
263.4990,2.904043
263.4990,2.904043
262.9362,2.964367
262.4827,3.011789
262.1130,3.049883
261.8021,3.082221
261.5252,3.112376
261.2578,3.143920
260.9757,3.180428
260.6548,3.225471
260.6548,3.225471
259.8125,3.257350
259.3553,3.301277
258.9039,3.346238
258.0857,3.381213
258.0857,3.381213
257.6087,3.413954
257.1092,3.447759
256.5795,3.482250
256.0121,3.517049
255.3997,3.551780
254.7350,3.586065
254.0111,3.619526
253.2213,3.651787
252.3592,3.682469
251.4185,3.711196
250.3936,3.737590
249.2792,3.761273
248.0702,3.781869
246.7622,3.799000
246.7622,3.799000
246.2048,3.800000
245.6409,3.800889
245.0751,3.801555
245.0751,3.801555
243.8486,3.779272
242.0419,3.752559
240.7290,3.739624
240.7290,3.739624
239.6221,3.705411
238.5254,3.671058
237.4386,3.636610
236.3617,3.602116
236.3617,3.602116
235.7690,3.577050
235.1456,3.549222
234.4847,3.519720
233.7792,3.489628
233.0228,3.460032
232.2089,3.432018
231.3316,3.406671
230.3850,3.385076
229.3637,3.368321
228.2626,3.357488
227.0772,3.353666
227.0772,3.353666
226.3157,3.378703
225.5784,3.408966
224.2409,3.470398
224.2409,3.470398
223.9475,3.494079
223.6371,3.520008
223.3091,3.547937
222.9631,3.577620
222.5987,3.608810
222.2153,3.641259
221.8125,3.674722
221.3899,3.708950
220.9472,3.743697
220.4839,3.778716
219.9998,3.813760
219.4944,3.848581
218.9675,3.882934
218.4187,3.916571
217.8479,3.949245
217.2547,3.980708
216.6390,4.010715
216.0005,4.039018
215.3392,4.065371
214.6548,4.089525
213.9473,4.111235
213.2166,4.130252
212.4625,4.146332
211.6852,4.159225
210.8845,4.168686
210.8845,4.168686
209.9612,4.168725
209.0426,4.168764
208.1256,4.168803
208.1256,4.168803
206.9570,4.152820
205.9097,4.135901
204.9373,4.117449
203.9949,4.096869
203.0395,4.073564
202.0296,4.046940
##END=
