##TITLE=Caffeine
##JCAMP-DX=4.24
##DATA TYPE=UV/VIS SPECTRUM
##ORIGIN=INSTITUTE OF ENERGY PROBLEMS OF CHEMICAL PHYSICS, RAS
##OWNER=INEP CP RAS, NIST OSRD
Collection (C) 2007 copyright by the U.S. Secretary of Commerce
on behalf of the United States of America. All rights reserved.
##CAS REGISTRY NO=58-08-2
##MOLFORM=C8H10N4O2
##MP=238
##BP=sub 90
##SOURCE REFERENCE=RAS UV No. 462
##$NIST SQUIB=1947FLO/HER90-91
##$NIST SOURCE=TSGMTE
##SPECTROMETER/DATA SYSTEM=n.i.g.
##XUNITS=Wavelength (nm)
##YUNITS=Logarithm epsilon
##XFACTOR=1.000000
##YFACTOR=1.000000
##FIRSTX=219.7779
##LASTX=295.5418
##FIRSTY=3.89584
##MAXX=295.542
##MINX=219.778
##MAXY=4.26335
##MINY=2.65793
##NPOINTS=428
##$REF AUTHOR=Florentin, D.; Heros, M.
##$REF TITLE=Spectre d'absorption et de fluorescence des derives de la theobromine, en particulier, de la benzyltheobromine
##$REF JOURNAL=Bull. Soc. Chim. Fr.
##$REF VOLUME=14
##$REF PAGE=90-91
##$REF DATE=1947
##XYPOINTS=(XY..XY)
219.7779,3.895839
220.0433,3.922294
220.2532,3.942352
220.4787,3.962316
220.7910,3.988491
221.2615,4.027182
221.2615,4.027182
221.3642,4.033363
221.4759,4.039639
221.5920,4.046098
221.5920,4.046098
221.6090,4.051541
221.6303,4.057168
221.6606,4.062889
221.6606,4.062889
221.7664,4.065087
221.8810,4.067470
222.0000,4.069946
222.0000,4.069946
222.0182,4.073754
222.0408,4.077745
222.0723,4.081830
222.0723,4.081830
222.1512,4.084717
222.2301,4.087604
222.3091,4.090491
222.5638,4.102431
222.5638,4.102431
222.5739,4.092874
222.5978,4.088958
222.6561,4.087324
222.6739,4.109827
222.7750,4.117220
222.8716,4.124612
222.8716,4.124612
223.0108,4.128215
223.1502,4.131635
223.2896,4.134965
223.2896,4.134965
223.3220,4.137838
223.3454,4.140708
223.3643,4.143577
223.3643,4.143577
223.5762,4.149504
223.8521,4.160087
224.4287,4.184395
224.4287,4.184395
224.5474,4.187294
224.6616,4.190192
224.7668,4.193087
224.7668,4.193087
224.8239,4.197180
224.8765,4.201180
224.9202,4.204996
224.9202,4.204996
225.2986,4.218078
225.6428,4.228787
226.2477,4.246302
226.2477,4.246302
226.3707,4.251475
226.4995,4.255013
226.7444,4.259951
226.7444,4.259951
226.8846,4.261205
227.0204,4.262367
227.1473,4.263345
227.1473,4.263345
227.2687,4.262685
227.3854,4.262205
227.4930,4.261813
227.4930,4.261813
227.6160,4.259002
227.7344,4.256281
227.8437,4.253739
227.8437,4.253739
228.0687,4.234739
228.2591,4.219126
228.4668,4.202950
228.7438,4.182262
229.1419,4.153111
229.7131,4.111548
229.7131,4.111548
229.7951,4.110346
229.8770,4.109144
229.9590,4.107941
229.9590,4.107941
230.0794,4.108675
230.1953,4.109225
230.3024,4.109681
230.3024,4.109681
230.7632,4.127046
230.9517,4.135057
231.0295,4.140580
231.0295,4.140580
231.1485,4.143055
231.2631,4.145438
231.3688,4.147636
231.3688,4.147636
231.5533,4.157009
231.8306,4.168865
232.0149,4.178510
232.0149,4.178510
232.4942,4.192244
232.7921,4.201561
233.1640,4.214445
233.1640,4.214445
233.3585,4.219367
233.6712,4.228960
234.2356,4.245447
234.2356,4.245447
234.3556,4.246696
234.4711,4.247852
234.5777,4.248823
234.5777,4.248823
234.9403,4.248872
235.1140,4.248501
235.2478,4.247390
235.2478,4.247390
235.4771,4.238884
235.7063,4.230470
235.9355,4.222237
235.9355,4.222237
235.9774,4.219387
236.0148,4.216535
236.0432,4.213680
236.0432,4.213680
236.1873,4.209648
236.3269,4.205706
236.4574,4.201943
236.4574,4.201943
236.8212,4.186176
237.2582,4.168977
237.8585,4.144283
237.8585,4.144283
237.9441,4.138173
238.0297,4.132064
238.1154,4.125954
238.1154,4.125954
238.3747,4.119488
238.5524,4.113815
238.8006,4.104073
238.8006,4.104073
238.9233,4.101671
239.0414,4.099358
239.1503,4.097225
239.1503,4.097225
239.5502,4.096649
239.9409,4.096252
240.3271,4.095945
240.3271,4.095945
240.8061,4.105089
241.2805,4.114232
241.7460,4.123371
241.7460,4.123371
241.9210,4.125348
242.0871,4.127141
242.2488,4.128841
242.2488,4.128841
242.4898,4.128793
242.6638,4.127997
242.9200,4.125772
242.9200,4.125772
243.3300,4.111595
243.7309,4.097505
244.1272,4.083597
244.1272,4.083597
244.1635,4.081169
244.1908,4.078829
244.2134,4.076669
244.2134,4.076669
244.3361,4.074267
244.4542,4.071955
244.5631,4.069821
244.5631,4.069821
244.9876,4.071510
245.2230,4.072960
245.4712,4.075414
245.4712,4.075414
245.8743,4.081596
246.2778,4.087323
246.7341,4.094612
246.7341,4.094612
246.9365,4.093976
247.1344,4.093521
247.3231,4.093154
247.3231,4.093154
247.3911,4.090463
247.4766,4.088686
247.6525,4.086300
247.6525,4.086300
247.7931,4.082040
247.9074,4.076772
248.0934,4.065981
248.0934,4.065981
248.2707,4.064823
248.4389,4.063753
248.6025,4.062863
248.6025,4.062863
248.8294,4.057629
249.0562,4.052486
249.2829,4.047525
249.2829,4.047525
249.5201,4.047597
249.7483,4.047666
249.9720,4.047734
249.9720,4.047734
250.1453,4.051877
250.3097,4.056017
250.4695,4.060156
250.4695,4.060156
250.6299,4.062538
250.7905,4.064737
250.9511,4.066846
250.9511,4.066846
251.1392,4.075448
251.2672,4.079941
251.4450,4.084176
251.4450,4.084176
251.5860,4.085430
251.7270,4.086594
251.8682,4.087576
251.8682,4.087576
252.5979,4.087797
253.3275,4.088018
254.0571,4.088239
254.0571,4.088239
254.1999,4.087070
254.3426,4.085992
254.4852,4.085096
254.4852,4.085096
254.6646,4.081060
254.8351,4.077021
255.0010,4.072981
255.0010,4.072981
255.0027,4.070648
255.0043,4.068497
255.0059,4.066437
255.0059,4.066437
255.2327,4.061310
255.4593,4.056364
255.6859,4.051509
255.6859,4.051509
256.1822,4.034373
256.4512,4.026077
256.7233,4.019508
256.7233,4.019508
256.9458,4.020273
257.1683,4.020855
257.3910,4.021347
257.3910,4.021347
257.5302,4.024949
257.6696,4.028370
257.8090,4.031699
257.8090,4.031699
257.9445,4.040315
258.0801,4.048840
258.2158,4.057183
258.2158,4.057183
258.3296,4.059657
258.4344,4.062037
258.5349,4.064233
258.5349,4.064233
258.6000,4.070525
258.7061,4.076284
258.9441,4.086446
258.9441,4.086446
259.2756,4.088970
259.6211,4.090771
260.2769,4.093394
260.2769,4.093394
260.5194,4.096421
261.0002,4.100066
262.1315,4.107453
262.1315,4.107453
262.3285,4.112058
262.6732,4.118071
263.0308,4.124905
263.0308,4.124905
263.9874,4.138981
264.9351,4.152873
265.8784,4.166672
265.8784,4.166672
266.0996,4.169072
266.3209,4.171290
266.5423,4.173417
266.5423,4.173417
266.7449,4.177660
267.0464,4.182205
267.7051,4.190949
267.7051,4.190949
267.8254,4.191683
267.9414,4.192233
268.0484,4.192689
268.0484,4.192689
268.3029,4.196842
268.5484,4.200900
268.7895,4.204776
268.7895,4.204776
269.3448,4.210277
269.7563,4.215279
270.3767,4.224072
270.3767,4.224072
270.5180,4.224812
270.6595,4.225370
270.8011,4.225837
270.8011,4.225837
271.1626,4.230446
271.5240,4.235055
271.8855,4.239663
271.8855,4.239663
272.1877,4.242194
272.4900,4.244634
272.7924,4.246892
272.7924,4.246892
273.2180,4.247021
273.6436,4.247149
274.0692,4.247278
274.0692,4.247278
274.5954,4.234303
275.4822,4.215164
277.4893,4.173458
277.4893,4.173458
277.6960,4.167097
277.8981,4.160917
278.0911,4.154825
278.0911,4.154825
278.2692,4.152545
278.4382,4.150445
278.6026,4.148435
278.6026,4.148435
278.6648,4.145590
278.7225,4.142744
278.7712,4.139896
278.7712,4.139896
279.3175,4.131183
279.7906,4.123994
280.2278,4.116612
280.2278,4.116612
280.2897,4.114192
280.3470,4.111861
280.3951,4.109709
280.3951,4.109709
280.5379,4.108540
280.6806,4.107462
280.8232,4.106566
280.8232,4.106566
281.1479,4.098923
281.8783,4.085040
283.6403,4.053016
283.6403,4.053016
283.8929,4.045457
284.1126,4.039797
284.4877,4.031185
284.4877,4.031185
284.6355,4.023169
284.7833,4.015336
284.9309,4.007594
284.9309,4.007594
285.1721,3.983140
285.4132,3.958776
285.6542,3.934594
285.6542,3.934594
286.1811,3.896055
286.6682,3.862450
287.0710,3.834878
287.3450,3.814438
287.3450,3.814438
287.4676,3.812142
287.5856,3.810027
287.6944,3.807999
287.6944,3.807999
287.7320,3.803936
287.7605,3.799960
287.7843,3.796164
287.7843,3.796164
288.5323,3.757607
288.8501,3.740100
289.0103,3.728634
289.0103,3.728634
289.4102,3.705879
290.0106,3.667823
290.4112,3.643977
290.4112,3.643977
290.6104,3.616741
290.8039,3.589540
290.9936,3.562415
291.1812,3.535405
291.1812,3.535405
291.4084,3.482074
291.5271,3.451911
291.5761,3.433768
291.5940,3.416498
291.5940,3.416498
291.6322,3.409815
291.6845,3.399095
291.7495,3.384737
291.8258,3.367143
291.9119,3.346712
292.0066,3.323845
292.1084,3.298942
292.2158,3.272402
292.3277,3.244627
292.4424,3.216017
292.5587,3.186972
292.6751,3.157891
292.7903,3.129176
292.9029,3.101227
293.0114,3.074443
293.1145,3.049225
293.2108,3.025974
293.2989,3.005089
293.3773,2.986971
293.4448,2.972020
293.4448,2.972020
293.5917,2.948288
293.7383,2.924557
293.8844,2.900826
294.0298,2.877094
294.1743,2.853362
294.3176,2.829630
294.4594,2.805897
294.5996,2.782164
294.5996,2.782164
294.7903,2.757272
294.9805,2.732391
295.1695,2.707533
295.3568,2.682708
295.5418,2.657928
##END=
