##TITLE=[1,1'-Biphenyl]-3-ol
##JCAMP-DX=4.24
##DATA TYPE=UV/VIS SPECTRUM
##ORIGIN=INSTITUTE OF ENERGY PROBLEMS OF CHEMICAL PHYSICS, RAS
##OWNER=INEP CP RAS, NIST OSRD
Collection (C) 2007 copyright by the U.S. Secretary of Commerce
on behalf of the United States of America. All rights reserved.
##CAS REGISTRY NO=580-51-8
##MOLFORM=C12H10O
##MP=78
##BP=> 300
##SOURCE REFERENCE=RAS UV No. 325
##$NIST SQUIB=1973GOL/KOP2377-2380
##$NIST SOURCE=TSGMTE
##SPECTROMETER/DATA SYSTEM=Spectrophotometer SF-16
##XUNITS=Wavelength (nm)
##YUNITS=Logarithm epsilon
##XFACTOR=1.000000
##YFACTOR=1.000000
##FIRSTX=210.0000
##LASTX=299.0000
##FIRSTY=4.42
##MAXX=299
##MINX=210
##MAXY=4.42
##MINY=3.19
##NPOINTS=90
##$REF AUTHOR=Golounin, A.V.; Koptyug, V.A.
##$REF TITLE=Reaction of phenols with Lewis acids. IX. Reactions of resorcinol and phloroglucinol with benzene in the presence of aluminum bromide
##$REF JOURNAL=Zh. Org. Khim.
##$REF VOLUME=9
##$REF PAGE=2377-2380
##$REF DATE=1973
##XYPOINTS=(XY..XY)
210.0000,4.420005
211.0000,4.400000
212.0000,4.380000
213.0000,4.360000
214.0000,4.350000
215.0000,4.330000
216.0000,4.320000
217.0000,4.300000
218.0000,4.290000
219.0000,4.270000
220.0000,4.250005
221.0000,4.240000
222.0000,4.220000
223.0000,4.210000
224.0000,4.180000
225.0000,4.160000
226.0000,4.130000
227.0000,4.110000
228.0000,4.080000
229.0000,4.070000
230.0000,4.060018
231.0000,4.050000
232.0000,4.030000
233.0000,4.020000
234.0000,4.010000
235.0000,4.010000
236.0000,4.010000
237.0000,4.010000
238.0000,4.020000
239.0000,4.030000
240.0000,4.040009
241.0000,4.060000
242.0000,4.070000
243.0000,4.090000
244.0000,4.100000
245.0000,4.110000
246.0000,4.130000
247.0000,4.130000
248.0000,4.130000
249.0000,4.130000
250.0000,4.130012
251.0000,4.120000
252.0000,4.120000
253.0000,4.110000
254.0000,4.090000
255.0000,4.070000
256.0000,4.050000
257.0000,4.030000
258.0000,4.020000
259.0000,3.980000
260.0000,3.979999
261.0000,3.940000
262.0000,3.890000
263.0000,3.850000
264.0000,3.810000
265.0000,3.770000
266.0000,3.740000
267.0000,3.710000
268.0000,3.690000
269.0000,3.660000
270.0000,3.660002
271.0000,3.650000
272.0000,3.630000
273.0000,3.620000
274.0000,3.620000
275.0000,3.610000
276.0000,3.610000
277.0000,3.600000
278.0000,3.600000
279.0000,3.600000
280.0000,3.590005
281.0000,3.590000
282.0000,3.580000
283.0000,3.570000
284.0000,3.560000
285.0000,3.550000
286.0000,3.540000
287.0000,3.530000
288.0000,3.520000
289.0000,3.500000
290.0000,3.480007
291.0000,3.460000
292.0000,3.450000
293.0000,3.430000
294.0000,3.410000
295.0000,3.380000
296.0000,3.340000
297.0000,3.280000
298.0000,3.220000
299.0000,3.190000
##END=
