##TITLE=2-Bromonaphthalene
##JCAMP-DX=4.24
##DATA TYPE=UV/VIS SPECTRUM
##ORIGIN=INSTITUTE OF ENERGY PROBLEMS OF CHEMICAL PHYSICS, RAS
##OWNER=INEP CP RAS, NIST OSRD
Collection (C) 2007 copyright by the U.S. Secretary of Commerce
on behalf of the United States of America. All rights reserved.
##CAS REGISTRY NO=580-13-2
##MOLFORM=C10H7Br
##MP=59
##BP=281.5
##SOURCE REFERENCE=RAS UV No. 994
##$NIST SQUIB=1954MCC/BLA255-258
##$NIST SOURCE=TSGMTE
##SPECTROMETER/DATA SYSTEM=n.i.g.
##XUNITS=Wavelength (nm)
##YUNITS=Logarithm epsilon
##XFACTOR=1.000000
##YFACTOR=1.000000
##FIRSTX=370.0000
##LASTX=529.0000
##FIRSTY=4.1
##MAXX=529
##MINX=370
##MAXY=4.1
##MINY=2.97
##NPOINTS=160
##$REF AUTHOR=McClure, D.S.; Blake, N.W.; Hanst, P.L.
##$REF TITLE=Singlet-triplet absorption bands in some halogen substituted aromatic compounds
##$REF JOURNAL=J. Chem. Phys.
##$REF VOLUME=22
##$REF NUMBER=2
##$REF PAGE=255-258
##$REF DATE=1954
##XYPOINTS=(XY..XY)
370.0000,4.100000
371.0000,4.080000
372.0000,4.070000
373.0000,4.050000
374.0000,4.030000
375.0000,4.030000
376.0000,4.020000
377.0000,4.000000
378.0000,3.980000
379.0000,3.970000
380.0000,3.950000
381.0000,3.940000
382.0000,3.930000
383.0000,3.920000
384.0000,3.900000
385.0000,3.890000
386.0000,3.880000
387.0000,3.870000
388.0000,3.860000
389.0000,3.850000
390.0000,3.840000
391.0000,3.820000
392.0000,3.820000
393.0000,3.810000
394.0000,3.810000
395.0000,3.790000
396.0000,3.780000
397.0000,3.770000
398.0000,3.770000
399.0000,3.750000
400.0000,3.750000
401.0000,3.740000
402.0000,3.740000
403.0000,3.740000
404.0000,3.730000
405.0000,3.730000
406.0000,3.730000
407.0000,3.730000
408.0000,3.720000
409.0000,3.720000
410.0000,3.730000
411.0000,3.730000
412.0000,3.740000
413.0000,3.730000
414.0000,3.720000
415.0000,3.720000
416.0000,3.710000
417.0000,3.690000
418.0000,3.690000
419.0000,3.680000
420.0000,3.670000
421.0000,3.670000
422.0000,3.660000
423.0000,3.660000
424.0000,3.650000
425.0000,3.650000
426.0000,3.660000
427.0000,3.640000
428.0000,3.640000
429.0000,3.630000
430.0000,3.640000
431.0000,3.620000
432.0000,3.630000
433.0000,3.620000
434.0000,3.630000
435.0000,3.620000
436.0000,3.620000
437.0000,3.600000
438.0000,3.600000
439.0000,3.600000
440.0000,3.600000
441.0000,3.590000
442.0000,3.590000
443.0000,3.570000
444.0000,3.580000
445.0000,3.560000
446.0000,3.560000
447.0000,3.540000
448.0000,3.530000
449.0000,3.520000
450.0000,3.520000
451.0000,3.500000
452.0000,3.490000
453.0000,3.480000
454.0000,3.480000
455.0000,3.470000
456.0000,3.480000
457.0000,3.470000
458.0000,3.470000
459.0000,3.460000
460.0000,3.450000
461.0000,3.450000
462.0000,3.440000
463.0000,3.440000
464.0000,3.430000
465.0000,3.440000
466.0000,3.430000
467.0000,3.410000
468.0000,3.420000
469.0000,3.410000
470.0000,3.420000
471.0000,3.400000
472.0000,3.400000
473.0000,3.390000
474.0000,3.390000
475.0000,3.390000
476.0000,3.360000
477.0000,3.340000
478.0000,3.320000
479.0000,3.320000
480.0000,3.310000
481.0000,3.280000
482.0000,3.280000
483.0000,3.280000
484.0000,3.250000
485.0000,3.260000
486.0000,3.260000
487.0000,3.220000
488.0000,3.230000
489.0000,3.220000
490.0000,3.220000
491.0000,3.210000
492.0000,3.210000
493.0000,3.230000
494.0000,3.200000
495.0000,3.210000
496.0000,3.200000
497.0000,3.170000
498.0000,3.160000
499.0000,3.180000
500.0000,3.160000
501.0000,3.170000
502.0000,3.150000
503.0000,3.120000
504.0000,3.130000
505.0000,3.140000
506.0000,3.140000
507.0000,3.120000
508.0000,3.100000
509.0000,3.110000
510.0000,3.110000
511.0000,3.110000
512.0000,3.080000
513.0000,3.070000
514.0000,3.080000
515.0000,3.090000
516.0000,3.100000
517.0000,3.080000
518.0000,3.000000
519.0000,3.020000
520.0000,3.030000
521.0000,3.030000
522.0000,3.010000
523.0000,3.000000
524.0000,3.010000
525.0000,3.020000
526.0000,2.980000
527.0000,2.990000
528.0000,2.970000
529.0000,2.980000
##END=
