##TITLE=2,6-naphthalenediol
##JCAMP-DX=4.24
##DATA TYPE=UV/VIS SPECTRUM
##ORIGIN=INSTITUTE OF ENERGY PROBLEMS OF CHEMICAL PHYSICS, RAS
##OWNER=INEP CP RAS, NIST OSRD
Collection (C) 2007 copyright by the U.S. Secretary of Commerce
on behalf of the United States of America. All rights reserved.
##CAS REGISTRY NO=581-43-1
##MOLFORM=C10H8O2
##MP=218
##SOURCE REFERENCE=RAS UV No. 22648
##$NIST SQUIB=1977DUD/2185
##$NIST SOURCE=TYUGLMTE
##SPECTROMETER/DATA SYSTEM=SF-16
##XUNITS=Wavelength (nm)
##YUNITS=Logarithm epsilon
##XFACTOR=1.0
##YFACTOR=1.0
##FIRSTX=204.904
##LASTX=351.319
##FIRSTY=4.256
##MAXX=351.319
##MINX=204.904
##MAXY=4.864
##MINY=2.81
##NPOINTS=86
##$REF AUTHOR=Dudenas, G.; et al.
##$REF JOURNAL=Zhur. Organ. Khim.
##$REF VOLUME=13
##$REF PAGE=2185
##$REF DATE=1977
##XYPOINTS=(XY..XY)
204.904,4.256
206.904,4.260
208.904,4.278
210.904,4.295
212.904,4.310
214.904,4.328
216.904,4.359
218.904,4.410
220.388,4.469
221.982,4.522
222.893,4.575
224.259,4.622
225.625,4.676
227.138,4.742
229.138,4.791
231.138,4.837
233.138,4.864
235.138,4.849
236.526,4.812
237.138,4.773
237.910,4.713
239.138,4.638
239.988,4.561
241.100,4.493
242.100,4.424
243.100,4.358
244.100,4.294
245.100,4.231
246.100,4.168
247.100,4.103
248.100,4.037
249.100,3.968
250.100,3.897
251.100,3.825
252.329,3.735
253.375,3.664
254.329,3.608
255.221,3.553
256.329,3.500
258.187,3.459
260.329,3.447
262.381,3.460
264.700,3.478
266.762,3.502
268.762,3.520
270.762,3.539
272.762,3.558
274.762,3.577
276.762,3.595
278.762,3.611
280.762,3.623
282.762,3.633
284.762,3.638
286.762,3.640
288.762,3.637
290.762,3.630
292.762,3.619
294.762,3.605
296.762,3.588
298.762,3.569
301.237,3.544
303.237,3.525
305.237,3.505
307.237,3.486
309.237,3.470
311.237,3.459
313.154,3.451
315.154,3.446
317.154,3.435
319.154,3.420
321.154,3.397
323.154,3.368
325.154,3.332
327.154,3.289
329.154,3.240
331.154,3.185
333.154,3.127
335.319,3.063
337.319,3.004
339.319,2.946
341.319,2.898
343.319,2.862
345.319,2.839
347.319,2.826
349.319,2.817
351.319,2.810
##END=
