##TITLE=(4-methylphenyl)(5-phenyl-3-isoxazolyl)methanone
##JCAMP-DX=4.24
##DATA TYPE=UV/VIS SPECTRUM
##ORIGIN=INSTITUTE OF ENERGY PROBLEMS OF CHEMICAL PHYSICS, RAS
##OWNER=INEP CP RAS, NIST OSRD
Collection (C) 2007 copyright by the U.S. Secretary of Commerce
on behalf of the United States of America. All rights reserved.
##CAS REGISTRY NO=58144-64-2
##MOLFORM=C17H13NO2
##MP=115-117
##SOURCE REFERENCE=RAS UV No. 23305
##$NIST SQUIB=1975SHE/2609
##$NIST SOURCE=TYUGLMTE
##SPECTROMETER/DATA SYSTEM=SF-4
##XUNITS=Wavelength (nm)
##YUNITS=Logarithm epsilon
##XFACTOR=1.0
##YFACTOR=1.0
##FIRSTX=217.275
##LASTX=325.201
##FIRSTY=4.433
##MAXX=325.201
##MINX=217.275
##MAXY=4.668
##MINY=3.544
##NPOINTS=110
##$REF AUTHOR=Shevchuk, M.I.; et al.
##$REF JOURNAL=Zhur. Obshchei Khim.
##$REF VOLUME=45
##$REF PAGE=2609
##$REF DATE=1975
##XYPOINTS=(XY..XY)
217.275,4.433
218.275,4.415
219.275,4.400
220.275,4.388
221.275,4.378
222.275,4.369
223.275,4.363
224.275,4.357
225.275,4.353
226.275,4.349
227.275,4.347
228.275,4.345
229.275,4.345
230.275,4.345
231.275,4.346
232.275,4.349
233.275,4.353
234.275,4.359
235.275,4.366
236.275,4.375
237.275,4.385
238.275,4.398
239.275,4.413
240.275,4.429
241.275,4.447
242.275,4.467
243.275,4.487
243.473,4.491
244.473,4.514
245.473,4.537
246.473,4.560
247.473,4.582
248.473,4.602
249.473,4.619
250.473,4.634
251.473,4.647
252.473,4.656
253.473,4.663
254.473,4.667
255.473,4.668
256.473,4.667
257.473,4.663
258.473,4.658
259.473,4.650
260.473,4.641
261.473,4.631
262.473,4.619
263.473,4.605
264.473,4.589
265.248,4.575
266.248,4.555
267.248,4.533
268.248,4.503
269.248,4.466
270.248,4.425
271.248,4.387
272.248,4.356
273.310,4.331
274.310,4.311
275.310,4.296
276.310,4.285
277.310,4.277
278.310,4.272
279.310,4.269
280.310,4.268
281.310,4.268
282.310,4.269
283.310,4.270
284.310,4.271
285.310,4.271
286.310,4.272
287.310,4.271
288.310,4.270
289.310,4.267
290.310,4.264
291.310,4.260
292.310,4.255
293.310,4.250
294.310,4.244
295.310,4.238
296.310,4.232
297.230,4.223
298.230,4.219
299.230,4.212
300.230,4.203
301.230,4.192
302.230,4.179
303.230,4.166
304.230,4.151
305.230,4.136
306.230,4.121
307.230,4.104
308.230,4.085
309.230,4.064
310.230,4.039
311.230,4.010
312.201,3.975
313.201,3.941
314.201,3.907
315.201,3.872
316.201,3.836
317.201,3.798
318.201,3.760
319.201,3.724
320.201,3.689
321.201,3.658
322.201,3.629
323.201,3.602
324.201,3.575
325.201,3.544
##END=
