##TITLE=2,6-Dimethylnaphthalene
##JCAMP-DX=4.24
##DATA TYPE=UV/VIS SPECTRUM
##ORIGIN=INSTITUTE OF ENERGY PROBLEMS OF CHEMICAL PHYSICS, RAS
##OWNER=INEP CP RAS, NIST OSRD
Collection (C) 2007 copyright by the U.S. Secretary of Commerce
on behalf of the United States of America. All rights reserved.
##CAS REGISTRY NO=581-42-0
##MOLFORM=C12H12
##MP=112
##BP=262
##SOURCE REFERENCE=RAS UV No. 328
##$NIST SQUIB=1961HUI/JUP7-17
##$NIST SOURCE=TSGMTE
##SPECTROMETER/DATA SYSTEM=n.i.g.
##XUNITS=Wavelength (nm)
##YUNITS=Logarithm epsilon
##XFACTOR=1.000000
##YFACTOR=1.000000
##FIRSTX=209.8092
##LASTX=328.1051
##FIRSTY=4.31827
##MAXX=328.105
##MINX=209.809
##MAXY=4.9787
##MINY=2.27955
##NPOINTS=711
##$REF AUTHOR=Huisgen, R.; Juppe, G.
##$REF TITLE=Die reaktion von 2.6-dimethylnaphthalin mit diazoessigester
##$REF JOURNAL=Tetrahedron
##$REF VOLUME=15
##$REF PAGE=7-17
##$REF DATE=1961
##XYPOINTS=(XY..XY)
209.8092,4.318267
209.9638,4.320917
209.9674,4.326628
210.1051,4.329283
210.8319,4.376484
210.8372,4.384883
210.9921,4.387869
211.1387,4.404635
211.1404,4.407323
211.4327,4.412627
211.4346,4.415651
211.5759,4.424017
211.5776,4.426705
211.7153,4.429359
211.7189,4.435070
211.8735,4.437720
211.8771,4.443432
212.0131,4.443399
212.0148,4.446086
212.1508,4.446053
212.1578,4.457140
212.8912,4.487874
212.8965,4.496274
213.0324,4.496240
213.3248,4.501544
213.3284,4.507256
213.4661,4.509910
213.4697,4.515622
213.6073,4.518276
213.6090,4.520964
213.7620,4.520926
213.7692,4.532350
213.9069,4.535004
214.4854,4.562752
214.4907,4.571151
214.6160,4.554318
214.6197,4.560030
214.6284,4.573805
214.6320,4.579517
214.7866,4.582167
214.7903,4.587879
214.9279,4.590533
214.9315,4.596245
215.0675,4.596211
215.0728,4.604611
215.2258,4.604573
215.2292,4.609948
215.9473,4.643374
215.9507,4.648750
216.8234,4.684826
216.8270,4.690538
216.9630,4.690504
216.9666,4.696216
217.1196,4.696178
217.1249,4.704578
217.2608,4.704544
217.2642,4.709920
217.4019,4.712574
217.4072,4.720973
217.6998,4.726614
217.7034,4.732325
217.8410,4.734980
217.8497,4.748755
217.9857,4.748721
217.9876,4.751745
218.2800,4.757049
218.2872,4.768473
218.7155,4.773743
218.8531,4.776398
218.8551,4.779421
219.4265,4.796082
219.4299,4.801458
219.5829,4.801420
219.5865,4.807131
219.7225,4.807098
219.7242,4.809786
219.8602,4.809752
219.8619,4.812440
220.0167,4.815426
220.0201,4.820802
220.2957,4.826446
220.2974,4.829134
220.4503,4.829096
220.4539,4.834808
220.5899,4.834774
220.5952,4.843174
221.4590,4.865139
221.4627,4.870850
221.5986,4.870817
221.6022,4.876528
221.7382,4.876495
221.7399,4.879183
221.8929,4.879145
221.8963,4.884520
222.0322,4.884487
222.0341,4.887511
222.1701,4.887477
222.1735,4.892853
222.3265,4.892815
222.3284,4.895839
222.4661,4.898493
222.4678,4.901181
224.4729,4.953779
224.7654,4.959419
224.7671,4.962107
225.4729,4.976046
225.6258,4.976008
225.6275,4.978696
225.8994,4.978629
226.0507,4.975903
226.1867,4.975869
226.3207,4.972812
226.4567,4.972778
227.5638,4.922436
227.5672,4.927812
227.6961,4.916691
227.6978,4.919378
227.8455,4.910941
227.8474,4.913965
227.9691,4.891421
227.9798,4.908220
228.0998,4.882987
228.1034,4.888699
228.5990,4.785414
228.6077,4.799190
228.7397,4.765890
228.7501,4.782353
228.8631,4.746033
228.8737,4.762832
229.2370,4.665293
229.3587,4.642748
229.3711,4.662235
229.4941,4.614824
229.5100,4.640023
229.9897,4.511539
230.0054,4.536402
230.1134,4.492019
230.1238,4.508482
230.4905,4.416318
230.4941,4.422030
230.6107,4.391422
230.6247,4.413597
230.7530,4.374585
230.7618,4.388360
231.1080,4.290825
231.1168,4.304600
231.2451,4.265589
231.2591,4.287764
231.3740,4.254468
231.3810,4.265555
231.6135,4.176113
231.7301,4.145505
231.7477,4.173391
231.8554,4.128672
231.8661,4.145471
232.1178,4.086603
232.1214,4.092315
232.3698,4.028071
232.3821,4.047558
232.4915,4.005527
232.5040,4.025350
232.7388,3.966486
232.7424,3.972198
232.9961,3.916353
233.0065,3.932816
233.1178,3.893809
233.1301,3.913296
233.2621,3.879996
233.2691,3.891083
233.3961,3.876939
233.7664,3.790486
233.7787,3.809973
233.8900,3.770966
233.9007,3.787765
234.0358,3.759505
234.0411,3.767904
234.6744,3.667274
234.6833,3.681385
234.8000,3.650777
234.8087,3.664552
234.9440,3.636628
234.9510,3.647715
235.0764,3.630883
235.0783,3.633907
235.7186,3.544363
235.7239,3.552763
235.8626,3.530214
235.8699,3.541638
235.9899,3.516406
235.9969,3.527493
236.1205,3.507973
236.1259,3.516372
236.2718,3.505247
236.5189,3.465870
236.6685,3.460456
236.6701,3.463144
236.6738,3.468856
237.0651,3.415666
237.0721,3.426753
237.1940,3.404545
237.1994,3.412945
237.3211,3.390400
237.3281,3.401488
237.4517,3.381967
237.4554,3.387679
237.6030,3.379241
238.5446,3.309114
238.5465,3.312138
238.6752,3.300681
238.6789,3.306392
238.8248,3.295267
238.8265,3.297955
238.9555,3.286834
238.9589,3.292210
239.0878,3.281089
239.0914,3.286800
239.2185,3.272656
239.2238,3.281055
239.3697,3.269930
239.3714,3.272618
239.5040,3.267209
239.5057,3.269896
239.6364,3.261463
239.6381,3.264151
241.1681,3.210680
241.3041,3.210646
241.7239,3.202478
241.8579,3.199420
241.8599,3.202444
242.0109,3.199382
242.4135,3.190882
242.5648,3.188156
242.5665,3.190844
242.6990,3.185435
242.8350,3.185401
242.9826,3.176964
242.9860,3.182340
246.3718,3.187216
246.3735,3.189903
247.2340,3.206492
247.2357,3.209180
247.3716,3.209147
247.3735,3.212171
247.9414,3.223119
247.9431,3.225807
248.3733,3.234102
250.2389,3.281021
250.2408,3.284045
250.3867,3.272920
250.3901,3.278296
250.8239,3.292302
250.8256,3.294990
251.1012,3.300634
251.1029,3.303322
251.5331,3.311617
251.5348,3.314304
251.6708,3.314271
251.6725,3.316959
251.8273,3.319945
251.8290,3.322633
251.9650,3.322599
251.9667,3.325287
252.3969,3.333581
252.3988,3.336605
254.5380,3.386146
254.6926,3.388796
254.6946,3.391819
254.8305,3.391786
254.8322,3.394474
255.1248,3.400114
255.1265,3.402802
255.2624,3.402768
255.2641,3.405456
255.8320,3.416405
255.8339,3.419429
255.9886,3.422079
255.9903,3.424767
256.4035,3.433065
258.5669,3.494025
258.5705,3.499737
258.8628,3.505041
258.8647,3.508065
259.2947,3.516023
259.2983,3.521735
259.4343,3.521701
260.0022,3.532650
260.1381,3.532616
261.7213,3.563140
261.7230,3.565828
261.8590,3.565795
261.8607,3.568482
261.9966,3.568449
262.1515,3.571435
262.1532,3.574123
262.2892,3.574089
262.2909,3.576777
262.4269,3.576743
262.4286,3.579431
262.5815,3.579393
262.5834,3.582417
262.7194,3.582384
262.7211,3.585071
262.8571,3.585038
262.8588,3.587726
263.0117,3.587688
263.5798,3.598973
263.7158,3.598939
263.7175,3.601627
263.8535,3.601593
263.8552,3.604281
264.0081,3.604243
264.0100,3.607267
264.1477,3.609921
264.2837,3.609888
264.4383,3.612538
264.5743,3.612504
264.5760,3.615192
264.7120,3.615159
264.7139,3.618182
264.8668,3.618145
264.8685,3.620832
265.0045,3.620799
265.1422,3.623453
265.9920,3.623243
265.9939,3.626267
266.1299,3.626233
266.2845,3.628883
266.6924,3.628783
266.6941,3.631470
266.8471,3.631433
266.8490,3.634456
267.2739,3.634351
267.2756,3.637039
267.5475,3.636972
267.7022,3.639622
268.1271,3.639517
271.2274,3.649840
271.3822,3.652826
271.6542,3.652759
271.8088,3.655409
272.0808,3.655342
272.0825,3.658030
272.2184,3.657996
272.3733,3.660982
272.5093,3.660948
272.5110,3.663636
272.6469,3.663603
272.6486,3.666291
272.9376,3.666219
273.0755,3.669209
273.6363,3.669071
274.7714,3.663078
274.7750,3.668789
276.3074,3.645896
276.5947,3.643137
276.5964,3.645825
276.7289,3.640416
276.7306,3.643104
276.8800,3.637354
276.8819,3.640378
277.0143,3.634633
277.0160,3.637321
277.1485,3.631911
277.1502,3.634599
277.2826,3.628854
277.2845,3.631878
277.4338,3.626128
277.4355,3.628816
277.5681,3.623407
277.5698,3.626095
277.7022,3.620349
277.7041,3.623373
277.8534,3.617624
277.8551,3.620311
277.9894,3.617590
278.1237,3.614869
280.4901,3.566903
280.6431,3.566865
280.9114,3.561086
281.0627,3.558361
281.0644,3.561049
281.3327,3.555270
281.3346,3.558294
281.4840,3.552544
281.4857,3.555232
281.6199,3.552510
281.7542,3.549789
281.9053,3.546727
281.9072,3.549751
282.1755,3.543972
282.1772,3.546660
282.3115,3.543939
282.4627,3.541213
284.8502,3.526510
284.9862,3.526476
285.1375,3.523750
285.2717,3.521029
285.2734,3.523717
285.4058,3.517972
285.4077,3.520995
285.5401,3.515250
285.5418,3.517938
285.6913,3.512524
285.6930,3.515212
285.8254,3.509467
285.8273,3.512491
285.9579,3.504058
285.9596,3.506746
286.1092,3.501332
286.1109,3.504020
286.2416,3.495587
286.2433,3.498275
286.3758,3.492865
287.8970,3.425283
287.9006,3.430994
288.0295,3.419873
288.0312,3.422561
288.1619,3.414128
288.1636,3.416816
288.3112,3.408379
288.3132,3.411403
288.4438,3.402969
288.4455,3.405657
288.5745,3.394536
288.5781,3.400248
288.7238,3.388787
288.7274,3.394498
290.3765,3.340998
290.5107,3.338276
290.6637,3.338238
290.7977,3.335181
291.0867,3.335110
291.2209,3.332388
291.3552,3.329667
291.3569,3.332355
291.6424,3.326907
291.6441,3.329595
291.7784,3.326874
292.3287,3.309936
292.3321,3.315312
292.4780,3.304187
292.4816,3.309898
292.6123,3.301465
292.9966,3.237188
293.1202,3.217667
293.1306,3.234130
293.1549,3.030488
293.1691,3.052999
293.2379,2.946795
293.2415,2.952507
293.2573,3.192431
293.2732,3.217630
293.3068,3.055653
293.3261,3.086227
293.3669,2.935674
293.3722,2.944074
293.3826,3.175598
293.3915,3.189710
293.4640,3.089218
293.5128,2.924549
293.5179,2.932613
293.6435,2.916116
293.6488,2.924516
293.7741,2.907683
293.7775,2.913059
293.9065,2.901938
293.9082,2.904626
294.0559,2.896188
294.0578,2.899212
294.1884,2.890779
294.1901,2.893467
295.8581,2.842986
295.9940,2.842952
296.2793,2.837169
296.5496,2.834414
296.5513,2.837102
296.7025,2.834376
296.8366,2.831319
296.9709,2.828597
296.9726,2.831285
297.1051,2.825876
297.1068,2.828564
297.2562,2.822814
297.2581,2.825838
297.3905,2.820093
297.3922,2.822780
297.5230,2.814683
297.5264,2.820059
297.6688,2.803222
297.6741,2.811622
297.8030,2.800501
297.8047,2.803189
297.9373,2.797779
298.4586,2.708266
298.4746,2.733464
298.5787,2.683033
298.5929,2.705544
298.9507,2.599269
298.9613,2.616068
299.0726,2.577061
299.0866,2.599236
299.2067,2.574003
299.7669,2.545974
299.7688,2.548998
299.9065,2.551652
301.0193,2.537264
301.4442,2.537159
301.7367,2.542799
301.7384,2.545487
301.8744,2.545453
301.8814,2.556541
302.0174,2.556507
302.0210,2.562219
302.1756,2.564869
302.1776,2.567893
303.5986,2.584007
303.8689,2.581252
303.8706,2.583940
304.1578,2.581181
304.2921,2.578459
304.4433,2.575734
304.4450,2.578421
304.5793,2.575700
304.8610,2.564205
304.8646,2.569917
304.9936,2.558796
304.9953,2.561484
305.1242,2.550363
305.1276,2.555739
306.6702,2.522090
306.8062,2.522056
306.9439,2.524711
306.9475,2.530422
307.1004,2.530385
307.1057,2.538784
307.2434,2.541438
307.2451,2.544126
307.3830,2.547116
307.3917,2.560892
307.5277,2.560858
307.5313,2.566570
307.8378,2.594385
307.8432,2.602784
308.1514,2.633287
308.1550,2.638999
308.2857,2.630566
308.2927,2.641653
308.3014,2.655428
308.4374,2.655395
308.4516,2.677905
308.6222,2.705754
308.7565,2.703033
308.7599,2.708408
308.7775,2.736295
308.9154,2.739285
308.9258,2.755748
309.0637,2.758738
309.0777,2.780913
309.2749,2.850759
309.2855,2.867558
309.4215,2.867525
309.4321,2.884324
309.5697,2.886978
309.5731,2.892354
310.9821,2.889317
311.1317,2.883904
311.1334,2.886592
311.2534,2.861359
311.2657,2.880846
311.3824,2.850238
311.3877,2.858638
311.5336,2.847513
311.9054,2.763412
311.9179,2.783235
312.0344,2.752292
312.0397,2.760691
312.1616,2.738483
312.1686,2.749570
312.3127,2.735421
312.6713,2.657373
312.6766,2.665772
312.8119,2.637848
312.8223,2.654311
312.9390,2.623703
312.9479,2.637814
313.0696,2.615270
313.0732,2.620982
313.4805,2.592990
313.4822,2.595678
313.6315,2.589929
313.8931,2.573398
314.0460,2.573361
314.1801,2.570303
314.3144,2.567582
314.3161,2.570270
314.4503,2.567548
315.4531,2.567300
315.4548,2.569988
315.5908,2.569955
315.8663,2.575599
315.8680,2.578287
316.0227,2.580937
316.6243,2.645307
316.6383,2.667481
316.7743,2.667448
316.7813,2.678535
316.9362,2.681521
316.9625,2.723183
316.9642,2.725871
317.3945,2.734165
317.6664,2.734098
317.9430,2.714540
317.9519,2.728651
318.0683,2.697707
318.0773,2.711818
318.4403,2.613943
318.4546,2.636454
318.5657,2.597110
318.5763,2.613909
318.7152,2.591697
318.7186,2.597072
319.1049,2.535819
319.2336,2.524362
319.2389,2.532761
319.3643,2.515929
319.3679,2.521641
319.4968,2.510520
319.5002,2.515895
319.6409,2.496371
319.6481,2.507794
321.0322,2.465448
321.1699,2.468102
321.3058,2.468068
321.3078,2.471092
321.4607,2.471054
321.4658,2.479118
321.6018,2.479084
321.6107,2.493195
321.7484,2.495850
321.7626,2.518360
321.9366,2.551585
321.9402,2.557296
322.0938,2.585149
322.1168,2.621435
322.2721,2.651976
322.2757,2.657688
322.4303,2.660338
322.4516,2.693936
322.4675,2.719134
322.6052,2.721789
322.6211,2.746987
322.7960,2.808438
322.8100,2.830613
322.8542,2.900497
322.8595,2.908896
322.9477,2.833267
322.9600,2.852754
322.9848,2.892064
322.9902,2.900463
322.9972,2.911551
323.0165,2.942125
323.1714,2.945111
323.1871,2.969973
323.2525,2.858394
323.3250,2.972964
323.3303,2.981363
323.3390,2.995138
323.4663,2.981330
323.4733,2.992417
323.4767,2.997793
323.4856,3.011904
323.6296,2.997755
323.6369,3.009178
323.7656,2.997721
324.0545,2.997650
325.1905,3.019883
325.4794,3.019812
325.5942,2.986180
325.6137,3.017091
325.7214,2.972371
325.7284,2.983459
325.8654,2.958222
325.8725,2.969310
326.3787,2.882824
326.3910,2.902311
326.5041,2.865992
326.5130,2.880103
326.6330,2.854871
326.6383,2.863270
326.9997,2.762707
327.0207,2.795969
327.1437,2.748558
327.1508,2.759645
327.2780,2.745836
327.3734,2.681630
327.3804,2.692718
327.5034,2.645307
327.5247,2.678905
327.6058,2.592188
327.7205,2.558556
327.7401,2.589466
327.8019,2.472176
327.8266,2.511149
327.9513,2.466426
327.9532,2.469450
327.9708,2.282275
327.9920,2.315873
327.9954,2.321249
328.0203,2.360558
328.0520,2.410620
328.1051,2.279553
##END=
