##TITLE=2,3-Dimethylnaphthalene
##JCAMP-DX=4.24
##DATA TYPE=UV/VIS SPECTRUM
##ORIGIN=INSTITUTE OF ENERGY PROBLEMS OF CHEMICAL PHYSICS, RAS
##OWNER=INEP CP RAS, NIST OSRD
Collection (C) 2007 copyright by the U.S. Secretary of Commerce
on behalf of the United States of America. All rights reserved.
##CAS REGISTRY NO=581-40-8
##MOLFORM=C12H12
##MP=105
##BP=268
##SOURCE REFERENCE=RAS UV No. 329
##$NIST SQUIB=1960CAV/SHI654-656
##$NIST SOURCE=TSGMTE
##SPECTROMETER/DATA SYSTEM=n.i.g.
##XUNITS=Wavelength (nm)
##YUNITS=Logarithm epsilon
##XFACTOR=1.000000
##YFACTOR=1.000000
##FIRSTX=221.2151
##LASTX=324.0572
##FIRSTY=4.90112
##MAXX=324.057
##MINX=221.215
##MAXY=4.96474
##MINY=2.2198
##NPOINTS=263
##$REF AUTHOR=Cava, M.P.; Shirley, R.L.
##$REF TITLE=Condensed cyclobutane aromatic compounds. X. Naphtho[b]cyclobutene
##$REF JOURNAL=J. Am. Chem. Soc.
##$REF VOLUME=82
##$REF PAGE=654-656
##$REF DATE=1960
##XYPOINTS=(XY..XY)
221.2151,4.901123
222.4616,4.917555
223.8117,4.942865
225.0811,4.964739
225.0811,4.964739
225.7190,4.964502
226.0414,4.963875
226.3248,4.962320
226.3248,4.962320
227.0006,4.936404
227.6523,4.910620
228.2600,4.884595
228.8037,4.857952
229.2637,4.830319
229.2637,4.830319
229.3826,4.809159
229.5013,4.787994
229.6196,4.766824
229.7377,4.745649
229.8554,4.724470
229.9728,4.703285
230.0899,4.682095
230.2066,4.660901
230.3230,4.639702
230.4391,4.618498
230.5548,4.597289
230.6703,4.576076
230.7854,4.554858
230.9001,4.533636
231.0145,4.512409
231.1285,4.491178
231.2422,4.469943
231.3556,4.448703
231.4686,4.427459
231.5812,4.406211
231.6935,4.384958
231.8054,4.363702
231.9170,4.342441
232.0281,4.321176
232.1390,4.299908
232.2494,4.278635
232.3595,4.257359
232.4692,4.236079
232.5785,4.214794
232.6874,4.193507
232.7960,4.172215
232.9042,4.150920
233.0119,4.129622
233.1193,4.108320
233.2263,4.087014
233.3329,4.065705
233.4391,4.044392
233.5449,4.023077
233.6503,4.001758
233.7553,3.980436
233.8599,3.959110
233.9640,3.937782
234.0678,3.916450
234.1711,3.895115
234.2740,3.873778
234.2978,3.805348
234.3153,3.828944
234.3178,3.781657
234.3689,3.757878
234.3765,3.852437
234.3765,3.852437
234.4448,3.734020
234.5393,3.710090
234.6460,3.686097
234.7587,3.662048
234.8709,3.637952
234.9765,3.613816
235.0691,3.589649
235.1425,3.565458
235.1425,3.565458
235.2638,3.540684
235.3690,3.519430
235.4638,3.500741
235.5540,3.483662
235.6451,3.467238
235.7431,3.450514
235.8535,3.432536
235.9822,3.412346
236.1350,3.388992
236.3174,3.361516
236.5354,3.328966
236.7945,3.290384
236.7945,3.290384
237.6359,3.271750
238.2378,3.250349
238.8092,3.228135
239.5585,3.207064
240.6946,3.189088
242.4262,3.176163
242.6782,3.175045
243.5657,3.176620
244.4252,3.181248
245.1546,3.189716
245.3482,3.191777
245.3482,3.191777
245.5300,3.204491
245.8422,3.213600
246.4579,3.224449
246.4579,3.224449
247.0811,3.247429
247.7342,3.271089
248.5068,3.293856
249.4887,3.314154
250.7695,3.330409
252.4389,3.341047
252.4389,3.341047
253.5124,3.360674
254.3600,3.380703
255.0554,3.400779
255.6724,3.420549
256.2844,3.439659
256.9653,3.457756
257.7886,3.474485
258.8280,3.489494
260.1571,3.502428
261.8496,3.512934
261.8496,3.512934
262.1113,3.517389
262.3254,3.524375
262.6752,3.539878
262.6752,3.539878
263.5074,3.559919
264.3266,3.582012
265.2544,3.603497
266.4125,3.621710
267.9223,3.633990
267.9223,3.633990
270.0441,3.629843
271.5444,3.626107
272.6892,3.624861
273.7445,3.628184
274.9761,3.638156
276.6499,3.656855
276.6499,3.656855
277.8334,3.658229
278.9158,3.652073
279.9064,3.639731
280.8148,3.622547
281.6505,3.601866
282.4230,3.579031
283.1418,3.555385
283.8163,3.532274
284.4561,3.511040
285.0706,3.493028
285.6695,3.479581
285.6695,3.479581
286.8019,3.479543
287.8053,3.478190
288.8278,3.471150
288.8278,3.471150
289.3317,3.442556
289.8356,3.413963
290.9879,3.321574
291.2652,3.299994
291.5642,3.278284
291.8799,3.256462
292.2068,3.234543
292.5397,3.212545
292.8735,3.190485
293.2028,3.168378
293.5223,3.146242
293.8269,3.124094
294.1113,3.101950
294.3701,3.079827
294.5983,3.057742
294.7904,3.035711
294.9413,3.013751
295.0457,2.991880
296.0726,2.915739
296.3789,2.887751
296.5761,2.831062
296.5761,2.831062
296.5854,2.859343
296.6880,2.831034
296.8094,2.831004
296.9354,2.830973
296.9354,2.830973
297.0840,2.812279
297.1117,2.782692
297.1117,2.782692
297.1297,2.799762
297.6530,2.772901
298.0297,2.758336
298.2871,2.739964
298.4705,2.718759
298.6254,2.695690
298.7971,2.671728
299.0310,2.647843
299.3726,2.625008
299.8672,2.604191
300.5603,2.586365
301.4971,2.572500
302.7231,2.563566
303.0824,2.563476
303.2311,2.563888
303.3796,2.564183
303.5280,2.564419
303.5280,2.564419
303.9642,2.585398
304.4051,2.606375
304.8554,2.627350
304.8554,2.627350
305.1128,2.629131
305.3749,2.630911
305.6464,2.632689
305.6464,2.632689
305.8704,2.601002
306.1527,2.601712
306.2733,2.626069
306.4443,2.602362
306.5073,2.617674
306.5747,2.605044
306.7404,2.602893
306.7404,2.602893
307.1889,2.579288
307.6374,2.555668
308.0921,2.532034
308.5596,2.508386
309.0460,2.484724
309.5578,2.461047
310.1013,2.437356
310.6828,2.413651
311.3087,2.389932
311.9854,2.366198
311.9854,2.366198
312.1784,2.364032
312.3809,2.361804
312.5878,2.359458
312.9454,2.358315
313.9676,2.378405
314.4093,2.402799
315.4201,2.424650
315.4201,2.424650
316.0236,2.422957
316.3563,2.419457
316.5404,2.411191
316.5404,2.411191
316.6867,2.410091
316.8328,2.408932
316.9788,2.407655
317.1373,2.401026
317.1410,2.403319
317.1445,2.405495
317.1479,2.407613
317.1479,2.407613
318.1672,2.419611
318.6088,2.434623
320.0948,2.438773
320.0948,2.438773
320.4826,2.414279
320.8801,2.389973
321.2888,2.365792
321.7100,2.341674
322.1454,2.317553
322.5963,2.293369
323.0643,2.269056
323.5508,2.244553
324.0572,2.219795
##END=
