##TITLE=(4-chlorophenyl)(5-phenyl-3-isoxazolyl)methanone
##JCAMP-DX=4.24
##DATA TYPE=UV/VIS SPECTRUM
##ORIGIN=INSTITUTE OF ENERGY PROBLEMS OF CHEMICAL PHYSICS, RAS
##OWNER=INEP CP RAS, NIST OSRD
Collection (C) 2007 copyright by the U.S. Secretary of Commerce
on behalf of the United States of America. All rights reserved.
##CAS REGISTRY NO=58144-67-5
##MOLFORM=C16H10ClNO2
##MP=139-140
##SOURCE REFERENCE=RAS UV No. 23306
##$NIST SQUIB=1975SHE/2609
##$NIST SOURCE=TYUGLMTE
##SPECTROMETER/DATA SYSTEM=SF-4
##XUNITS=Wavelength (nm)
##YUNITS=Logarithm epsilon
##XFACTOR=1.0
##YFACTOR=1.0
##FIRSTX=218.514
##LASTX=320.761
##FIRSTY=3.95
##MAXX=320.761
##MINX=218.514
##MAXY=4.488
##MINY=3.385
##NPOINTS=106
##$REF AUTHOR=Shevchuk, M.I.; et al.
##$REF JOURNAL=Zhur. Obshchei Khim.
##$REF VOLUME=45
##$REF PAGE=2609
##$REF DATE=1975
##XYPOINTS=(XY..XY)
218.514,3.950
219.514,3.929
220.514,3.908
221.514,3.886
222.514,3.865
223.514,3.845
224.514,3.825
225.514,3.806
226.514,3.789
227.514,3.773
228.514,3.760
229.514,3.748
230.514,3.739
231.514,3.732
232.514,3.728
233.514,3.727
234.514,3.729
235.514,3.735
236.514,3.744
237.514,3.757
238.514,3.774
239.514,3.795
240.514,3.820
241.514,3.849
242.514,3.883
243.514,3.922
243.530,3.922
244.530,3.964
245.530,4.003
246.530,4.040
247.530,4.075
248.530,4.108
249.530,4.139
250.530,4.168
251.530,4.195
252.530,4.222
253.530,4.246
254.530,4.270
255.530,4.292
256.530,4.314
257.530,4.334
258.530,4.354
259.530,4.373
260.530,4.392
261.530,4.410
262.530,4.428
262.898,4.436
263.898,4.452
264.898,4.464
265.898,4.473
266.898,4.480
267.898,4.484
268.898,4.487
269.898,4.488
270.898,4.487
271.898,4.484
272.898,4.480
273.898,4.475
274.898,4.468
275.898,4.460
276.898,4.451
277.898,4.440
278.898,4.428
279.898,4.414
280.898,4.399
281.898,4.382
282.750,4.365
283.750,4.343
284.750,4.317
285.750,4.287
286.750,4.254
287.750,4.219
288.750,4.183
289.750,4.147
290.750,4.111
291.750,4.075
292.750,4.041
293.750,4.008
294.750,3.978
295.750,3.950
296.750,3.924
297.750,3.901
297.761,3.898
298.761,3.882
299.761,3.864
300.761,3.845
301.761,3.825
302.761,3.804
303.761,3.783
304.761,3.762
305.761,3.741
306.761,3.719
307.761,3.698
308.761,3.676
309.761,3.654
310.761,3.633
311.761,3.611
312.761,3.589
313.761,3.567
314.761,3.544
315.761,3.520
316.761,3.496
317.761,3.471
318.761,3.444
319.761,3.416
320.761,3.385
##END=
