##TITLE=2,7-Dimethylnaphthalene
##JCAMP-DX=4.24
##DATA TYPE=UV/VIS SPECTRUM
##ORIGIN=INSTITUTE OF ENERGY PROBLEMS OF CHEMICAL PHYSICS, RAS
##OWNER=INEP CP RAS, NIST OSRD
Collection (C) 2007 copyright by the U.S. Secretary of Commerce
on behalf of the United States of America. All rights reserved.
##CAS REGISTRY NO=582-16-1
##MOLFORM=C12H12
##MP=97
##BP=265
##SOURCE REFERENCE=RAS UV No. 20080
##$NIST SQUIB=1963KUS/244
##$NIST SOURCE=TYUGLMTE
##SPECTROMETER/DATA SYSTEM=unknown
##XUNITS=Wavelength (nm)
##YUNITS=Logarithm epsilon
##XFACTOR=1.0
##YFACTOR=1.0
##FIRSTX=301.03
##LASTX=323.97
##FIRSTY=2.567
##MAXX=323.97
##MINX=301.03
##MAXY=2.567
##MINY=2.066
##NPOINTS=144
##$REF AUTHOR=Kusakov, M.M.; et al.
##$REF JOURNAL=Ultraviolet Absorption Spectra of Aromatic Hydrocarbons
##$REF PAGE=244
##$REF DATE=1963
##XYPOINTS=(XY..XY)
301.03,2.567
301.07,2.566
301.11,2.564
301.15,2.563
301.20,2.562
301.24,2.560
301.28,2.559
301.32,2.557
301.37,2.556
301.41,2.551
301.58,2.549
301.75,2.549
301.92,2.552
302.09,2.557
302.26,2.563
302.44,2.567
302.61,2.567
302.78,2.563
302.95,2.558
303.12,2.552
303.29,2.544
303.46,2.536
303.63,2.529
303.80,2.518
303.97,2.510
304.15,2.500
304.32,2.495
304.49,2.494
304.66,2.493
304.83,2.494
305.00,2.496
305.17,2.498
305.34,2.503
305.51,2.510
305.68,2.517
305.85,2.524
306.03,2.531
306.20,2.539
306.37,2.546
306.54,2.552
306.71,2.553
306.88,2.552
307.05,2.548
307.22,2.546
307.39,2.542
307.56,2.536
307.73,2.531
307.91,2.523
308.08,2.514
308.25,2.507
308.42,2.500
308.59,2.494
308.76,2.485
308.93,2.479
309.10,2.474
309.27,2.468
309.44,2.463
309.62,2.458
309.79,2.452
309.95,2.449
310.13,2.447
310.30,2.445
310.47,2.443
310.64,2.442
310.81,2.441
310.98,2.439
311.10,2.438
311.29,2.436
311.50,2.433
311.67,2.430
311.84,2.426
312.01,2.421
312.16,2.413
312.35,2.396
312.52,2.375
312.69,2.340
312.86,2.294
313.03,2.263
313.20,2.219
313.38,2.176
313.55,2.153
313.72,2.135
313.81,2.129
313.96,2.124
314.09,2.121
314.23,2.119
314.40,2.118
314.57,2.119
314.74,2.122
314.84,2.125
314.91,2.129
315.08,2.139
315.26,2.159
315.40,2.187
315.60,2.230
315.77,2.278
315.94,2.320
316.11,2.359
316.28,2.396
316.45,2.415
316.62,2.426
316.79,2.435
316.97,2.440
317.14,2.441
317.31,2.435
317.48,2.414
317.65,2.387
317.82,2.333
317.99,2.270
318.16,2.221
318.33,2.208
318.50,2.201
318.67,2.196
318.85,2.195
319.02,2.195
319.19,2.195
319.36,2.199
319.53,2.203
319.70,2.209
319.87,2.220
320.04,2.232
320.21,2.253
320.38,2.275
320.55,2.307
320.73,2.345
320.90,2.356
321.07,2.361
321.24,2.361
321.41,2.359
321.58,2.349
321.75,2.329
321.92,2.307
322.09,2.283
322.26,2.261
322.44,2.238
322.61,2.216
322.78,2.196
322.95,2.172
323.12,2.151
323.29,2.135
323.46,2.115
323.63,2.096
323.80,2.077
323.97,2.066
##END=
