##TITLE=2-Hydroxyacetophenone
##JCAMP-DX=4.24
##DATA TYPE=UV/VIS SPECTRUM
##ORIGIN=INSTITUTE OF ENERGY PROBLEMS OF CHEMICAL PHYSICS, RAS
##OWNER=INEP CP RAS, NIST OSRD
Collection (C) 2007 copyright by the U.S. Secretary of Commerce
on behalf of the United States of America. All rights reserved.
##CAS REGISTRY NO=582-24-1
##MOLFORM=C8H8O2
##MP=90
##BP=125; 56(1)
##SOURCE REFERENCE=RAS UV No. 6658
##$NIST SQUIB=1969SHI/MOR1831-1836
##$NIST SOURCE=TSGMTE
##SPECTROMETER/DATA SYSTEM=Hitachi MPF-2
##XUNITS=Wavelength (nm)
##YUNITS=Logarithm epsilon
##XFACTOR=1.000000
##YFACTOR=1.000000
##FIRSTX=225.2800
##LASTX=356.4136
##FIRSTY=3.58664
##MAXX=356.414
##MINX=225.28
##MAXY=3.9657
##MINY=2.07168
##NPOINTS=252
##$REF AUTHOR=Shizuka, H.; Morita, T.; Mori, Y.; Tanaka, I.
##$REF TITLE=The photochemical rearrangement of phenyl acetate
##$REF JOURNAL=Bull. Chem. Soc. Jpn.
##$REF VOLUME=42
##$REF PAGE=1831-1836
##$REF DATE=1969
##XYPOINTS=(XY..XY)
225.2800,3.586637
225.4817,3.570753
225.7017,3.553390
225.9568,3.534718
226.2641,3.514935
226.6403,3.494284
227.1024,3.473060
227.6672,3.451626
228.3515,3.430422
229.1724,3.409975
229.1724,3.409975
229.6445,3.409368
230.1213,3.408598
230.6075,3.407743
230.6075,3.407743
231.5484,3.417628
232.4449,3.431081
233.2961,3.447158
234.1011,3.464975
234.8590,3.483736
235.5688,3.502754
236.2296,3.521445
236.8405,3.539319
237.4006,3.555963
237.9089,3.571027
238.3646,3.584201
238.7668,3.595200
238.7668,3.595200
239.3958,3.619449
239.8789,3.637398
240.2485,3.651071
240.5367,3.662124
240.7760,3.671995
240.9986,3.681982
241.2368,3.693265
241.5228,3.706894
241.5228,3.706894
241.7693,3.714600
242.0212,3.726951
242.2677,3.734312
242.2677,3.734312
242.3796,3.741828
242.4864,3.748753
242.5893,3.755198
242.6898,3.761264
242.7892,3.767049
242.8889,3.772642
242.9902,3.778129
243.0946,3.783592
243.2033,3.789109
243.3177,3.794753
243.4393,3.800594
243.5693,3.806698
243.7091,3.813126
243.8601,3.819935
244.0237,3.827176
244.2012,3.834898
244.3939,3.843140
244.6033,3.851938
244.8307,3.861322
245.0775,3.871315
245.3451,3.881934
245.6347,3.893189
245.9478,3.905085
246.2857,3.917621
246.6498,3.930790
247.0415,3.944579
247.4621,3.958971
247.4621,3.958971
247.6430,3.959548
247.7997,3.961300
248.0663,3.965698
248.0663,3.965698
249.0430,3.965641
249.8252,3.963081
250.4659,3.958656
251.0178,3.953003
251.5337,3.946777
252.0664,3.940670
252.6687,3.935407
253.3935,3.931752
253.3935,3.931752
254.1169,3.935725
254.3854,3.937732
254.4290,3.939513
254.4290,3.939513
254.7944,3.939481
255.1645,3.939449
255.5442,3.939416
255.5442,3.939416
256.0030,3.931979
256.3373,3.924277
256.5931,3.920025
256.5931,3.920025
256.6890,3.913039
256.7841,3.905942
256.8784,3.898729
256.9719,3.891397
257.0646,3.883942
257.1566,3.876358
257.2479,3.868642
257.3386,3.860789
257.4287,3.852793
257.5181,3.844648
257.6071,3.836349
257.6955,3.827889
257.7835,3.819263
257.8710,3.810462
257.9581,3.801481
258.0448,3.792309
258.1312,3.782940
258.2173,3.773365
258.3031,3.763573
258.3888,3.753554
258.4742,3.743299
258.5594,3.732793
258.6445,3.722026
258.7296,3.710983
258.8146,3.699650
258.8995,3.688010
258.9845,3.676047
259.0695,3.663742
259.1546,3.651074
259.2399,3.638021
259.3253,3.624559
259.4108,3.610661
259.4966,3.596297
259.5827,3.581436
259.6690,3.566040
259.7557,3.550072
259.8428,3.533485
259.9303,3.516230
260.0182,3.498251
260.1065,3.479484
260.1954,3.459857
260.2848,3.439288
260.3748,3.417681
260.3748,3.417681
260.6729,3.372225
260.9090,3.336532
261.0932,3.308557
261.2356,3.284771
261.3465,3.260413
261.4359,3.229467
261.4359,3.229467
261.9291,3.205973
262.1665,3.172068
262.3077,3.129227
262.5120,3.079342
262.9391,3.025397
263.7484,2.972349
263.7484,2.972349
264.0398,2.902251
264.5996,2.824819
265.3869,2.738573
266.3610,2.641544
267.4808,2.531046
268.7055,2.403303
269.9943,2.252855
271.3062,2.071680
271.3062,2.071680
273.2657,2.089885
275.2348,2.105691
277.2084,2.117779
277.2084,2.117779
278.1280,2.204122
278.8255,2.237111
281.1669,2.361133
281.9134,2.405799
283.0244,2.421764
283.0244,2.421764
284.9817,2.551538
286.8415,2.638891
287.9787,2.698022
287.9787,2.698022
288.9188,2.728866
289.6824,2.757537
290.5486,2.774370
290.5486,2.774370
290.5796,2.787696
290.6201,2.799959
290.6652,2.811563
290.6652,2.811563
291.7467,2.862085
292.8171,2.908409
293.8768,2.951181
294.9264,2.990906
295.9665,3.027981
296.9975,3.062726
298.0201,3.095406
299.0346,3.126235
300.0417,3.155399
301.0419,3.183050
302.0357,3.209321
303.0237,3.234327
304.0063,3.258167
304.9841,3.280927
305.9577,3.302682
306.9275,3.323502
307.8941,3.343445
308.8580,3.362564
309.8198,3.380908
310.7800,3.398521
311.7391,3.415439
312.6976,3.431699
313.6561,3.447332
314.6151,3.462367
315.5751,3.476831
316.5367,3.490747
317.5004,3.504138
318.4667,3.517024
319.4361,3.529423
320.4093,3.541351
321.3866,3.552826
321.3866,3.552826
322.8287,3.560833
324.2202,3.566157
325.5767,3.569115
326.9136,3.569971
328.2464,3.568959
329.5907,3.566285
330.9620,3.562142
332.3758,3.556713
333.8476,3.550178
333.8476,3.550178
334.0526,3.547383
334.3236,3.543907
334.7120,3.538865
335.2692,3.531321
336.0465,3.520238
337.0955,3.504404
338.4675,3.482300
340.2138,3.451888
342.3861,3.410207
342.3861,3.410207
343.2249,3.389302
344.0638,3.367338
344.9026,3.344199
345.7415,3.319753
346.5804,3.293839
347.4192,3.266269
348.2580,3.236815
349.0968,3.205198
349.9356,3.171075
350.7744,3.134014
351.6132,3.093458
351.6132,3.093458
353.7968,2.982559
355.1383,2.896306
355.8679,2.839006
356.2162,2.804715
356.4136,2.777894
##END=
