##TITLE=1-(4-chlorophenyl)-2-cyano-1-(9H-fluoren-9-ylidene)hydrazinium, inner salt
##JCAMP-DX=4.24
##DATA TYPE=UV/VIS SPECTRUM
##ORIGIN=INSTITUTE OF ENERGY PROBLEMS OF CHEMICAL PHYSICS, RAS
##OWNER=INEP CP RAS, NIST OSRD
Collection (C) 2007 copyright by the U.S. Secretary of Commerce
on behalf of the United States of America. All rights reserved.
##CAS REGISTRY NO=5825-75-2
##MOLFORM=C20H12ClN3
##MP=192-193 (dec.)
##SOURCE REFERENCE=RAS UV No. 22715
##$NIST SQUIB=1977HUI/ECK522
##$NIST SOURCE=TYUGLMTE
##SPECTROMETER/DATA SYSTEM=Zeiss PMQ 20
##XUNITS=Wavelength (nm)
##YUNITS=Logarithm epsilon
##XFACTOR=1.0
##YFACTOR=1.0
##FIRSTX=211.961
##LASTX=483.231
##FIRSTY=4.432
##MAXX=483.231
##MINX=211.961
##MAXY=4.691
##MINY=3.315
##NPOINTS=110
##$REF AUTHOR=Huisgen, R.; Eckell, A.
##$REF JOURNAL=Chem. Ber.
##$REF VOLUME=110
##$REF PAGE=522
##$REF DATE=1977
##XYPOINTS=(XY..XY)
211.961,4.432
214.232,4.408
216.551,4.376
218.922,4.340
221.345,4.310
223.822,4.294
225.750,4.289
227.736,4.268
230.359,4.252
231.693,4.254
233.043,4.266
234.409,4.286
235.790,4.317
237.189,4.355
239.092,4.415
240.530,4.466
241.525,4.502
242.992,4.544
244.477,4.577
245.984,4.617
247.502,4.656
248.640,4.679
249.882,4.691
251.137,4.682
252.405,4.648
253.044,4.620
253.686,4.585
254.364,4.546
255.611,4.504
257.255,4.451
258.920,4.410
260.607,4.380
264.048,4.351
267.580,4.338
271.209,4.311
273.060,4.283
274.937,4.244
276.840,4.194
278.683,4.127
280.638,4.034
282.621,3.937
284.632,3.847
286.672,3.770
289.214,3.698
291.321,3.656
293.458,3.632
295.627,3.619
297.828,3.609
300.062,3.598
302.330,3.586
304.632,3.572
306.970,3.559
309.344,3.549
311.755,3.543
314.204,3.541
316.692,3.539
318.959,3.531
320.959,3.514
323.033,3.497
325.134,3.480
327.262,3.469
329.418,3.463
331.602,3.462
333.816,3.459
335.965,3.448
337.110,3.433
338.160,3.413
339.599,3.393
341.626,3.379
343.976,3.374
346.359,3.383
348.775,3.398
350.682,3.405
352.808,3.394
354.443,3.378
356.212,3.352
357.485,3.336
358.767,3.323
360.821,3.315
362.671,3.319
363.991,3.330
365.321,3.347
366.660,3.364
368.676,3.401
371.388,3.448
374.868,3.533
378.415,3.625
382.029,3.716
385.713,3.803
389.468,3.885
393.298,3.960
397.203,4.029
401.187,4.094
405.252,4.155
409.399,4.211
413.633,4.260
417.665,4.306
422.072,4.346
426.573,4.374
431.171,4.391
435.870,4.398
440.672,4.397
445.580,4.389
450.600,4.372
455.734,4.340
460.986,4.281
466.330,4.187
471.831,4.080
477.463,3.932
483.231,3.701
##END=
