##TITLE=6-(4-nitrophenyl)-3,5-hexadien-2-one
##JCAMP-DX=4.24
##DATA TYPE=UV/VIS SPECTRUM
##ORIGIN=INSTITUTE OF ENERGY PROBLEMS OF CHEMICAL PHYSICS, RAS
##OWNER=INEP CP RAS, NIST OSRD
Collection (C) 2007 copyright by the U.S. Secretary of Commerce
on behalf of the United States of America. All rights reserved.
##CAS REGISTRY NO=58200-81-0
##MOLFORM=C12H11NO2
##SOURCE REFERENCE=RAS UV No. 23312
##$NIST SQUIB=1975LAV/2720
##$NIST SOURCE=TYUGLMTE
##SPECTROMETER/DATA SYSTEM=SF-4A
##XUNITS=Wavelength (nm)
##YUNITS=Logarithm epsilon
##XFACTOR=1.0
##YFACTOR=1.0
##FIRSTX=222.847
##LASTX=384.826
##FIRSTY=3.889
##MAXX=384.826
##MINX=222.847
##MAXY=4.506
##MINY=3.778
##NPOINTS=110
##$REF AUTHOR=Lavrushin, V.F.; et al.
##$REF JOURNAL=Zhur. Obshchei Khim.
##$REF VOLUME=45
##$REF PAGE=2720
##$REF DATE=1975
##XYPOINTS=(XY..XY)
222.847,3.889
224.400,3.893
225.900,3.894
227.400,3.894
228.900,3.893
230.400,3.888
231.900,3.878
233.400,3.863
234.596,3.852
235.895,3.842
237.054,3.831
238.234,3.827
239.580,3.831
240.843,3.843
242.393,3.846
243.693,3.840
244.994,3.832
246.494,3.812
247.994,3.797
249.494,3.787
250.994,3.780
252.494,3.778
253.994,3.778
255.494,3.781
256.994,3.785
258.494,3.792
259.994,3.799
261.494,3.808
262.994,3.818
264.494,3.828
265.994,3.839
267.494,3.849
268.994,3.861
270.494,3.872
271.994,3.884
273.494,3.896
274.994,3.908
276.494,3.921
277.994,3.935
279.826,3.956
281.326,3.974
282.826,3.992
284.326,4.010
285.826,4.026
287.326,4.043
288.826,4.059
290.326,4.075
291.826,4.091
293.326,4.107
294.826,4.123
296.326,4.139
297.826,4.154
299.326,4.170
300.826,4.185
302.326,4.201
303.826,4.216
305.326,4.232
306.826,4.247
308.326,4.262
309.826,4.278
311.326,4.293
312.826,4.308
314.326,4.323
315.826,4.337
317.326,4.352
318.826,4.366
320.326,4.380
321.826,4.393
323.326,4.406
324.826,4.418
326.326,4.430
327.826,4.441
329.326,4.452
330.826,4.462
332.326,4.471
333.826,4.479
335.326,4.486
336.826,4.493
338.326,4.498
339.826,4.502
341.326,4.505
342.826,4.506
344.326,4.506
345.826,4.505
347.326,4.503
348.826,4.498
350.326,4.493
351.826,4.485
353.326,4.476
354.826,4.465
356.326,4.453
357.826,4.438
359.326,4.421
360.826,4.403
362.326,4.383
363.826,4.360
365.326,4.335
366.826,4.309
368.326,4.280
369.826,4.249
371.326,4.215
372.826,4.180
374.326,4.142
375.826,4.102
377.326,4.060
378.826,4.016
380.326,3.969
381.826,3.921
383.326,3.870
384.826,3.817
##END=
