##TITLE=Pyridine, 2,3-dimethyl-
##JCAMP-DX=4.24
##DATA TYPE=UV/VIS SPECTRUM
##ORIGIN=INSTITUTE OF ENERGY PROBLEMS OF CHEMICAL PHYSICS, RAS
##OWNER=INEP CP RAS, NIST OSRD
Collection (C) 2007 copyright by the U.S. Secretary of Commerce
on behalf of the United States of America. All rights reserved.
##CAS REGISTRY NO=583-61-9
##MOLFORM=C7H9N
##BP=179
##SOURCE REFERENCE=RAS UV No. 12273
##$NIST SQUIB=1954AND/HER918
##$NIST SOURCE=TYUGLMTE
##SPECTROMETER/DATA SYSTEM=Unicam SP 500
##XUNITS=Wavelength (nm)
##YUNITS=Logarithm epsilon
##XFACTOR=1.0
##YFACTOR=1.0
##FIRSTX=230.73
##LASTX=280.06
##FIRSTY=2.771
##MAXX=280.06
##MINX=230.73
##MAXY=3.594
##MINY=2.035
##NPOINTS=120
##$REF AUTHOR=Andon, R.J.L.; Herington, E.F.G.
##$REF JOURNAL=Trans. Faraday Soc.
##$REF VOLUME=50
##$REF PAGE=918
##$REF DATE=1954
##XYPOINTS=(XY..XY)
230.73,2.771
231.28,2.780
231.83,2.797
232.38,2.805
232.92,2.829
233.47,2.837
234.02,2.852
234.57,2.866
235.12,2.873
235.66,2.894
236.21,2.907
236.76,2.913
237.25,2.932
237.79,2.950
238.34,2.956
238.83,2.973
239.32,2.989
239.87,2.995
240.35,3.010
240.84,3.025
241.39,3.040
241.88,3.054
242.36,3.068
242.91,3.081
243.40,3.094
243.88,3.106
244.37,3.118
244.86,3.134
245.35,3.145
245.83,3.160
246.32,3.174
246.81,3.192
247.29,3.201
247.78,3.218
248.21,3.233
248.70,3.248
249.12,3.263
249.55,3.277
249.97,3.290
250.40,3.304
250.83,3.319
251.25,3.331
251.68,3.346
252.11,3.360
252.47,3.373
252.90,3.386
253.26,3.399
253.69,3.411
254.12,3.423
254.48,3.435
254.91,3.446
255.27,3.457
255.64,3.468
256.00,3.481
256.43,3.489
256.79,3.499
257.22,3.509
257.65,3.519
258.13,3.527
258.56,3.536
258.99,3.543
259.41,3.552
259.90,3.558
260.33,3.565
260.81,3.572
261.30,3.576
261.79,3.582
262.28,3.586
262.76,3.590
263.31,3.593
263.86,3.594
264.41,3.593
264.96,3.590
265.44,3.585
265.87,3.578
266.29,3.569
266.66,3.561
267.03,3.552
267.33,3.542
267.70,3.533
268.06,3.523
268.43,3.512
268.79,3.501
269.22,3.491
269.64,3.482
270.07,3.472
270.56,3.463
270.92,3.452
271.29,3.439
271.53,3.423
271.84,3.407
272.08,3.391
272.26,3.373
272.51,3.355
272.69,3.336
272.87,3.316
272.99,3.293
273.18,3.271
273.36,3.248
273.48,3.221
273.66,3.195
273.85,3.167
273.97,3.134
274.15,3.102
274.27,3.063
274.46,3.025
274.70,2.984
274.94,2.938
275.19,2.887
275.55,2.837
275.92,2.780
276.22,2.704
276.65,2.649
277.13,2.586
277.50,2.479
277.99,2.403
278.47,2.311
278.96,2.195
279.51,2.081
280.06,2.035
##END=
