##TITLE=Benzene, 1-bromo-2,4-dimethyl-
##JCAMP-DX=4.24
##DATA TYPE=UV/VIS SPECTRUM
##ORIGIN=INSTITUTE OF ENERGY PROBLEMS OF CHEMICAL PHYSICS, RAS
##OWNER=INEP CP RAS, NIST OSRD
Collection (C) 2007 copyright by the U.S. Secretary of Commerce
on behalf of the United States of America. All rights reserved.
##CAS REGISTRY NO=583-70-0
##MOLFORM=C8H9Br
##BP=203-205
##SOURCE REFERENCE=RAS UV No. 16977
##$NIST SQUIB=1974BOK/760
##$NIST SOURCE=TYUGLMTE
##SPECTROMETER/DATA SYSTEM=SF-4 A
##XUNITS=Wavelength (nm)
##YUNITS=Logarithm epsilon
##XFACTOR=1.0
##YFACTOR=1.0
##FIRSTX=228.02
##LASTX=282.54
##FIRSTY=3.807
##MAXX=282.54
##MINX=228.02
##MAXY=3.807
##MINY=2.057
##NPOINTS=95
##$REF AUTHOR=Bokanov, A.I.; et al.
##$REF JOURNAL=Zhur. Obshchei Khim.
##$REF VOLUME=44
##$REF PAGE=760
##$REF DATE=1974
##XYPOINTS=(XY..XY)
228.02,3.807
228.53,3.790
229.04,3.766
229.55,3.744
230.06,3.719
231.08,3.663
231.59,3.637
232.10,3.593
233.12,3.503
233.63,3.459
234.14,3.413
234.65,3.344
235.16,3.313
235.67,3.278
236.18,3.215
236.69,3.171
237.20,3.132
237.70,3.069
238.21,3.042
238.72,2.998
239.74,2.917
240.25,2.884
240.76,2.835
241.27,2.777
241.78,2.752
242.29,2.694
243.31,2.632
243.82,2.605
244.33,2.564
245.35,2.482
245.86,2.454
246.37,2.416
247.39,2.355
247.90,2.328
248.40,2.315
248.91,2.296
249.93,2.254
250.44,2.255
250.95,2.252
251.46,2.248
251.97,2.247
252.48,2.250
252.99,2.259
253.50,2.270
254.01,2.282
254.52,2.296
255.03,2.299
256.05,2.330
256.56,2.340
257.07,2.352
257.58,2.360
258.09,2.371
259.61,2.411
260.12,2.420
260.63,2.426
261.14,2.431
261.65,2.437
262.16,2.445
262.67,2.460
263.18,2.469
264.71,2.494
265.22,2.493
265.73,2.499
266.24,2.506
266.75,2.513
267.26,2.523
267.77,2.528
268.28,2.540
268.79,2.557
269.30,2.581
269.80,2.593
270.31,2.613
270.82,2.625
271.33,2.623
271.84,2.616
272.35,2.595
272.86,2.560
273.37,2.506
273.88,2.484
274.39,2.467
274.90,2.462
275.41,2.462
275.92,2.465
276.43,2.471
277.45,2.515
277.96,2.532
278.47,2.545
278.98,2.550
279.49,2.542
280.00,2.501
280.50,2.410
281.01,2.320
281.52,2.218
282.03,2.116
282.54,2.057
##END=
