##TITLE=Theophylline
##JCAMP-DX=4.24
##DATA TYPE=UV/VIS SPECTRUM
##ORIGIN=INSTITUTE OF ENERGY PROBLEMS OF CHEMICAL PHYSICS, RAS
##OWNER=INEP CP RAS, NIST OSRD
Collection (C) 2007 copyright by the U.S. Secretary of Commerce
on behalf of the United States of America. All rights reserved.
##CAS REGISTRY NO=58-55-9
##MOLFORM=C7H8N4O2
##MP=273
##SOURCE REFERENCE=RAS UV No. 4832
##$NIST SQUIB=1978FUC/GOT982-995
##$NIST SOURCE=TSGMTE
##SPECTROMETER/DATA SYSTEM=Cary Model 1115/15
##XUNITS=Wavelength (nm)
##YUNITS=Logarithm epsilon
##XFACTOR=1.000000
##YFACTOR=1.000000
##FIRSTX=211.1889
##LASTX=291.9329
##FIRSTY=4.20271
##MAXX=291.933
##MINX=211.189
##MAXY=4.20271
##MINY=3.23226
##NPOINTS=135
##$REF AUTHOR=Fuchs, H.; Gottlieb, M.; Pfleiderer, W.
##$REF TITLE=Uber die cyclisierung von 4-alkylamino-5-nitrosouracilen und die synthese von 8-substituierten xanthinen und bis(theophyllin-8-yl)-alkan-derivaten
##$REF JOURNAL=Chem. Ber.
##$REF VOLUME=111
##$REF PAGE=982-995
##$REF DATE=1978
##XYPOINTS=(XY..XY)
211.1889,4.202714
211.6921,4.183356
212.1422,4.160236
212.5368,4.135160
212.8733,4.109937
213.1491,4.086373
213.3618,4.066276
213.3618,4.066276
213.8052,4.049291
214.4108,4.019718
215.3982,3.979582
215.7365,3.960625
216.1017,3.941603
216.4938,3.922534
216.9128,3.903436
217.3588,3.884330
217.8316,3.865232
218.3313,3.846161
218.8579,3.827137
219.4113,3.808177
219.9915,3.789300
220.5986,3.770525
221.2325,3.751870
221.8932,3.733354
222.5806,3.714994
223.2948,3.696811
223.2948,3.696811
224.7606,3.671569
226.1784,3.653068
227.8957,3.636830
230.2601,3.618379
230.2601,3.618379
231.4378,3.601023
232.4839,3.582994
233.4233,3.564389
234.2809,3.545305
235.0814,3.525840
235.8499,3.506091
236.6110,3.486156
237.3896,3.466133
238.2107,3.446118
239.0990,3.426210
239.0990,3.426210
240.9616,3.410455
242.5452,3.405444
244.1381,3.411241
246.0284,3.427912
246.0284,3.427912
246.3245,3.435219
246.8939,3.447456
247.6910,3.463995
248.6701,3.484204
249.7854,3.507452
250.9913,3.533109
252.2420,3.560545
252.2420,3.560545
252.9697,3.580049
253.6974,3.599551
254.4251,3.619049
255.1528,3.638541
255.8806,3.658026
256.6083,3.677501
257.3360,3.696964
258.0637,3.716414
258.7915,3.735849
258.7915,3.735849
259.4317,3.755094
260.0738,3.774359
260.7196,3.793629
261.3709,3.812887
262.0297,3.832118
262.6978,3.851307
263.3771,3.870436
264.0695,3.889492
264.7768,3.908457
265.5008,3.927317
266.2435,3.946055
267.0068,3.964655
267.7924,3.983103
268.6023,4.001382
268.6023,4.001382
269.1223,4.005084
269.4587,4.008876
269.8997,4.016009
269.8997,4.016009
271.9594,4.014922
273.1783,4.004544
274.1084,3.989048
275.3016,3.972605
275.3016,3.972605
275.4844,3.962170
275.6430,3.956836
275.9134,3.952032
275.9134,3.952032
276.3386,3.933877
276.7648,3.915710
277.1918,3.897533
277.6195,3.879345
278.0477,3.861146
278.4762,3.842936
278.9048,3.824715
279.3335,3.806483
279.7619,3.788241
280.1899,3.769989
280.6173,3.751725
281.0439,3.733451
281.4696,3.715168
281.8943,3.696873
282.3176,3.678568
282.7394,3.660254
283.1596,3.641929
283.5779,3.623594
283.9942,3.605249
284.4083,3.586894
284.8201,3.568530
285.2293,3.550156
285.6357,3.531772
286.0393,3.513378
286.4397,3.494975
286.8369,3.476562
287.2307,3.458141
287.6208,3.439709
288.0071,3.421269
288.3894,3.402819
288.7675,3.384360
289.1413,3.365892
289.5106,3.347416
289.8751,3.328930
290.2348,3.310435
290.5894,3.291932
290.9388,3.273420
291.4277,3.263850
291.5065,3.257269
291.6940,3.248509
291.9329,3.232256
##END=
