##TITLE=Nitrosobenzene
##JCAMP-DX=4.24
##DATA TYPE=UV/VIS SPECTRUM
##ORIGIN=INSTITUTE OF ENERGY PROBLEMS OF CHEMICAL PHYSICS, RAS
##OWNER=INEP CP RAS, NIST OSRD
Collection (C) 2007 copyright by the U.S. Secretary of Commerce
on behalf of the United States of America. All rights reserved.
##CAS REGISTRY NO=586-96-9
##MOLFORM=C6H5NO
##MP=68.5
##BP=58(18)
##SOURCE REFERENCE=RAS UV No. 82
##$NIST SQUIB=1949RAM/MAR905-917
##$NIST SOURCE=TSGMTE
##SPECTROMETER/DATA SYSTEM=n.i.g.
##XUNITS=Wavelength (nm)
##YUNITS=Logarithm epsilon
##XFACTOR=1.000000
##YFACTOR=1.000000
##FIRSTX=230.0000
##LASTX=299.0000
##FIRSTY=3.82
##MAXX=299
##MINX=230
##MAXY=4.28
##MINY=2.94
##NPOINTS=70
##$REF AUTHOR=Ramart-Lucas, P.; Martynoff, M.M.; Grumez, M.; Chauvin, M.
##$REF TITLE=Sur la natrue de l'isomerie des nitrosophenols d'apres leurs spectres d'absorption (Quatrieme Memoire: Derives acyles)
##$REF JOURNAL=Bull. Soc. Chim. Fr.
##$REF VOLUME=16
##$REF PAGE=905-917
##$REF DATE=1949
##XYPOINTS=(XY..XY)
230.0000,3.820000
231.0000,3.790000
232.0000,3.980000
233.0000,3.940000
234.0000,3.900000
235.0000,4.010000
236.0000,4.050000
237.0000,4.070000
238.0000,4.090000
239.0000,4.200000
240.0000,4.170000
241.0000,4.150000
242.0000,4.210000
243.0000,4.230000
244.0000,4.260000
245.0000,4.260000
246.0000,4.270000
247.0000,4.260000
248.0000,4.280000
249.0000,4.280000
250.0000,4.270000
251.0000,4.270000
252.0000,4.280000
253.0000,4.280000
254.0000,4.270000
255.0000,4.260000
256.0000,4.200000
257.0000,4.210000
258.0000,4.230000
259.0000,4.180000
260.0000,4.110000
261.0000,4.130000
262.0000,4.150000
263.0000,4.180000
264.0000,4.080000
265.0000,4.050000
266.0000,4.000000
267.0000,4.020000
268.0000,3.970000
269.0000,3.930000
270.0000,3.880000
271.0000,3.850000
272.0000,3.850000
273.0000,3.770000
274.0000,3.810000
275.0000,3.750000
276.0000,3.700000
277.0000,3.650000
278.0000,3.500000
279.0000,3.540000
280.0000,3.470000
281.0000,3.380000
282.0000,3.350000
283.0000,3.290000
284.0000,3.220000
285.0000,3.220000
286.0000,3.230000
287.0000,3.220000
288.0000,3.230000
289.0000,3.240000
290.0000,3.250000
291.0000,3.240000
292.0000,3.170000
293.0000,3.120000
294.0000,3.040000
295.0000,3.010000
296.0000,2.960000
297.0000,2.940000
298.0000,3.010000
299.0000,2.980000
##END=
