##TITLE=Triphenylethylene
##JCAMP-DX=4.24
##DATA TYPE=UV/VIS SPECTRUM
##ORIGIN=INSTITUTE OF ENERGY PROBLEMS OF CHEMICAL PHYSICS, RAS
##OWNER=INEP CP RAS, NIST OSRD
Collection (C) 2007 copyright by the U.S. Secretary of Commerce
on behalf of the United States of America. All rights reserved.
##CAS REGISTRY NO=58-72-0
##MOLFORM=C20H16
##MP=67
##SOURCE REFERENCE=RAS UV No. 8766
##$NIST SQUIB=1968LAN146
##$NIST SOURCE=TSGMTE
##SPECTROMETER/DATA SYSTEM=Unicam SP 700 numerical data of recording
##XUNITS=Wavelength (nm)
##YUNITS=Logarithm epsilon
##XFACTOR=1.000000
##YFACTOR=1.000000
##FIRSTX=208.5944
##LASTX=344.5964
##FIRSTY=4.57352
##MAXX=344.596
##MINX=208.594
##MAXY=4.57352
##MINY=2.80043
##NPOINTS=682
##$REF AUTHOR=Lang (ed., L.
##$REF JOURNAL=Absorption Spectra in the Ultraviolet and Visible Region
##$REF VOLUME=2
##$REF PAGE=146
##$REF DATE=1968
##XYPOINTS=(XY..XY)
208.5944,4.573521
208.5967,4.567381
208.7993,4.567402
208.8029,4.560238
208.9430,4.553089
208.9564,4.557183
209.0957,4.550034
209.0957,4.546964
209.2992,4.536751
209.2994,4.542891
209.6031,4.526548
209.6042,4.529618
209.8068,4.522475
209.8076,4.516335
209.9606,4.512256
209.9606,4.509186
210.1133,4.506132
210.1133,4.502038
210.3591,4.471373
210.5128,4.468318
210.5151,4.465249
210.6478,4.455029
210.6691,4.461170
210.8523,4.450956
210.8581,4.447886
211.0109,4.444831
211.0126,4.440738
211.1672,4.437683
211.1689,4.430520
211.3731,4.427470
211.3739,4.424400
211.5261,4.420322
211.5276,4.414182
211.6799,4.410104
211.6814,4.403963
211.8841,4.399890
211.8848,4.396820
212.0386,4.393766
212.0396,4.389672
212.6261,4.369262
212.6269,4.366192
212.7796,4.363137
212.7806,4.359044
212.9840,4.355994
212.9858,4.348830
213.1378,4.348846
213.1386,4.345776
213.2913,4.342721
213.2931,4.335557
213.4965,4.332508
213.4975,4.328414
213.6503,4.325360
213.6511,4.322290
213.8041,4.318211
213.8056,4.312071
214.0083,4.312092
214.0100,4.304928
214.1620,4.304944
214.1638,4.297780
214.3158,4.297795
214.3166,4.294725
214.5192,4.294746
214.5210,4.287582
214.6730,4.287598
214.6737,4.284528
214.8257,4.284543
214.8275,4.277379
215.0302,4.277400
215.0309,4.274330
215.1829,4.274345
215.1837,4.271275
215.3357,4.271290
215.3367,4.267197
215.5394,4.267217
215.5401,4.264147
215.6921,4.264163
215.6929,4.261093
215.8449,4.261108
216.3541,4.250925
216.5567,4.250946
216.5577,4.246853
216.8617,4.246883
216.8625,4.243813
217.2172,4.243849
217.3699,4.240794
217.7246,4.240830
217.7256,4.236737
219.3965,4.240999
219.3976,4.236905
219.7512,4.241035
219.9024,4.244120
220.2563,4.247226
220.2571,4.244156
220.4083,4.247241
220.6100,4.251355
220.7612,4.254441
220.7620,4.251371
220.9132,4.254456
221.1151,4.257547
221.2661,4.261655
221.2671,4.257562
221.6208,4.261691
221.7720,4.264777
221.9232,4.267862
221.9240,4.264792
222.1259,4.267883
222.4281,4.275077
222.7820,4.278183
222.7828,4.275113
222.9340,4.278198
223.1357,4.282312
223.4397,4.282343
223.6416,4.285433
223.9448,4.288534
223.9456,4.285464
224.2984,4.292663
224.2995,4.288570
224.6531,4.292699
224.8043,4.295785
225.1590,4.295820
225.3102,4.298906
225.8169,4.298957
225.9679,4.303066
226.4745,4.303117
226.6764,4.306207
227.1831,4.306259
227.3343,4.309344
229.2090,4.309533
229.3617,4.306479
229.8684,4.306530
230.0211,4.303475
230.7304,4.303547
230.8835,4.299469
231.2381,4.299504
231.2389,4.296434
231.7455,4.296486
231.7463,4.293415
232.0503,4.293446
232.2540,4.289373
232.4060,4.289389
232.5587,4.286334
232.7614,4.286354
232.9141,4.283300
233.2688,4.283335
233.4218,4.279257
233.5738,4.279273
233.7772,4.276223
234.0812,4.276254
234.4376,4.269126
234.5896,4.269141
234.7931,4.266092
234.9451,4.266107
235.0978,4.263052
235.3005,4.263073
235.4535,4.258995
235.6055,4.259010
235.8089,4.255960
235.9609,4.255976
236.1137,4.252921
236.3163,4.252942
236.3173,4.248848
236.6213,4.248879
236.8248,4.245829
236.9768,4.245845
237.3332,4.238717
237.4852,4.238732
237.6379,4.235677
237.8406,4.235698
237.8414,4.232628
237.9934,4.232643
238.1464,4.228565
238.3490,4.228586
238.6545,4.222476
238.8572,4.222497
238.8582,4.218403
239.1622,4.218434
239.1630,4.215364
239.3656,4.215384
239.5184,4.212329
239.6704,4.212345
240.0268,4.205217
240.1788,4.205232
240.3822,4.202183
240.5342,4.202198
240.6873,4.198120
240.8899,4.198141
241.1954,4.192031
241.3981,4.192052
241.7039,4.184919
241.9065,4.184939
241.9073,4.181869
242.0593,4.181884
242.4157,4.174757
242.5677,4.174772
242.5685,4.171702
242.7205,4.171717
242.9241,4.167644
243.0761,4.167660
243.5853,4.157477
243.7373,4.157493
243.7381,4.154423
243.9407,4.154443
244.6027,4.141206
244.7547,4.141221
244.7557,4.137128
244.9584,4.137148
245.6203,4.123911
245.7723,4.123926
245.7731,4.120856
245.9757,4.120877
245.9767,4.116783
246.1287,4.116799
247.1471,4.096434
247.2991,4.096449
248.0125,4.080147
248.0135,4.076054
248.1655,4.076069
248.6747,4.065886
248.6755,4.062816
248.8274,4.062832
248.8282,4.059762
249.0309,4.059782
249.0319,4.055689
249.8466,4.039397
249.8476,4.035303
250.0503,4.035324
250.0510,4.032254
250.7130,4.019017
250.7140,4.014923
250.8660,4.014938
250.8667,4.011868
251.0694,4.011889
251.0702,4.008819
252.0885,3.988454
252.0896,3.984360
252.2416,3.984376
252.2423,3.981306
252.3943,3.981321
252.3951,3.978251
252.5977,3.978271
252.7507,3.974193
252.7515,3.971123
252.9035,3.971139
252.9043,3.968069
253.1069,3.968089
253.1079,3.963996
253.2599,3.964011
254.1253,3.947724
254.2773,3.947739
254.2783,3.943646
254.4303,3.943661
254.4311,3.940591
254.6337,3.940612
254.7865,3.937557
254.9385,3.937572
255.1422,3.933499
255.2942,3.933515
255.4469,3.930460
255.6496,3.930480
255.8023,3.927426
255.9543,3.927441
256.1580,3.923368
256.9687,3.923450
256.9694,3.920380
257.1721,3.920400
258.3374,3.920518
258.4886,3.923603
259.5019,3.923706
259.7036,3.927820
260.0076,3.927850
260.2095,3.930941
260.5135,3.930972
260.7154,3.934062
260.8674,3.934078
261.0184,3.938186
261.3730,3.938222
261.5243,3.941308
261.8782,3.944414
261.8789,3.941343
262.0302,3.944429
262.3830,3.951628
262.5350,3.951644
262.7369,3.954734
262.8889,3.954749
263.0399,3.958858
263.2418,3.961949
263.2426,3.958879
263.5451,3.965050
263.5458,3.961980
263.7477,3.965070
264.0499,3.972264
264.2518,3.975355
264.2526,3.972285
264.4028,3.979464
264.4038,3.975370
264.5548,3.979479
264.9080,3.985655
265.0600,3.985670
265.2616,3.989784
265.4128,3.992870
265.4136,3.989800
265.5641,3.995955
265.5648,3.992885
265.7667,3.995976
266.4218,4.010369
266.5731,4.013455
266.5738,4.010385
266.7750,4.016545
266.7757,4.013475
267.0780,4.020669
267.0790,4.016576
267.2799,4.023760
267.2806,4.020690
267.4311,4.026845
267.4319,4.023775
267.5821,4.030954
267.5831,4.026861
267.7840,4.034045
267.7848,4.030975
268.0872,4.037145
268.0880,4.034075
268.2889,4.041259
268.2899,4.037166
268.4401,4.044345
268.4409,4.041275
268.5913,4.047430
268.5921,4.044360
268.9450,4.051559
268.9460,4.047466
269.0962,4.054645
269.0970,4.051575
269.2981,4.057735
269.2989,4.054665
269.4491,4.061844
269.4501,4.057751
269.6011,4.061860
269.8030,4.064950
269.9543,4.068036
269.9550,4.064965
270.1052,4.072144
270.1063,4.068051
270.3071,4.075235
270.3079,4.072165
270.4584,4.078320
270.4591,4.075250
270.8120,4.082450
270.8130,4.078356
270.9633,4.085535
270.9640,4.082465
271.1153,4.085550
273.3352,4.123640
273.4864,4.126725
273.4872,4.123655
273.6376,4.129811
273.6384,4.126741
273.8403,4.129831
273.9913,4.133940
274.1425,4.137025
274.1433,4.133955
274.3444,4.140116
274.3452,4.137046
274.4954,4.144225
274.4964,4.140131
274.8493,4.147331
274.8501,4.144261
275.0006,4.150416
275.0013,4.147346
275.1515,4.154525
275.1525,4.150431
275.3534,4.157615
275.3542,4.154545
275.5047,4.160701
275.5054,4.157631
275.8583,4.164830
275.8593,4.160737
276.0096,4.167916
276.0103,4.164846
276.1608,4.171001
276.1616,4.167931
276.3635,4.171022
276.5144,4.175130
276.6657,4.178216
276.6664,4.175146
276.8683,4.178236
277.0196,4.181322
277.1706,4.185430
277.1716,4.181337
277.3725,4.188521
277.3732,4.185451
277.5245,4.188536
277.6757,4.191622
277.8773,4.195736
277.8784,4.191642
278.0293,4.195751
278.3825,4.201927
278.5335,4.206036
278.5345,4.201942
278.8874,4.209142
278.8881,4.206072
279.0394,4.209157
280.2004,4.226672
280.2014,4.222578
280.4030,4.226692
280.7055,4.232863
280.9071,4.236977
280.9082,4.232884
281.0591,4.236992
281.2104,4.240078
281.4123,4.243168
281.4130,4.240098
281.5643,4.243184
281.7153,4.247293
281.9172,4.250383
281.9179,4.247313
282.2204,4.253484
282.2212,4.250414
282.4231,4.253504
282.5740,4.257613
282.7253,4.260699
282.7260,4.257629
282.9279,4.260719
283.0792,4.263805
283.2302,4.267913
283.2312,4.263820
283.4328,4.267934
283.5841,4.271019
283.7361,4.271035
291.0142,4.343407
291.1662,4.343422
291.3174,4.346507
291.8241,4.346559
292.0257,4.350673
292.5324,4.350724
292.6836,4.353809
293.3423,4.353876
293.5442,4.356966
294.3548,4.357048
294.5565,4.361162
295.0631,4.361213
295.2144,4.364299
298.2543,4.364606
298.4071,4.361551
299.1164,4.361623
299.1174,4.357529
299.6240,4.357580
299.7768,4.354526
300.1315,4.354561
300.2842,4.351507
300.9429,4.351573
301.1465,4.347500
301.4505,4.347531
311.9687,4.225787
312.1207,4.225802
312.1215,4.222732
312.3241,4.222752
312.3249,4.219682
312.4769,4.219698
312.4779,4.215604
312.6299,4.215620
312.6307,4.212550
312.8333,4.212570
312.8341,4.209500
313.1381,4.209531
313.1391,4.205437
313.3418,4.205458
313.3425,4.202388
313.6483,4.195255
313.8510,4.195275
313.8517,4.192205
314.0037,4.192220
314.0045,4.189150
316.5514,4.134145
316.7034,4.134160
316.7042,4.131090
316.9069,4.131110
316.9076,4.128040
317.2134,4.120908
317.2141,4.117837
317.4168,4.117858
317.4178,4.113764
317.5698,4.113780
317.5706,4.110710
317.9270,4.103582
317.9278,4.100512
318.0798,4.100527
318.0805,4.097457
318.5897,4.087275
318.5907,4.083181
318.7427,4.083197
318.7435,4.080127
318.9461,4.080147
318.9469,4.077077
319.0999,4.072999
319.1007,4.069929
319.2527,4.069944
319.2534,4.066874
319.4561,4.066895
319.4571,4.062801
319.6099,4.059746
319.6106,4.056676
319.7626,4.056692
319.7636,4.052598
319.9663,4.052619
319.9671,4.049549
322.0089,3.988352
322.1609,3.988367
322.1616,3.985297
322.3146,3.981219
322.3154,3.978149
322.5181,3.978169
322.5188,3.975099
322.6718,3.971021
322.6726,3.967951
322.8246,3.967966
322.8264,3.960803
323.0290,3.960823
323.0298,3.957753
323.1826,3.954698
323.1836,3.950605
323.3363,3.947550
323.3371,3.944480
323.5397,3.944501
323.5408,3.940407
323.6935,3.937352
323.6943,3.934282
323.8473,3.930204
323.8480,3.927134
324.0507,3.927155
324.0515,3.924085
324.2045,3.920006
324.2052,3.916936
324.3572,3.916952
324.3590,3.909788
324.5617,3.909809
324.5632,3.903668
324.7152,3.903684
324.7162,3.899590
324.8690,3.896536
324.8697,3.893466
325.0734,3.889393
325.0742,3.886323
325.2269,3.883268
325.2279,3.879174
325.3799,3.879190
325.3807,3.876120
325.5841,3.873070
325.5851,3.868977
325.7379,3.865922
325.7386,3.862852
328.9594,3.746511
328.9610,3.740371
329.1636,3.740391
329.1654,3.733228
329.3174,3.733243
329.3192,3.726080
329.4712,3.726095
329.4737,3.715861
329.6764,3.715882
329.6779,3.709742
329.8299,3.709757
329.8317,3.702593
329.9837,3.702609
329.9862,3.692375
330.1888,3.692396
330.1906,3.685232
330.3426,3.685247
330.3452,3.675014
330.4971,3.675029
330.4987,3.668889
330.7013,3.668909
330.7031,3.661746
330.8559,3.658691
333.0649,3.536108
333.2675,3.536128
333.2701,3.525895
333.4221,3.525910
333.4246,3.515676
333.5766,3.515692
333.5791,3.505458
333.7818,3.505479
333.7836,3.498315
333.9363,3.495260
333.9389,3.485027
334.0909,3.485042
334.0934,3.474809
334.2961,3.474829
334.2986,3.464595
334.4506,3.464611
334.4531,3.454377
334.6051,3.454393
334.6069,3.447229
334.8103,3.444179
334.8128,3.433946
334.9659,3.429868
334.9674,3.423727
335.1204,3.419649
335.1219,3.413509
335.3246,3.413530
335.3271,3.403296
335.4801,3.399218
335.4816,3.393078
335.6346,3.389000
335.6362,3.382860
335.8398,3.378787
335.8414,3.372646
335.9944,3.368568
335.9959,3.362428
336.1489,3.358350
336.1504,3.352210
338.4144,3.212235
338.5672,3.209180
338.5689,3.202016
338.7217,3.198962
338.7235,3.191798
338.9269,3.188748
338.9294,3.178515
339.0824,3.174437
339.0840,3.168297
339.2370,3.164218
339.2395,3.153985
339.4429,3.150935
339.4455,3.140702
339.5982,3.137647
339.5992,3.133553
339.7520,3.130499
339.7538,3.123335
339.9572,3.120286
339.9597,3.110052
340.1125,3.106997
340.1142,3.099834
340.2670,3.096779
340.2688,3.089615
340.4722,3.086566
340.4740,3.079402
340.6267,3.076348
340.6293,3.066114
340.7823,3.062036
340.7838,3.055896
340.9875,3.051823
340.9890,3.045683
341.1420,3.041604
341.1445,3.031371
341.2973,3.028316
341.2998,3.018083
341.5032,3.015033
341.5043,3.010939
341.6570,3.007885
341.6595,2.997651
341.8123,2.994596
341.8141,2.987433
342.0167,2.987453
342.0193,2.977220
342.1720,2.974165
342.1738,2.967001
342.3258,2.967017
342.3283,2.956783
342.5318,2.953734
342.5343,2.943500
342.6873,2.939422
342.6898,2.929188
342.8426,2.926134
342.8444,2.918970
343.0478,2.915920
343.0496,2.908757
343.2023,2.905702
343.2048,2.895469
343.3576,2.892414
343.3601,2.882180
343.5638,2.878107
343.5653,2.871967
343.7173,2.871982
343.7199,2.861749
343.8729,2.857671
343.8754,2.847437
344.0788,2.844387
344.0806,2.837224
344.2334,2.834169
344.2359,2.823936
344.3887,2.820881
344.3904,2.813717
344.5938,2.810668
344.5964,2.800434
##END=
