##TITLE=3-Methylbenzyl alcohol
##JCAMP-DX=4.24
##DATA TYPE=UV/VIS SPECTRUM
##ORIGIN=INSTITUTE OF ENERGY PROBLEMS OF CHEMICAL PHYSICS, RAS
##OWNER=INEP CP RAS, NIST OSRD
Collection (C) 2007 copyright by the U.S. Secretary of Commerce
on behalf of the United States of America. All rights reserved.
##CAS REGISTRY NO=587-03-1
##MOLFORM=C8H10O
##MP=< -20
##BP=215.5
##SOURCE REFERENCE=RAS UV No. 5408
##$NIST SQUIB=1952ENT/RUO441-444
##$NIST SOURCE=TSGMTE
##SPECTROMETER/DATA SYSTEM=n.i.g.
##XUNITS=Wavelength (nm)
##YUNITS=Logarithm epsilon
##XFACTOR=1.000000
##YFACTOR=1.000000
##FIRSTX=228.7254
##LASTX=280.6627
##FIRSTY=2.19275
##MAXX=280.663
##MINX=228.725
##MAXY=2.38224
##MINY=0.679392
##NPOINTS=109
##$REF AUTHOR=Entel, J.; Ruof, C.H.; Howard, H.C.
##$REF TITLE=The nature of oxygen in coal: preparation and properties of phthalan
##$REF JOURNAL=J. Am. Chem. Soc.
##$REF VOLUME=74
##$REF PAGE=441-444
##$REF DATE=1952
##XYPOINTS=(XY..XY)
228.7254,2.192753
228.9980,2.131313
229.2786,2.069708
229.7239,1.957432
229.8746,1.912949
230.0261,1.868413
230.1789,1.823833
230.3334,1.779219
230.4899,1.734578
230.6490,1.689920
230.8110,1.645253
230.8110,1.645253
231.0606,1.612225
231.4524,1.563811
232.0148,1.510727
232.7762,1.463694
233.7649,1.433431
233.7649,1.433431
234.0518,1.436358
234.3387,1.439287
234.6256,1.442216
234.6256,1.442216
235.4400,1.481265
236.2545,1.520294
237.0691,1.559303
237.8840,1.598294
238.6991,1.637269
239.5147,1.676229
240.3307,1.715176
241.1473,1.754112
241.9645,1.793038
242.7823,1.831956
243.6010,1.870867
244.4206,1.909774
245.2410,1.948677
246.0625,1.987579
246.0625,1.987579
247.2393,2.027115
248.4165,2.066643
249.5946,2.106153
250.7739,2.145638
251.9548,2.185087
253.1379,2.224493
254.3235,2.263846
255.5119,2.303139
255.5119,2.303139
257.3893,2.345690
258.7120,2.369647
260.2999,2.380127
262.9723,2.382242
262.9723,2.382242
264.2240,2.345442
265.2156,2.305834
266.0159,2.263781
266.6934,2.219645
267.3168,2.173788
267.9548,2.126574
267.9548,2.126574
268.1791,2.122826
268.4193,2.118912
268.6674,2.114667
268.6674,2.114667
269.3086,2.137875
269.5818,2.178731
270.0769,2.222060
271.3839,2.252687
271.3839,2.252687
271.5705,2.240615
271.7729,2.228213
271.9832,2.215646
271.9832,2.215646
272.1742,2.177344
272.3585,2.139024
272.5368,2.100687
272.7095,2.062335
272.8774,2.023968
273.0412,1.985587
273.2013,1.947193
273.3585,1.908788
273.5135,1.870372
273.6668,1.831946
273.8191,1.793510
273.9710,1.755067
274.1232,1.716618
274.2764,1.678161
274.4310,1.639701
274.5878,1.601235
274.7474,1.562767
274.9105,1.524296
275.0777,1.485825
275.2496,1.447353
275.4269,1.408882
275.6102,1.370415
276.2025,1.255029
276.4161,1.216578
276.6390,1.178131
276.8717,1.139693
277.1149,1.101266
277.3691,1.062845
277.6351,1.024436
277.9135,0.986041
278.2049,0.947654
278.5100,0.909283
278.8293,0.870925
279.1636,0.832586
279.5134,0.794258
279.8795,0.755951
280.2624,0.717662
280.6627,0.679392
##END=
