##TITLE=2,5-dihydro-5-methoxy-2,2-dimethyl-4-phenyl-5-(trifluoromethyl)oxazole
##JCAMP-DX=4.24
##DATA TYPE=UV/VIS SPECTRUM
##ORIGIN=INSTITUTE OF ENERGY PROBLEMS OF CHEMICAL PHYSICS, RAS
##OWNER=INEP CP RAS, NIST OSRD
Collection (C) 2007 copyright by the U.S. Secretary of Commerce
on behalf of the United States of America. All rights reserved.
##CAS REGISTRY NO=58913-92-1
##MOLFORM=C13H14F3NO2
##SOURCE REFERENCE=RAS UV No. 22729
##$NIST SQUIB=1977GER/687
##$NIST SOURCE=TYUGLMTE
##SPECTROMETER/DATA SYSTEM=unknown
##XUNITS=Wavelength (nm)
##YUNITS=Logarithm epsilon
##XFACTOR=1.0
##YFACTOR=1.0
##FIRSTX=218.257
##LASTX=291.255
##FIRSTY=3.957
##MAXX=291.255
##MINX=218.257
##MAXY=4.198
##MINY=2.329
##NPOINTS=149
##$REF AUTHOR=Gerber, U.; et al.
##$REF JOURNAL=Helv. Chim. Acta
##$REF VOLUME=60
##$REF PAGE=687
##$REF DATE=1977
##XYPOINTS=(XY..XY)
218.257,3.957
218.757,3.880
219.257,3.805
219.757,3.734
220.257,3.667
220.757,3.606
221.257,3.551
221.757,3.501
222.257,3.458
222.757,3.421
223.257,3.389
223.757,3.363
224.257,3.341
224.757,3.325
225.257,3.314
225.757,3.310
226.257,3.311
226.757,3.319
227.257,3.333
227.757,3.354
228.257,3.380
228.757,3.411
229.257,3.445
229.757,3.481
230.257,3.516
230.757,3.550
231.238,3.577
231.738,3.607
232.238,3.637
232.738,3.666
233.238,3.694
233.738,3.721
234.238,3.747
234.738,3.772
235.238,3.797
235.738,3.820
236.238,3.843
236.738,3.865
237.238,3.886
237.738,3.906
238.238,3.926
238.738,3.945
239.238,3.963
239.738,3.981
240.238,3.998
240.738,4.015
241.238,4.031
241.738,4.047
242.238,4.062
242.738,4.076
243.238,4.090
243.738,4.103
244.238,4.116
244.738,4.128
245.238,4.139
245.578,4.148
246.078,4.157
246.578,4.165
247.078,4.172
247.578,4.178
248.078,4.183
248.578,4.187
249.078,4.190
249.578,4.193
250.078,4.195
250.578,4.197
251.078,4.198
251.578,4.198
252.078,4.198
252.578,4.197
253.078,4.196
253.578,4.193
254.078,4.190
254.578,4.186
255.078,4.182
255.578,4.176
256.078,4.170
256.578,4.163
257.078,4.155
257.578,4.147
258.063,4.140
258.563,4.126
259.063,4.112
259.563,4.097
260.063,4.081
260.563,4.065
261.063,4.048
261.563,4.030
262.063,4.012
262.563,3.994
263.063,3.974
263.563,3.954
264.063,3.934
264.563,3.912
265.063,3.890
265.563,3.866
266.063,3.841
266.563,3.814
267.063,3.786
267.563,3.756
268.063,3.724
268.563,3.689
269.063,3.653
269.563,3.613
270.063,3.571
270.563,3.527
271.063,3.481
271.167,3.468
271.667,3.420
272.167,3.372
272.667,3.325
273.167,3.280
273.667,3.236
274.167,3.194
274.667,3.155
275.167,3.119
275.667,3.085
276.167,3.055
276.667,3.028
277.167,3.005
277.667,2.984
278.167,2.967
278.667,2.951
279.167,2.937
279.667,2.924
280.167,2.912
280.667,2.899
281.167,2.886
281.667,2.873
282.167,2.857
282.667,2.840
283.167,2.820
283.667,2.798
284.167,2.773
284.667,2.745
285.167,2.715
285.667,2.683
285.755,2.678
286.255,2.643
286.755,2.606
287.255,2.569
287.755,2.532
288.255,2.495
288.755,2.461
289.255,2.429
289.755,2.400
290.255,2.374
290.755,2.351
291.255,2.329
##END=
