##TITLE=Pyridine, 2,5-dimethyl-
##JCAMP-DX=4.24
##DATA TYPE=UV/VIS SPECTRUM
##ORIGIN=INSTITUTE OF ENERGY PROBLEMS OF CHEMICAL PHYSICS, RAS
##OWNER=INEP CP RAS, NIST OSRD
Collection (C) 2007 copyright by the U.S. Secretary of Commerce
on behalf of the United States of America. All rights reserved.
##CAS REGISTRY NO=589-93-5
##MOLFORM=C7H9N
##MP=- 16
##BP=157.0
##SOURCE REFERENCE=RAS UV No. 12276
##$NIST SQUIB=1954AND/HER918
##$NIST SOURCE=TYUGLMTE
##SPECTROMETER/DATA SYSTEM=Unicam SP 500
##XUNITS=Wavelength (nm)
##YUNITS=Logarithm epsilon
##XFACTOR=1.0
##YFACTOR=1.0
##FIRSTX=238.52
##LASTX=283.42
##FIRSTY=3.006
##MAXX=283.42
##MINX=238.52
##MAXY=3.581
##MINY=2.508
##NPOINTS=112
##$REF AUTHOR=Andon, R.J.L.; Herington, E.F.G.
##$REF JOURNAL=Trans. Faraday Soc.
##$REF VOLUME=50
##$REF PAGE=918
##$REF DATE=1954
##XYPOINTS=(XY..XY)
238.52,3.006
239.05,3.016
239.57,3.025
240.10,3.030
240.62,3.034
241.09,3.048
241.61,3.057
242.13,3.066
242.66,3.074
243.18,3.083
243.65,3.095
244.17,3.099
244.64,3.111
245.16,3.122
245.63,3.133
246.09,3.144
246.62,3.151
247.08,3.162
247.61,3.172
248.07,3.182
248.54,3.192
249.01,3.204
249.47,3.214
249.88,3.229
250.34,3.240
250.81,3.249
251.22,3.263
251.68,3.271
252.09,3.284
252.56,3.297
252.97,3.309
253.37,3.324
253.84,3.335
254.25,3.347
254.65,3.360
255.06,3.371
255.47,3.381
255.88,3.394
256.28,3.404
256.69,3.415
257.10,3.427
257.51,3.438
257.86,3.449
258.26,3.459
258.67,3.470
259.08,3.480
259.49,3.488
259.89,3.497
260.30,3.505
260.71,3.513
261.18,3.521
261.64,3.528
262.11,3.534
262.57,3.540
263.04,3.544
263.51,3.548
263.91,3.555
264.32,3.562
264.79,3.569
265.25,3.575
265.78,3.579
266.30,3.580
266.82,3.581
267.35,3.577
267.81,3.572
268.28,3.566
268.69,3.558
269.10,3.550
269.44,3.541
269.79,3.533
270.14,3.522
270.43,3.512
270.78,3.502
271.13,3.491
271.54,3.481
272.01,3.473
272.47,3.468
273.00,3.463
273.46,3.456
273.87,3.445
274.22,3.432
274.57,3.419
274.80,3.404
275.03,3.388
275.33,3.371
275.50,3.354
275.73,3.335
275.91,3.317
276.08,3.297
276.26,3.276
276.43,3.254
276.55,3.229
276.72,3.204
276.96,3.179
277.13,3.148
277.31,3.118
277.54,3.087
277.77,3.053
278.00,3.016
278.30,2.980
278.53,2.936
278.82,2.887
279.17,2.847
279.52,2.794
279.93,2.743
280.39,2.695
280.86,2.652
281.32,2.605
281.85,2.580
282.37,2.538
282.90,2.524
283.42,2.508
##END=
