##TITLE=5-hydroxy-2-nitro[1,1'-biphenyl]-4-carboxaldehyde
##JCAMP-DX=4.24
##DATA TYPE=UV/VIS SPECTRUM
##ORIGIN=INSTITUTE OF ENERGY PROBLEMS OF CHEMICAL PHYSICS, RAS
##OWNER=INEP CP RAS, NIST OSRD
Collection (C) 2007 copyright by the U.S. Secretary of Commerce
on behalf of the United States of America. All rights reserved.
##CAS REGISTRY NO=58996-81-9
##MOLFORM=C13H9NO4
##MP=152-153
##SOURCE REFERENCE=RAS UV No. 23059
##$NIST SQUIB=1976BRA/GAL200
##$NIST SOURCE=TYUGLMTE
##SPECTROMETER/DATA SYSTEM=VSU-2
##XUNITS=Wavelength (nm)
##YUNITS=Logarithm epsilon
##XFACTOR=1.0
##YFACTOR=1.0
##FIRSTX=223.774
##LASTX=367.264
##FIRSTY=4.068
##MAXX=367.264
##MINX=223.774
##MAXY=4.175
##MINY=2.791
##NPOINTS=98
##$REF AUTHOR=Braude, Ye.V.; Gal'bershtam, M.A.
##$REF JOURNAL=Khim. Geterosikl. Soedin.
##$REF PAGE=200
##$REF DATE=1976
##XYPOINTS=(XY..XY)
223.774,4.068
225.274,4.003
226.774,3.954
228.274,3.917
229.774,3.891
231.274,3.872
232.774,3.858
234.274,3.849
235.774,3.844
237.274,3.841
238.774,3.841
240.274,3.843
241.774,3.846
243.274,3.852
244.774,3.859
246.274,3.869
247.774,3.881
249.274,3.896
249.454,3.895
250.954,3.917
252.454,3.939
253.954,3.960
255.454,3.981
256.954,4.001
258.454,4.020
259.954,4.039
261.454,4.057
262.954,4.074
264.454,4.089
265.954,4.104
267.454,4.118
268.954,4.130
270.454,4.141
271.954,4.150
273.454,4.158
274.954,4.165
276.454,4.170
277.954,4.173
279.454,4.175
280.954,4.175
282.454,4.173
283.954,4.170
285.454,4.164
286.954,4.156
288.454,4.147
289.954,4.135
291.454,4.121
292.954,4.104
294.454,4.085
295.954,4.063
297.454,4.039
298.954,4.012
300.454,3.982
301.293,3.960
302.793,3.929
304.293,3.899
305.793,3.871
307.293,3.847
308.793,3.826
310.293,3.809
311.793,3.796
313.293,3.788
314.793,3.783
316.293,3.783
317.793,3.785
319.293,3.791
320.793,3.798
322.264,3.806
323.764,3.814
325.264,3.819
326.764,3.821
328.264,3.821
329.764,3.819
331.264,3.815
332.764,3.808
334.264,3.799
335.764,3.788
337.264,3.774
338.764,3.757
340.264,3.736
341.764,3.712
343.264,3.685
344.764,3.653
346.264,3.616
347.764,3.575
349.264,3.530
350.764,3.479
352.264,3.424
353.764,3.365
355.264,3.302
356.764,3.235
358.264,3.167
359.764,3.097
361.264,3.027
362.764,2.959
364.264,2.896
365.764,2.839
367.264,2.791
##END=
