##TITLE=Pyridine, 3,5-dimethyl-
##JCAMP-DX=4.24
##DATA TYPE=UV/VIS SPECTRUM
##ORIGIN=INSTITUTE OF ENERGY PROBLEMS OF CHEMICAL PHYSICS, RAS
##OWNER=INEP CP RAS, NIST OSRD
Collection (C) 2007 copyright by the U.S. Secretary of Commerce
on behalf of the United States of America. All rights reserved.
##CAS REGISTRY NO=591-22-0
##MOLFORM=C7H9N
##MP=-6.6
##BP=172
##SOURCE REFERENCE=RAS UV No. 940
##$NIST SQUIB=1954AND/COX918-927
##$NIST SOURCE=TSGMTE
##SPECTROMETER/DATA SYSTEM=Unicam SP 500
##XUNITS=Wavelength (nm)
##YUNITS=Logarithm epsilon
##XFACTOR=1.000000
##YFACTOR=1.000000
##FIRSTX=233.0562
##LASTX=282.3195
##FIRSTY=2.63114
##MAXX=282.32
##MINX=233.056
##MAXY=3.53615
##MINY=2.06133
##NPOINTS=177
##$REF AUTHOR=Andon, R.J.L.; Cox, J.D.; Herington, E.F.G.
##$REF TITLE=The ultra-violet absorption spectra and dissociation constants of certain pyridine bases in aqueous solution
##$REF JOURNAL=Trans. Faraday Soc.
##$REF VOLUME=50
##$REF PAGE=918-927
##$REF DATE=1954
##XYPOINTS=(XY..XY)
233.0562,2.631143
233.0870,2.639494
233.1191,2.647685
233.1538,2.655721
233.1538,2.655721
233.5474,2.665162
233.9404,2.675097
234.3327,2.685455
234.7246,2.696165
235.1159,2.707164
235.5068,2.718392
235.8973,2.729791
236.2875,2.741314
236.6773,2.752909
237.0668,2.764537
237.4562,2.776157
237.8453,2.787736
238.2343,2.799241
238.6232,2.810644
239.0120,2.821921
239.4008,2.833048
239.7896,2.844005
240.1785,2.854774
240.5676,2.865340
240.9567,2.875688
241.3461,2.885805
241.7357,2.895680
242.1257,2.905304
242.5159,2.914667
242.5824,2.914615
242.5824,2.914615
242.5905,2.919001
242.6013,2.923340
242.6135,2.927635
242.6135,2.927635
242.6852,2.912615
242.7366,2.934044
242.7893,2.910464
242.8624,2.940093
242.8961,2.908015
242.9895,2.945928
242.9895,2.945928
243.1536,2.943143
243.4249,2.945582
243.7848,2.952426
244.2147,2.962758
244.6958,2.975641
245.2096,2.990175
245.7372,3.005542
246.2601,3.021016
246.7597,3.035962
246.9873,3.055316
247.0719,3.055268
247.1565,3.055220
247.2171,3.049834
247.2411,3.055173
247.6137,3.062147
247.9310,3.072463
248.1501,3.080372
248.1501,3.080372
248.4727,3.085337
248.7979,3.090244
249.1245,3.095096
249.1245,3.095096
249.4905,3.110082
249.8724,3.124007
250.2647,3.137174
250.6619,3.149852
251.0585,3.162279
251.4491,3.174668
251.8280,3.187209
252.1899,3.200069
252.5293,3.213396
252.5293,3.213396
252.8768,3.224353
253.2207,3.235198
253.5613,3.245928
253.8988,3.256539
254.2334,3.267031
254.5652,3.277402
254.8945,3.287649
255.2214,3.297772
255.5462,3.307771
255.8691,3.317643
256.1902,3.327390
256.5097,3.337010
256.8279,3.346504
257.1449,3.355871
257.4609,3.365113
257.7762,3.374229
258.0909,3.383220
258.4052,3.392086
258.7194,3.400828
259.0335,3.409447
259.3479,3.417943
259.6627,3.426318
259.6627,3.426318
260.1549,3.437127
260.6485,3.447673
261.1448,3.457969
261.1448,3.457969
262.1124,3.473494
262.8410,3.484806
263.3666,3.492732
263.7249,3.497965
263.9518,3.501106
264.0832,3.502708
264.1547,3.503292
264.2023,3.503368
264.2023,3.503368
264.8084,3.513290
265.2221,3.519518
265.5356,3.524169
265.8413,3.529233
265.8413,3.529233
266.3519,3.532679
266.7840,3.535066
267.1695,3.536150
267.5403,3.535682
267.9285,3.533397
268.3660,3.529002
268.8847,3.522165
268.8847,3.522165
269.2268,3.514244
269.5690,3.506177
269.9111,3.497956
269.9111,3.497956
270.1849,3.488819
270.4517,3.479402
270.7187,3.469876
270.9930,3.460427
271.2816,3.451258
271.5915,3.442588
271.9298,3.434653
272.3036,3.427701
272.7199,3.421987
272.7199,3.421987
273.2147,3.419331
273.6428,3.415800
274.0161,3.411031
274.3460,3.404635
274.6444,3.396185
274.9228,3.385200
275.1930,3.371110
275.4667,3.353223
275.4667,3.353223
275.4913,3.352226
275.5167,3.350918
275.5472,3.348844
275.5874,3.345535
275.6416,3.340502
275.7143,3.333215
275.8099,3.323078
275.9329,3.309393
276.0876,3.291305
276.2785,3.267711
276.5101,3.237121
276.7867,3.197402
277.1128,3.145301
277.4928,3.075428
277.4928,3.075428
277.6172,3.061513
277.7621,3.037837
278.0519,2.979493
278.0519,2.979493
278.2877,2.944581
278.4883,2.903491
278.8266,2.825336
278.8266,2.825336
279.0838,2.785451
279.3535,2.722963
280.2056,2.512619
280.6852,2.418577
281.2557,2.277304
281.2557,2.277304
281.7590,2.206979
282.3195,2.061332
##END=
