##TITLE=Phenol, 3-amino-
##JCAMP-DX=4.24
##DATA TYPE=UV/VIS SPECTRUM
##ORIGIN=INSTITUTE OF ENERGY PROBLEMS OF CHEMICAL PHYSICS, RAS
##OWNER=INEP CP RAS, NIST OSRD
Collection (C) 2007 copyright by the U.S. Secretary of Commerce
on behalf of the United States of America. All rights reserved.
##CAS REGISTRY NO=591-27-5
##MOLFORM=C6H7NO
##MP=123
##BP=464/ 11 mm
##SOURCE REFERENCE=RAS UV No. 184
##$NIST SQUIB=1952VAN/DER310
##$NIST SOURCE=TYUGLMTE
##SPECTROMETER/DATA SYSTEM=n.i.g.
##XUNITS=Wavelength (nm)
##YUNITS=Logarithm epsilon
##XFACTOR=1.0
##YFACTOR=1.0
##FIRSTX=253.52
##LASTX=301.62
##FIRSTY=3.446
##MAXX=301.62
##MINX=253.52
##MAXY=3.446
##MINY=3.024
##NPOINTS=100
##$REF AUTHOR=Vanderhaege, H.; Derudder, G.
##$REF JOURNAL=Bull. soc. chim. Belges
##$REF VOLUME=61
##$REF PAGE=310
##$REF DATE=1952
##XYPOINTS=(XY..XY)
253.52,3.446
253.65,3.444
253.78,3.442
253.91,3.441
254.38,3.431
254.55,3.427
255.06,3.410
255.56,3.394
256.08,3.378
256.59,3.363
257.10,3.348
257.62,3.327
258.13,3.305
258.64,3.282
259.15,3.261
259.69,3.236
260.20,3.215
260.73,3.190
261.34,3.163
261.76,3.144
262.22,3.126
262.73,3.106
263.24,3.087
263.76,3.069
264.27,3.048
264.59,3.040
264.91,3.035
265.29,3.031
265.81,3.027
266.29,3.024
266.83,3.024
267.34,3.024
267.85,3.024
268.35,3.025
268.87,3.028
269.38,3.034
269.96,3.043
270.41,3.053
270.73,3.061
271.26,3.075
271.62,3.085
271.97,3.094
272.45,3.109
272.97,3.124
273.48,3.141
273.99,3.153
274.50,3.168
275.02,3.183
275.52,3.200
276.04,3.217
276.58,3.233
277.06,3.245
277.57,3.258
278.05,3.271
278.62,3.285
279.10,3.297
279.63,3.310
280.13,3.318
280.64,3.330
281.17,3.340
281.66,3.348
282.17,3.356
282.69,3.364
283.15,3.372
283.72,3.379
284.21,3.386
284.73,3.394
285.24,3.400
285.74,3.406
286.28,3.412
286.80,3.418
287.29,3.423
287.80,3.428
288.31,3.432
288.82,3.434
289.34,3.436
289.85,3.438
290.34,3.439
290.87,3.440
291.38,3.440
291.89,3.440
292.41,3.440
292.92,3.438
293.36,3.437
293.94,3.434
294.45,3.429
294.93,3.425
295.42,3.419
295.99,3.410
296.50,3.400
297.01,3.388
297.52,3.371
298.03,3.348
298.55,3.327
299.06,3.302
299.57,3.267
300.08,3.229
300.59,3.188
301.10,3.141
301.62,3.090
##END=
