##TITLE=5,8-dihydro-8-methyl-2-(methylamino)-6,7-pteridinedione
##JCAMP-DX=4.24
##DATA TYPE=UV/VIS SPECTRUM
##ORIGIN=INSTITUTE OF ENERGY PROBLEMS OF CHEMICAL PHYSICS, RAS
##OWNER=INEP CP RAS, NIST OSRD
Collection (C) 2007 copyright by the U.S. Secretary of Commerce
on behalf of the United States of America. All rights reserved.
##CAS REGISTRY NO=59101-67-6
##MOLFORM=C8H9N5O2
##MP=> 360
##SOURCE REFERENCE=RAS UV No. 22273
##$NIST SQUIB=1978GOT/PFL1763
##$NIST SOURCE=TYUGLMTE
##SPECTROMETER/DATA SYSTEM=Cary 15
##XUNITS=Wavelength (nm)
##YUNITS=Logarithm epsilon
##XFACTOR=1.0
##YFACTOR=1.0
##FIRSTX=221.551
##LASTX=401.161
##FIRSTY=4.11
##MAXX=401.161
##MINX=221.551
##MAXY=4.342
##MINY=3.167
##NPOINTS=91
##$REF AUTHOR=Gottlieb, R.; Pfleiderer, W.
##$REF JOURNAL=Chem. Ber.
##$REF VOLUME=111
##$REF PAGE=1763
##$REF DATE=1978
##XYPOINTS=(XY..XY)
221.551,4.110
223.551,4.163
225.551,4.214
227.551,4.259
229.551,4.296
231.551,4.322
233.551,4.337
235.551,4.342
237.551,4.335
239.551,4.321
241.551,4.300
243.551,4.278
245.551,4.258
247.776,4.232
249.776,4.208
251.776,4.186
253.776,4.166
255.776,4.146
257.776,4.125
259.776,4.101
261.776,4.069
263.776,4.026
265.443,3.977
267.443,3.902
269.443,3.829
271.443,3.766
273.443,3.720
275.443,3.694
277.443,3.686
279.443,3.692
281.443,3.705
283.753,3.716
285.753,3.726
287.753,3.735
289.753,3.741
291.753,3.745
293.753,3.745
295.753,3.743
297.753,3.739
299.753,3.733
301.753,3.726
303.753,3.718
305.753,3.712
307.753,3.705
309.753,3.700
312.054,3.695
314.054,3.690
316.054,3.687
318.054,3.686
320.054,3.688
322.054,3.694
324.054,3.704
326.054,3.719
328.054,3.740
330.054,3.766
331.161,3.790
333.161,3.820
335.161,3.849
337.161,3.877
339.161,3.902
341.161,3.924
343.161,3.944
345.161,3.961
347.161,3.974
349.161,3.984
351.161,3.990
353.161,3.993
355.161,3.993
357.161,3.989
359.161,3.981
361.161,3.970
363.161,3.956
365.161,3.938
367.161,3.917
369.161,3.893
371.161,3.867
373.161,3.837
375.161,3.805
377.161,3.770
379.161,3.733
381.161,3.694
383.161,3.652
385.161,3.608
387.161,3.562
389.161,3.513
391.161,3.463
393.161,3.409
395.161,3.353
397.161,3.295
399.161,3.233
401.161,3.167
##END=
