##TITLE=4-Thiouracil
##JCAMP-DX=4.24
##DATA TYPE=UV/VIS SPECTRUM
##ORIGIN=INSTITUTE OF ENERGY PROBLEMS OF CHEMICAL PHYSICS, RAS
##OWNER=INEP CP RAS, NIST OSRD
Collection (C) 2007 copyright by the U.S. Secretary of Commerce
on behalf of the United States of America. All rights reserved.
##CAS REGISTRY NO=591-28-6
##MOLFORM=C4H4N2OS
##SOURCE REFERENCE=RAS UV No. 10449
##$NIST SQUIB=1946ELI/HIT2137
##$NIST SOURCE=TYUGLMTE
##SPECTROMETER/DATA SYSTEM=Baushe and Lomb spectrograph
##XUNITS=Wavelength (nm)
##YUNITS=Logarithm epsilon
##XFACTOR=1.0
##YFACTOR=1.0
##FIRSTX=246.75
##LASTX=354.97
##FIRSTY=3.503
##MAXX=354.97
##MINX=246.75
##MAXY=4.218
##MINY=3.14
##NPOINTS=131
##$REF AUTHOR=Elion, G.B.; Hitchings, G.H.
##$REF JOURNAL=J. Am. Chem. Soc.
##$REF VOLUME=68
##$REF PAGE=2137
##$REF DATE=1946
##XYPOINTS=(XY..XY)
246.75,3.503
248.58,3.489
251.26,3.454
251.90,3.446
252.55,3.435
253.19,3.430
254.48,3.413
255.00,3.407
255.77,3.395
256.41,3.383
256.99,3.376
257.70,3.358
258.34,3.348
258.99,3.335
259.70,3.322
260.52,3.304
261.56,3.284
262.21,3.268
262.85,3.260
263.50,3.248
264.29,3.232
265.43,3.208
266.07,3.199
266.72,3.184
267.36,3.175
268.18,3.167
269.54,3.155
270.71,3.150
271.87,3.144
272.61,3.141
273.24,3.140
273.97,3.140
274.96,3.141
275.78,3.142
276.38,3.144
277.13,3.146
277.67,3.149
278.31,3.154
279.03,3.163
280.89,3.189
281.38,3.197
282.01,3.210
282.82,3.226
283.47,3.248
284.11,3.268
285.40,3.299
286.07,3.314
286.70,3.329
287.24,3.346
289.26,3.398
290.03,3.427
290.55,3.443
291.20,3.462
291.84,3.482
292.48,3.498
293.19,3.525
293.91,3.550
294.42,3.566
295.06,3.582
295.90,3.612
296.63,3.637
297.17,3.662
297.64,3.682
298.20,3.703
298.92,3.732
299.63,3.756
300.33,3.783
300.86,3.802
301.42,3.821
302.15,3.838
302.77,3.858
303.31,3.876
303.95,3.894
304.40,3.910
305.21,3.933
305.91,3.951
306.36,3.967
306.90,3.985
307.35,4.000
308.89,4.050
310.06,4.081
311.60,4.106
312.45,4.117
313.31,4.127
314.17,4.134
315.03,4.144
315.85,4.152
316.75,4.161
317.61,4.165
319.33,4.178
320.18,4.183
321.90,4.194
322.76,4.199
324.48,4.209
325.34,4.212
327.06,4.218
327.91,4.218
328.77,4.218
329.63,4.217
330.49,4.214
332.21,4.208
333.07,4.205
334.79,4.196
335.64,4.192
336.46,4.187
337.36,4.178
338.09,4.169
339.08,4.147
339.94,4.133
340.80,4.112
341.52,4.093
342.79,4.043
343.35,4.019
344.13,3.982
344.67,3.957
345.03,3.939
345.95,3.910
346.60,3.886
347.24,3.868
347.88,3.848
348.45,3.825
348.99,3.803
349.72,3.773
350.39,3.733
351.10,3.692
351.75,3.650
352.39,3.613
353.04,3.582
353.57,3.558
354.02,3.532
354.97,3.474
##END=
