##TITLE=Benzene, iodo-
##JCAMP-DX=4.24
##DATA TYPE=UV/VIS SPECTRUM
##ORIGIN=INSTITUTE OF ENERGY PROBLEMS OF CHEMICAL PHYSICS, RAS
##OWNER=INEP CP RAS, NIST OSRD
Collection (C) 2007 copyright by the U.S. Secretary of Commerce
on behalf of the United States of America. All rights reserved.
##CAS REGISTRY NO=591-50-4
##MOLFORM=C6H5I
##MP=-31.3
##BP=188.4
##SOURCE REFERENCE=RAS UV No. 8984
##$NIST SQUIB=1966JOHd7/4C
##$NIST SOURCE=TSGMTE
##SPECTROMETER/DATA SYSTEM=Unicam SP 500 or Hilger Ultrascan
##XUNITS=Wavelength (nm)
##YUNITS=Logarithm epsilon
##XFACTOR=1.000000
##YFACTOR=1.000000
##FIRSTX=310.0759
##LASTX=185.6102
##FIRSTY=1.09867
##MAXX=310.076
##MINX=185.61
##MAXY=4.42585
##MINY=1.09867
##NPOINTS=218
##$REF AUTHOR=Johnson, E.A.
##$REF TITLE=Iodobenzene
##$REF BOOK TITLE=UV Atlas of Organic Compounds - Vol. 2
##$REF PAGE=D7/4
##$REF DATE=1966
##$REF PUBLISHER=Plenum Press
##$REF LOCATION=New York
##XYPOINTS=(XY..XY)
310.0759,1.098668
309.3701,1.132673
308.6663,1.166673
307.9647,1.200664
307.2655,1.234646
306.5688,1.268615
305.8749,1.302569
305.1839,1.336506
305.1839,1.336506
304.3789,1.369707
303.5922,1.402927
302.8217,1.436155
302.0654,1.469388
301.3214,1.502618
300.5878,1.535842
299.8626,1.569052
299.1441,1.602241
298.4304,1.635406
297.7197,1.668539
297.0103,1.701633
296.3005,1.734683
295.5886,1.767683
294.8730,1.800628
294.8730,1.800628
293.8580,1.840446
292.8439,1.880265
291.8326,1.920085
290.8263,1.959904
290.8263,1.959904
289.7927,1.991466
288.1815,2.046284
287.1665,2.077675
287.1665,2.077675
286.2186,2.116208
285.1759,2.154916
284.0864,2.193291
282.9973,2.230826
282.9973,2.230826
282.0028,2.274106
281.0096,2.317386
280.0196,2.360667
279.0347,2.403947
279.0347,2.403947
277.9998,2.440568
276.9087,2.476268
275.7837,2.511402
274.6470,2.546324
273.5196,2.581388
272.4221,2.616949
272.4221,2.616949
271.6060,2.632389
270.5896,2.654958
270.0936,2.668328
270.0936,2.668328
268.6193,2.697310
267.4295,2.731675
266.1753,2.764940
264.5210,2.790625
264.5210,2.790625
263.2992,2.793036
262.7095,2.795005
262.2398,2.798217
262.2398,2.798217
260.8590,2.828149
259.5827,2.852668
257.4511,2.854147
257.4511,2.854147
256.0816,2.834123
254.7974,2.828208
252.8084,2.828894
252.8084,2.828894
251.8407,2.819599
251.0579,2.806818
249.9754,2.795826
249.9754,2.795826
249.9381,2.793448
249.8936,2.790957
249.8456,2.788409
249.8456,2.788409
249.1265,2.784256
248.4675,2.779756
247.5369,2.774767
247.5369,2.774767
246.8492,2.762379
245.6349,2.753563
244.4406,2.749414
244.4406,2.749414
242.8535,2.786578
241.8521,2.832459
241.1680,2.876719
241.1680,2.876719
240.7890,2.908512
240.4415,2.940351
240.1235,2.972233
239.8329,3.004156
239.5677,3.036116
239.3259,3.068109
239.1057,3.100133
238.9051,3.132185
238.7222,3.164261
238.5551,3.196359
238.4021,3.228475
238.2613,3.260605
238.1308,3.292748
238.0089,3.324900
237.8937,3.357058
237.7835,3.389218
237.6764,3.421377
237.5708,3.453533
237.4648,3.485682
237.3566,3.517822
237.2446,3.549948
237.1268,3.582058
237.0017,3.614149
237.0017,3.614149
236.8264,3.647525
236.6585,3.681021
236.4950,3.714611
236.3330,3.748272
236.1697,3.781980
236.0022,3.815711
235.8277,3.849442
235.6433,3.883148
235.4463,3.916805
235.2338,3.950390
235.0031,3.983879
234.7516,4.017248
234.4764,4.050473
234.1750,4.083530
233.8447,4.116396
233.8447,4.116396
233.7750,4.118631
233.7023,4.120753
233.6234,4.122819
233.6234,4.122819
233.4285,4.122837
233.2340,4.122855
233.0398,4.122873
233.0398,4.122873
232.6137,4.101153
232.0686,4.085477
230.9139,4.082607
230.9139,4.082607
230.2998,4.100165
229.5176,4.125935
229.1340,4.143472
229.1340,4.143472
228.7288,4.143510
228.3190,4.143550
227.9078,4.143589
227.9078,4.143589
227.8207,4.138893
227.6600,4.133635
227.5731,4.128768
227.5731,4.128768
226.4608,4.098164
225.3104,4.056928
224.0856,4.017286
222.7514,3.991462
222.7514,3.991462
222.5757,3.980268
222.3242,3.967375
221.9478,3.956201
221.9478,3.956201
221.3603,3.916347
220.9398,3.890363
220.3259,3.855975
220.3259,3.855975
219.6611,3.827218
218.9569,3.798637
218.0495,3.770931
218.0495,3.770931
217.5061,3.753744
216.5739,3.737453
215.6973,3.722010
215.6973,3.722010
214.1163,3.721385
213.0143,3.726685
211.8199,3.747022
211.8199,3.747022
210.7546,3.783764
209.9475,3.825280
209.2978,3.868604
208.7081,3.910768
208.7081,3.910768
208.0915,3.963138
207.6380,4.001467
207.2659,4.032232
206.8948,4.061909
206.4459,4.096973
205.8414,4.143901
205.8414,4.143901
205.2398,4.179325
204.5818,4.213035
203.8785,4.245644
203.1404,4.277767
202.3780,4.310016
202.3780,4.310016
201.4815,4.336619
201.0497,4.348823
200.7081,4.357089
200.7081,4.357089
199.4402,4.374569
198.0548,4.392520
196.7271,4.405743
196.7271,4.405743
195.5326,4.422780
194.3917,4.425854
193.3081,4.417910
192.2853,4.401893
191.3268,4.380745
190.4361,4.357413
190.4361,4.357413
189.6260,4.326974
188.8899,4.300864
188.0733,4.280004
187.0271,4.265311
185.6102,4.257706
##END=
