##TITLE=1,4-Pentadiene
##JCAMP-DX=4.24
##DATA TYPE=UV/VIS SPECTRUM
##ORIGIN=INSTITUTE OF ENERGY PROBLEMS OF CHEMICAL PHYSICS, RAS
##OWNER=INEP CP RAS, NIST OSRD
Collection (C) 2007 copyright by the U.S. Secretary of Commerce
on behalf of the United States of America. All rights reserved.
##CAS REGISTRY NO=591-93-5
##MOLFORM=C5H8
##MP=-148.8
##BP=26
##SOURCE REFERENCE=RAS UV No. 5816
##$NIST SQUIB=1959HAR/PRI357-360
##$NIST SOURCE=TSGMTE
##SPECTROMETER/DATA SYSTEM=Fluorite prism vacuum spectrograph
##XUNITS=Wavelength (nm)
##YUNITS=Logarithm epsilon
##XFACTOR=1.000000
##YFACTOR=1.000000
##FIRSTX=196.4770
##LASTX=159.1756
##FIRSTY=2.96235
##MAXX=196.477
##MINX=159.176
##MAXY=4.23197
##MINY=2.96235
##NPOINTS=570
##$REF AUTHOR=Harrison, A.J.; Price, D.R.W.
##$REF TITLE=Absorption of acyclic oxygen compounds in the vacuum ultraviolet. II. Ethers
##$REF JOURNAL=J. Chem. Phys.
##$REF VOLUME=30
##$REF NUMBER=2
##$REF PAGE=357-360
##$REF DATE=1959
##XYPOINTS=(XY..XY)
196.4770,2.962351
196.1932,2.996945
196.1922,3.007558
196.0860,3.019080
196.0851,3.029172
195.9917,3.029072
195.9908,3.038937
195.7907,3.058985
195.7898,3.068200
195.6958,3.077135
195.6948,3.087069
195.6008,3.095627
195.5999,3.104104
195.4944,3.113354
195.4934,3.121494
195.3997,3.129406
195.3977,3.145917
195.3041,3.153400
195.3032,3.160830
195.1980,3.168958
195.1961,3.183182
195.1026,3.190914
195.1016,3.197734
195.0083,3.204382
195.0054,3.224722
194.9121,3.230972
194.9102,3.244091
194.8064,3.244023
194.8035,3.262626
194.7105,3.268357
194.7076,3.285967
194.6145,3.292081
194.6136,3.297492
194.5101,3.297432
194.5063,3.319070
194.4136,3.324107
194.4125,3.329760
194.3198,3.334675
194.3179,3.345040
194.2148,3.344986
194.2120,3.359213
194.1204,3.359166
194.1156,3.382996
194.0232,3.387346
194.0193,3.405544
193.9270,3.409675
193.9242,3.422465
193.8205,3.426435
193.8177,3.438747
193.7256,3.442576
193.7208,3.462335
193.6296,3.462298
193.6240,3.484707
193.5206,3.488148
193.5178,3.498850
193.4260,3.502186
193.4231,3.512551
193.3314,3.515783
193.3303,3.519428
193.2273,3.522606
193.2245,3.532500
193.1339,3.532469
193.1292,3.548224
193.0376,3.551577
193.0358,3.557528
192.9330,3.560807
192.9312,3.566633
192.8398,3.569848
192.8370,3.578732
192.7458,3.581510
192.7440,3.587067
192.6528,3.590134
192.6491,3.601297
192.5468,3.603931
192.5440,3.612151
192.4529,3.615047
192.4511,3.620194
192.3612,3.620168
192.3575,3.630594
192.2554,3.633367
192.2517,3.643485
192.1611,3.645878
192.1583,3.653348
192.0677,3.655688
192.0658,3.660669
191.9651,3.660643
191.9577,3.679456
191.8672,3.681937
191.8635,3.690996
191.7741,3.690974
191.7694,3.702236
191.6690,3.702213
191.6644,3.712933
191.5743,3.714973
191.5696,3.725638
191.4805,3.725618
191.4786,3.729861
191.3887,3.731824
191.3851,3.739908
191.2841,3.741824
191.2813,3.747824
191.1915,3.749944
191.1870,3.759561
191.0973,3.761394
191.0927,3.770990
190.9920,3.772773
190.9884,3.780136
190.8988,3.782105
190.8970,3.785615
190.8076,3.787559
190.8003,3.801682
190.6999,3.803344
190.6972,3.808556
190.6079,3.810400
190.6051,3.815529
190.5169,3.815512
190.5124,3.823794
190.4124,3.825374
190.4105,3.828750
190.3216,3.830314
190.3197,3.833652
190.2309,3.835198
190.2263,3.843308
190.1375,3.844820
190.1320,3.854248
190.0324,3.855721
190.0288,3.861813
189.9401,3.863445
189.9374,3.867987
189.8489,3.869416
189.8453,3.875320
189.7459,3.876900
189.7414,3.884100
189.6531,3.885477
189.6468,3.895430
189.5585,3.896941
189.5549,3.902485
189.4559,3.903803
189.4477,3.916108
189.3605,3.916095
189.3569,3.921401
189.2689,3.922825
189.2680,3.924097
189.1802,3.925353
189.1775,3.929294
189.0788,3.930534
189.0724,3.939670
188.9848,3.940881
188.9793,3.948455
188.8918,3.949643
188.8863,3.957066
188.7880,3.958229
188.7845,3.963047
188.6969,3.964340
188.6934,3.969092
188.6061,3.970224
188.6015,3.976182
188.5035,3.977294
188.4999,3.981907
188.4127,3.983145
188.4091,3.987696
188.3221,3.988781
188.3185,3.993274
188.2207,3.994479
188.2171,3.998913
188.1303,3.999970
188.1294,4.001036
188.0425,4.002221
188.0408,4.004339
187.9540,4.005515
187.9504,4.009838
187.8531,4.010868
187.8495,4.015139
187.7629,4.016286
187.7602,4.019486
187.6738,4.020494
187.6719,4.022652
187.5749,4.023652
187.5731,4.025793
187.4868,4.026787
187.4851,4.028789
187.3988,4.029901
187.3971,4.031888
187.3002,4.032990
187.2993,4.033978
187.2133,4.034954
187.2115,4.037040
187.1255,4.038009
187.1237,4.040081
187.0272,4.041042
187.0246,4.044065
186.9388,4.045018
186.9378,4.046098
186.8521,4.047047
186.8495,4.050028
186.7639,4.050969
186.7621,4.052980
186.6659,4.053913
186.6633,4.056847
186.5778,4.057773
186.5761,4.059753
186.4907,4.060673
186.4872,4.064483
186.3913,4.065506
186.3886,4.068363
186.3034,4.069265
186.3016,4.071193
186.2174,4.071184
186.2139,4.074904
186.1183,4.075790
186.1165,4.077690
186.0324,4.077681
186.0290,4.081346
185.9441,4.082221
185.9415,4.084971
185.8462,4.085837
185.8444,4.087694
185.7597,4.088556
185.7561,4.092238
185.6715,4.093091
185.6689,4.095774
185.5844,4.096620
185.5809,4.100129
185.4859,4.101071
185.4824,4.104544
185.3981,4.105373
185.3963,4.107148
185.3120,4.107973
185.3086,4.111391
185.2148,4.111382
185.2104,4.115694
185.1263,4.116503
185.1211,4.121572
185.0370,4.122370
185.0335,4.125777
184.9391,4.126566
184.9305,4.134758
184.8475,4.134750
184.8423,4.139612
184.7585,4.140377
184.7541,4.144412
184.6704,4.145169
184.6653,4.149916
184.5713,4.150663
184.5695,4.152262
184.4868,4.152255
184.4826,4.156088
184.3991,4.156825
184.3965,4.159142
184.3027,4.159965
184.3001,4.162266
184.2168,4.162992
184.2151,4.164547
184.1319,4.165269
184.1285,4.168267
184.0350,4.168982
184.0341,4.169795
183.9519,4.169787
183.9502,4.171228
183.8671,4.172029
183.8663,4.172747
183.7732,4.173455
183.7722,4.174259
183.6894,4.174966
183.6886,4.175678
183.6058,4.176382
183.6041,4.177890
183.5214,4.178591
183.5205,4.179385
183.4285,4.179377
183.4269,4.180787
183.3452,4.180780
183.3443,4.181571
183.2626,4.181564
183.2610,4.182966
183.1693,4.182958
183.1675,4.184443
183.0861,4.184436
183.0853,4.185133
183.0031,4.185822
183.0021,4.186604
182.9107,4.186596
182.9090,4.187982
182.8278,4.187976
182.8269,4.188753
182.7449,4.189437
182.7441,4.190126
182.6529,4.190118
182.6520,4.190892
182.5702,4.191572
182.5693,4.192258
182.4884,4.192251
182.4876,4.192936
182.4058,4.193698
182.4050,4.194380
182.3141,4.194373
182.3133,4.195054
182.2317,4.195812
182.2309,4.196492
182.1503,4.196485
182.1495,4.197163
182.0588,4.197155
182.0579,4.197917
181.9775,4.197910
181.9766,4.198586
181.8954,4.199254
181.8945,4.200012
181.8042,4.200004
181.8034,4.200677
181.7231,4.200670
181.7223,4.201342
181.6421,4.201335
181.6413,4.202006
181.5612,4.201999
181.5603,4.202752
181.4703,4.202744
181.4695,4.203413
181.3079,4.204816
181.2181,4.204809
181.2173,4.205474
181.0562,4.206871
180.9667,4.206864
180.9659,4.207526
180.8864,4.207519
180.8856,4.208180
180.8061,4.208174
180.8052,4.208916
180.7159,4.208909
180.6358,4.209561
180.5566,4.209554
180.5558,4.210212
180.4766,4.210206
180.4759,4.210863
180.3869,4.210855
180.3860,4.211593
180.3070,4.211587
180.3062,4.212242
180.2273,4.212235
180.2265,4.212889
180.1377,4.212882
180.1369,4.213616
180.0581,4.213610
180.0573,4.214262
179.9786,4.214255
179.9778,4.214906
179.8893,4.214899
179.8884,4.215630
179.8098,4.215623
179.8090,4.216272
179.7305,4.216266
179.7298,4.216914
179.6415,4.216906
179.6407,4.217553
179.5624,4.217547
179.5615,4.218273
179.4832,4.218267
179.4824,4.218912
179.4034,4.219549
179.4025,4.220273
179.3146,4.220266
179.3138,4.220907
179.2350,4.221542
179.2341,4.222262
179.0669,4.223526
179.0660,4.224242
178.9881,4.224236
178.9874,4.224872
178.9088,4.225501
178.9080,4.226135
178.8206,4.226128
178.8197,4.226841
178.7421,4.226834
178.7413,4.227467
178.6637,4.227460
178.6629,4.228092
178.3404,4.230739
178.2535,4.230732
178.2527,4.231359
178.1756,4.231353
178.0977,4.231972
177.2168,4.231274
177.2160,4.231900
177.0651,4.230635
177.0643,4.231262
176.9042,4.229915
176.9034,4.230622
176.8282,4.229909
176.7436,4.229273
176.6685,4.228637
176.6677,4.229267
176.5936,4.227921
176.5927,4.228631
176.5186,4.227283
176.5178,4.227915
176.4342,4.226644
176.4335,4.227276
176.3595,4.225924
176.2840,4.225918
176.1260,4.223998
176.1252,4.224635
176.0515,4.223275
176.0506,4.223992
175.9668,4.223267
175.8931,4.221983
175.8924,4.222622
175.8189,4.221256
175.8180,4.221977
175.6618,4.219235
175.6609,4.219959
175.5883,4.217938
175.5876,4.218584
175.5143,4.217205
175.5135,4.217932
175.4317,4.215902
175.4302,4.217197
175.3577,4.215246
175.3569,4.215895
175.2846,4.213856
175.2830,4.215239
175.0547,4.211138
175.0540,4.211793
174.9726,4.209734
174.9719,4.210391
174.7528,4.206990
174.7521,4.207652
174.6717,4.204908
174.6702,4.206320
174.5984,4.204235
174.5977,4.204901
174.5260,4.202810
174.5244,4.204229
174.4435,4.202133
174.4428,4.202802
174.2981,4.200021
174.2973,4.200694
174.2167,4.198581
174.2151,4.200014
174.1437,4.197898
174.1430,4.198574
174.0708,4.197215
174.0701,4.197891
173.9889,4.196444
173.9880,4.197207
173.9161,4.195758
173.9153,4.196437
173.8434,4.195071
173.8426,4.195751
173.7715,4.193615
173.7708,4.194298
173.6891,4.193607
173.6165,4.192917
173.5433,4.192910
173.4626,4.191446
173.4619,4.192132
173.3903,4.190752
173.3896,4.191439
173.3173,4.190745
173.1639,4.189267
173.0918,4.188569
173.0911,4.189260
173.0107,4.187870
173.0100,4.188562
172.9389,4.187084
172.9380,4.187863
172.8670,4.186383
172.8662,4.187077
172.7951,4.185681
172.7944,4.186376
172.6411,4.185666
172.4889,4.184170
172.4167,4.184163
172.3452,4.183457
172.2641,4.183450
172.1216,4.181947
172.0407,4.181939
171.9695,4.181230
171.8977,4.181223
171.8267,4.180512
171.7468,4.179712
171.7460,4.180504
171.6036,4.179698
171.5239,4.178984
171.4532,4.178270
171.4525,4.178977
171.3818,4.178262
171.3024,4.177458
171.2311,4.177451
171.1606,4.176734
171.0902,4.176016
171.0895,4.176727
170.9392,4.176001
170.7900,4.174471
170.6484,4.174457
170.5696,4.173735
170.4989,4.173727
170.4291,4.173005
170.2800,4.172183
170.2793,4.172989
170.1393,4.172168
170.0609,4.171442
169.9205,4.171428
169.7731,4.169882
169.7031,4.169875
169.6251,4.169145
169.4855,4.169130
169.4077,4.168399
169.3380,4.168391
169.2692,4.167569
169.1996,4.167562
169.1221,4.166828
168.4078,4.163012
168.2709,4.162172
168.2701,4.162997
168.1255,4.161421
168.1249,4.162156
167.5652,4.156737
167.4885,4.156729
167.3538,4.155131
166.6579,4.147239
166.6571,4.148093
166.4501,4.144068
166.4493,4.144928
165.7644,4.132740
165.6908,4.131058
165.6900,4.131945
165.6254,4.129469
165.6248,4.130261
165.5588,4.129462
165.4854,4.127767
165.4847,4.128561
164.9466,4.117648
164.9459,4.118562
164.8819,4.116009
164.8812,4.116825
164.8083,4.115182
164.8076,4.116000
164.7430,4.114252
164.7423,4.115174
164.6778,4.113423
163.8693,4.099439
163.8686,4.100286
163.7328,4.096761
163.7321,4.097614
163.6684,4.095897
163.6677,4.096752
163.6040,4.094925
162.8053,4.081318
162.8046,4.082202
162.7423,4.079425
162.7415,4.080424
162.6780,4.079416
162.6070,4.077626
162.6063,4.078517
161.8876,4.066223
161.8869,4.067138
161.8253,4.064263
161.8245,4.065297
161.7537,4.064253
161.6280,4.062390
160.7117,4.052557
160.5883,4.049574
160.5876,4.050525
160.5178,4.049563
160.4559,4.048482
159.4974,4.040387
159.4286,4.039403
159.3059,4.038286
159.3052,4.039384
159.2365,4.038275
159.1756,4.037287
##END=
