##TITLE=Benzenamine, 3-bromo-
##JCAMP-DX=4.24
##DATA TYPE=UV/VIS SPECTRUM
##ORIGIN=INSTITUTE OF ENERGY PROBLEMS OF CHEMICAL PHYSICS, RAS
##OWNER=INEP CP RAS, NIST OSRD
Collection (C) 2007 copyright by the U.S. Secretary of Commerce
on behalf of the United States of America. All rights reserved.
##CAS REGISTRY NO=591-19-5
##MOLFORM=C6H6BrN
##BP=251.5
##SOURCE REFERENCE=RAS UV No. 19740
##$NIST SQUIB=1973LAN43
##$NIST SOURCE=TYUGLMTE
##SPECTROMETER/DATA SYSTEM=Unicam SP 800 B
##XUNITS=Wavelength (nm)
##YUNITS=Logarithm epsilon
##XFACTOR=1.0
##YFACTOR=1.0
##FIRSTX=200.17
##LASTX=332.81
##FIRSTY=3.498
##MAXX=332.81
##MINX=200.17
##MAXY=4.051
##MINY=1.191
##NPOINTS=186
##$REF AUTHOR=Lang (editor), L.
##$REF JOURNAL=Absorption Spectra in the Ultraviolet and Visible Region
##$REF VOLUME=18
##$REF PAGE=43
##$REF DATE=1973
##XYPOINTS=(XY..XY)
200.17,3.498
200.17,3.529
200.51,3.560
200.86,3.591
201.20,3.621
201.71,3.652
202.05,3.683
202.57,3.713
203.08,3.744
203.59,3.775
204.11,3.806
204.79,3.833
205.48,3.860
205.99,3.887
206.85,3.915
207.53,3.942
208.39,3.969
209.24,3.993
210.27,4.017
211.47,4.034
212.67,4.051
214.21,4.051
215.57,4.034
216.43,4.010
217.12,3.983
217.63,3.956
218.31,3.928
219.00,3.901
219.68,3.874
220.54,3.850
221.39,3.823
222.42,3.802
223.45,3.778
224.82,3.765
226.36,3.754
227.90,3.754
229.44,3.765
230.81,3.782
232.01,3.802
233.20,3.819
234.40,3.836
235.60,3.853
236.80,3.870
238.00,3.887
239.36,3.905
240.73,3.918
242.27,3.925
243.81,3.922
245.18,3.908
246.55,3.891
247.75,3.870
248.78,3.850
249.63,3.823
250.66,3.799
251.52,3.771
252.03,3.744
252.89,3.717
253.40,3.690
254.08,3.662
254.77,3.635
255.28,3.608
255.80,3.580
256.31,3.553
256.82,3.526
257.34,3.495
257.85,3.464
258.19,3.434
258.71,3.403
258.88,3.372
259.22,3.341
259.73,3.311
260.07,3.280
260.42,3.249
260.93,3.219
261.27,3.188
261.79,3.161
262.13,3.130
262.64,3.103
263.16,3.075
263.67,3.048
264.18,3.021
264.70,2.993
265.38,2.966
266.24,2.939
266.75,2.911
267.78,2.891
269.15,2.877
270.51,2.891
271.71,2.908
272.91,2.928
273.77,2.956
274.62,2.980
275.48,3.004
276.50,3.027
277.36,3.055
278.56,3.075
279.41,3.103
280.61,3.123
281.47,3.147
282.50,3.167
283.52,3.188
284.72,3.205
285.92,3.225
286.95,3.249
288.14,3.266
289.34,3.283
290.71,3.300
292.08,3.314
293.62,3.318
295.16,3.318
296.70,3.318
298.24,3.314
299.61,3.300
300.98,3.287
302.35,3.270
303.55,3.249
304.74,3.232
305.60,3.208
306.63,3.188
307.65,3.167
308.51,3.140
309.37,3.113
310.22,3.085
310.74,3.058
311.42,3.031
312.10,3.004
312.79,2.976
313.30,2.949
313.82,2.922
314.33,2.894
314.84,2.867
315.36,2.840
315.87,2.809
316.38,2.778
316.90,2.751
317.41,2.713
317.75,2.683
318.27,2.655
318.61,2.625
318.95,2.594
319.29,2.563
319.64,2.533
319.98,2.502
320.32,2.471
320.66,2.440
320.83,2.410
321.00,2.379
321.18,2.348
321.52,2.318
321.69,2.287
321.86,2.256
322.03,2.225
322.20,2.195
322.37,2.164
322.72,2.133
322.89,2.103
323.06,2.072
323.23,2.041
323.57,2.010
323.74,1.980
323.91,1.949
324.26,1.918
324.43,1.888
324.77,1.857
325.11,1.826
325.28,1.795
325.63,1.765
325.97,1.734
326.14,1.703
326.48,1.673
326.82,1.642
327.17,1.611
327.51,1.580
327.85,1.550
328.19,1.519
328.53,1.488
329.05,1.458
329.39,1.427
329.73,1.396
330.25,1.365
330.76,1.335
330.93,1.304
331.44,1.277
331.79,1.246
332.30,1.219
332.81,1.191
##END=
