##TITLE=Phenol, 3,5-dichloro-
##JCAMP-DX=4.24
##DATA TYPE=UV/VIS SPECTRUM
##ORIGIN=INSTITUTE OF ENERGY PROBLEMS OF CHEMICAL PHYSICS, RAS
##OWNER=INEP CP RAS, NIST OSRD
Collection (C) 2007 copyright by the U.S. Secretary of Commerce
on behalf of the United States of America. All rights reserved.
##CAS REGISTRY NO=591-35-5
##MOLFORM=C6H4Cl2O
##MP=68
##BP=233
##SOURCE REFERENCE=RAS UV No. 1125
##$NIST SQUIB=1957GOL/SUC19-28
##$NIST SOURCE=TSGMTE
##SPECTROMETER/DATA SYSTEM=n.i.g.
##XUNITS=Wavelength (nm)
##YUNITS=Logarithm epsilon
##XFACTOR=1.000000
##YFACTOR=1.000000
##FIRSTX=205.3981
##LASTX=294.6054
##FIRSTY=4.46083
##MAXX=294.605
##MINX=205.398
##MAXY=4.46083
##MINY=2.18621
##NPOINTS=136
##$REF AUTHOR=Goldschmidt, s.; Suchanek, L.
##$REF TITLE=Versuche zur darstellung 2.6.2'.6'-tetra-substituierter diphenochinone
##$REF JOURNAL=Chem. Ber.
##$REF VOLUME=90
##$REF PAGE=19-28
##$REF DATE=1957
##XYPOINTS=(XY..XY)
205.3981,4.460828
205.8051,4.444098
206.2348,4.424465
207.0542,4.391327
209.2308,4.292121
209.6335,4.270280
210.0363,4.248278
210.4391,4.226195
212.1866,4.122942
212.6445,4.098660
213.1098,4.074300
213.5788,4.049778
216.3483,3.961536
216.6746,3.953683
217.3252,3.942562
218.8580,3.918642
223.9296,3.887320
224.7537,3.883764
225.4856,3.880520
226.5962,3.878210
226.8614,3.876427
227.0814,3.876455
227.3088,3.876483
227.5398,3.876511
228.9143,3.872687
229.0301,3.872702
229.1459,3.872716
229.2617,3.872730
232.3608,3.854597
233.8502,3.837475
235.0386,3.818381
236.3321,3.790828
238.2435,3.693403
238.8536,3.658572
239.5296,3.625121
239.9953,3.573087
240.1597,3.579535
240.3279,3.585822
240.5034,3.592029
240.5034,3.592029
241.5525,3.501759
241.9067,3.475556
242.2610,3.449191
242.6153,3.422746
244.1840,3.306401
244.5565,3.275843
244.9327,3.245124
245.3163,3.214326
246.4709,3.099745
246.8434,3.069187
247.2197,3.038469
247.6033,3.007670
248.7608,2.881472
248.9027,2.858685
249.1345,2.829535
249.4746,2.808225
250.5319,2.686008
250.7134,2.664368
250.9359,2.640071
251.2335,2.595695
252.3050,2.482919
252.4901,2.458658
252.7345,2.432952
253.0907,2.387171
254.0779,2.280194
254.8411,2.243607
255.3352,2.224090
255.9836,2.204915
257.0124,2.193788
257.0632,2.191979
257.1175,2.190170
257.1793,2.188362
257.3619,2.186207
258.4312,2.191408
259.4584,2.203300
260.4485,2.216720
262.8266,2.299789
263.6731,2.337745
264.0246,2.355389
264.1826,2.367847
266.0420,2.473360
266.4985,2.499906
266.9551,2.526370
267.4117,2.552674
269.2710,2.658187
269.7156,2.685834
270.1676,2.713481
270.6232,2.741129
272.4811,2.852451
272.9262,2.878283
273.3786,2.904115
273.8347,2.929948
275.6965,3.026022
276.0890,3.046765
276.4851,3.067507
276.8885,3.088251
278.4105,3.154514
278.4646,3.156335
278.5260,3.158158
278.5911,3.159982
279.2613,3.192376
279.7692,3.214477
280.2808,3.236417
280.7998,3.258277
283.5312,3.318880
284.1848,3.303404
284.7869,3.288243
285.6934,3.275945
285.9412,3.277790
286.8905,3.284913
287.6766,3.297743
288.6803,3.308261
288.6803,3.308261
288.8513,3.305741
289.0297,3.303222
289.2117,3.300703
290.6083,3.210476
290.7831,3.176721
290.9615,3.142885
291.1474,3.108889
291.8547,2.996068
291.9126,2.954607
292.0059,2.932271
292.0580,2.913318
292.4325,2.808080
292.5444,2.777961
292.6636,2.747843
292.7866,2.717725
293.3276,2.608514
293.3864,2.587142
293.5226,2.564811
293.6963,2.525785
294.2373,2.416574
294.2966,2.392862
294.4328,2.371096
294.6054,2.336022
##END=
