##TITLE=Phosphine, methyl-
##JCAMP-DX=4.24
##DATA TYPE=UV/VIS SPECTRUM
##ORIGIN=INSTITUTE OF ENERGY PROBLEMS OF CHEMICAL PHYSICS, RAS
##OWNER=INEP CP RAS, NIST OSRD
Collection (C) 2007 copyright by the U.S. Secretary of Commerce
on behalf of the United States of America. All rights reserved.
##CAS REGISTRY NO=593-54-4
##MOLFORM=CH5P
##BP=- 14
##SOURCE REFERENCE=RAS UV No. 13170
##$NIST SQUIB=1963HAL2853
##$NIST SOURCE=TYUGLMTE
##SPECTROMETER/DATA SYSTEM=Beckman DU
##XUNITS=Wavelength (nm)
##YUNITS=Logarithm epsilon
##XFACTOR=1.0
##YFACTOR=1.0
##FIRSTX=184.78
##LASTX=202.38
##FIRSTY=2.439
##MAXX=202.38
##MINX=184.78
##MAXY=3.172
##MINY=1.124
##NPOINTS=173
##$REF AUTHOR=Halmann, M.
##$REF JOURNAL=J. Chem. Soc.
##$REF PAGE=2853
##$REF DATE=1963
##XYPOINTS=(XY..XY)
184.78,2.439
184.83,2.455
184.88,2.474
184.98,2.517
185.08,2.559
185.17,2.614
185.27,2.668
185.37,2.691
185.47,2.726
185.56,2.777
185.66,2.819
185.76,2.874
185.86,2.889
185.96,2.928
186.05,2.967
186.15,2.982
186.25,3.021
186.35,3.056
186.44,3.087
186.84,3.149
187.03,3.172
187.23,3.164
187.42,3.145
187.52,3.126
187.62,3.114
187.71,3.095
187.81,3.075
187.91,3.060
188.01,3.040
188.11,3.021
188.20,3.002
188.30,2.971
188.40,2.967
188.50,2.936
188.59,2.908
188.69,2.889
188.79,2.870
188.89,2.850
188.99,2.815
189.08,2.800
189.18,2.777
189.28,2.753
189.38,2.722
189.47,2.699
189.57,2.683
189.67,2.641
189.77,2.614
189.87,2.590
189.96,2.559
190.06,2.536
190.16,2.486
190.26,2.459
190.35,2.427
190.45,2.408
190.55,2.373
190.65,2.330
190.75,2.299
190.84,2.265
190.94,2.237
191.04,2.191
191.14,2.156
191.23,2.106
191.33,2.036
191.43,2.005
191.53,1.950
191.63,1.888
191.72,1.850
191.82,1.807
191.92,1.768
192.02,1.702
192.11,1.663
192.21,1.636
192.31,1.597
192.41,1.555
192.51,1.524
192.60,1.504
192.70,1.485
192.80,1.465
192.90,1.446
192.99,1.431
193.09,1.423
193.19,1.427
193.38,1.423
193.48,1.442
193.58,1.462
193.68,1.485
193.78,1.504
193.87,1.528
193.97,1.559
194.07,1.578
194.17,1.613
194.26,1.652
194.36,1.675
194.46,1.725
194.56,1.741
194.66,1.776
194.75,1.799
194.85,1.818
195.05,1.803
195.14,1.803
195.24,1.780
195.34,1.756
195.44,1.710
195.54,1.679
195.63,1.648
195.73,1.613
195.83,1.562
195.93,1.520
196.02,1.493
196.12,1.446
196.22,1.372
196.32,1.334
196.42,1.260
196.51,1.198
196.61,1.155
196.71,1.140
196.90,1.132
197.00,1.132
197.10,1.136
197.20,1.140
197.30,1.140
197.39,1.151
197.49,1.155
197.59,1.171
197.69,1.178
197.78,1.198
197.88,1.213
197.98,1.229
198.08,1.248
198.18,1.264
198.27,1.279
198.37,1.318
198.47,1.357
198.57,1.407
198.66,1.442
198.76,1.508
198.86,1.725
198.96,1.881
199.05,1.966
199.15,2.036
199.25,2.125
199.35,2.191
199.45,2.206
199.54,2.214
199.64,2.218
199.74,2.210
199.84,2.168
199.93,2.129
200.03,2.086
200.13,1.997
200.23,1.927
200.33,1.815
200.42,1.621
200.52,1.415
200.62,1.314
200.72,1.275
200.81,1.248
200.91,1.240
201.01,1.225
201.11,1.217
201.21,1.206
201.30,1.198
201.40,1.186
201.50,1.182
201.60,1.171
201.69,1.167
201.79,1.159
201.89,1.151
201.99,1.144
202.09,1.136
202.18,1.140
202.28,1.124
202.38,1.128
##END=
