##TITLE=5-phenyl-5H-[1] benzopyrano [2,3-b]pyridin-5-ol
##JCAMP-DX=4.24
##DATA TYPE=UV/VIS SPECTRUM
##ORIGIN=INSTITUTE OF ENERGY PROBLEMS OF CHEMICAL PHYSICS, RAS
##OWNER=INEP CP RAS, NIST OSRD
Collection (C) 2007 copyright by the U.S. Secretary of Commerce
on behalf of the United States of America. All rights reserved.
##CAS REGISTRY NO=59303-77-4
##MOLFORM=C18H13NO2
##MP=215-216
##SOURCE REFERENCE=RAS UV No. 22529
##$NIST SQUIB=1977MIK/KON1111
##$NIST SOURCE=TYUGLMTE
##SPECTROMETER/DATA SYSTEM=Spectromom-202
##XUNITS=Wavelength (nm)
##YUNITS=Logarithm epsilon
##XFACTOR=1.0
##YFACTOR=1.0
##FIRSTX=216.959
##LASTX=316.284
##FIRSTY=4.369
##MAXX=316.284
##MINX=216.959
##MAXY=4.369
##MINY=3.126
##NPOINTS=103
##$REF AUTHOR=Mikhalev, A.I.; Konshin, M.E.
##$REF JOURNAL=Zhur. Organ. Khim.
##$REF VOLUME=13
##$REF PAGE=1111
##$REF DATE=1977
##XYPOINTS=(XY..XY)
216.959,4.369
217.959,4.366
218.959,4.362
219.959,4.357
220.959,4.352
221.959,4.347
222.959,4.341
223.959,4.336
224.959,4.330
225.959,4.325
226.959,4.319
227.959,4.314
228.959,4.309
229.959,4.304
230.959,4.299
231.959,4.293
232.959,4.288
233.959,4.282
234.959,4.276
235.959,4.269
236.959,4.262
237.959,4.253
238.959,4.244
239.959,4.234
240.959,4.223
241.959,4.211
242.782,4.203
243.782,4.185
244.782,4.172
245.782,4.159
246.782,4.142
247.782,4.116
248.782,4.078
249.782,4.021
250.089,4.001
251.089,3.937
252.042,3.877
253.042,3.819
254.042,3.775
255.042,3.746
256.042,3.730
257.042,3.726
258.042,3.730
259.042,3.739
260.042,3.750
261.042,3.760
262.042,3.769
263.042,3.776
264.042,3.783
265.042,3.796
265.166,3.796
266.166,3.803
267.166,3.810
268.166,3.815
269.166,3.819
270.166,3.822
271.166,3.825
272.166,3.826
273.166,3.828
274.166,3.828
275.166,3.829
276.166,3.830
277.166,3.830
278.166,3.830
279.166,3.830
280.099,3.827
281.099,3.830
282.099,3.830
283.099,3.828
284.099,3.826
285.099,3.824
286.099,3.823
287.099,3.822
288.099,3.822
289.099,3.821
290.099,3.819
291.099,3.816
292.099,3.809
293.099,3.799
294.099,3.785
295.099,3.765
296.099,3.740
297.099,3.710
298.099,3.675
299.099,3.636
300.099,3.594
301.099,3.551
302.099,3.511
302.301,3.500
303.301,3.447
304.301,3.390
305.301,3.336
306.301,3.290
307.301,3.253
308.284,3.227
309.284,3.213
310.284,3.197
311.284,3.182
312.284,3.168
313.284,3.155
314.284,3.144
315.284,3.135
316.284,3.126
##END=
