##TITLE=2H-Indol-2-one, 1,3-dihydro-
##JCAMP-DX=4.24
##DATA TYPE=UV/VIS SPECTRUM
##ORIGIN=INSTITUTE OF ENERGY PROBLEMS OF CHEMICAL PHYSICS, RAS
##OWNER=INEP CP RAS, NIST OSRD
Collection (C) 2007 copyright by the U.S. Secretary of Commerce
on behalf of the United States of America. All rights reserved.
##CAS REGISTRY NO=59-48-3
##MOLFORM=C8H7NO
##MP=120
##SOURCE REFERENCE=RAS UV No. 19104
##$NIST SQUIB=1968LAN331
##$NIST SOURCE=TYUGLMTE
##SPECTROMETER/DATA SYSTEM=Spektromom 201
##XUNITS=Wavelength (nm)
##YUNITS=Logarithm epsilon
##XFACTOR=1.0
##YFACTOR=1.0
##FIRSTX=202.03
##LASTX=308.81
##FIRSTY=4.414
##MAXX=308.81
##MINX=202.03
##MAXY=4.414
##MINY=1.373
##NPOINTS=113
##$REF AUTHOR=Lang (editor), L.
##$REF JOURNAL=Absorption Spectra in the Ultraviolet and Visible Region
##$REF VOLUME=11
##$REF PAGE=331
##$REF DATE=1968
##XYPOINTS=(XY..XY)
202.03,4.414
202.20,4.414
202.37,4.414
202.54,4.414
202.71,4.414
202.88,4.414
203.05,4.414
203.22,4.414
203.39,4.414
203.56,4.414
203.73,4.414
204.41,4.407
205.59,4.410
206.78,4.414
207.97,4.397
209.15,4.366
210.34,4.322
211.53,4.274
212.71,4.213
213.90,4.144
215.08,4.039
216.27,3.930
217.46,3.797
218.64,3.657
219.16,3.603
219.76,3.548
220.37,3.498
220.90,3.462
221.26,3.439
221.79,3.417
222.65,3.405
223.54,3.402
224.58,3.415
225.76,3.432
226.95,3.463
228.14,3.493
229.32,3.527
230.51,3.565
231.69,3.596
232.88,3.633
234.07,3.674
235.25,3.701
236.44,3.742
237.63,3.776
238.81,3.810
240.00,3.844
241.19,3.875
242.37,3.896
243.56,3.923
244.75,3.940
245.93,3.954
247.12,3.957
248.31,3.964
249.49,3.967
250.68,3.960
251.86,3.957
253.05,3.940
254.24,3.923
255.42,3.902
256.61,3.875
257.80,3.844
258.98,3.814
260.17,3.780
261.36,3.739
262.54,3.677
263.73,3.592
264.92,3.493
266.10,3.371
267.29,3.258
268.47,3.207
269.66,3.173
270.85,3.153
272.03,3.135
273.22,3.125
274.41,3.118
275.59,3.115
276.78,3.105
277.97,3.105
279.15,3.101
280.34,3.098
281.53,3.088
282.71,3.081
283.90,3.067
285.08,3.047
286.27,3.026
287.46,2.999
288.64,2.965
289.83,2.931
291.02,2.883
292.20,2.842
293.39,2.791
293.92,2.762
294.58,2.726
295.18,2.681
295.76,2.634
296.49,2.559
297.23,2.495
297.60,2.454
298.06,2.405
298.46,2.360
298.84,2.311
299.09,2.272
299.36,2.228
299.79,2.160
300.39,2.085
301.15,2.010
301.69,1.953
302.88,1.847
304.07,1.728
305.25,1.636
306.44,1.547
307.63,1.465
308.81,1.373
##END=
