##TITLE=Mephenesin
##JCAMP-DX=4.24
##DATA TYPE=UV/VIS SPECTRUM
##ORIGIN=INSTITUTE OF ENERGY PROBLEMS OF CHEMICAL PHYSICS, RAS
##OWNER=INEP CP RAS, NIST OSRD
Collection (C) 2007 copyright by the U.S. Secretary of Commerce
on behalf of the United States of America. All rights reserved.
##CAS REGISTRY NO=59-47-2
##MOLFORM=C10H14O3
##SOURCE REFERENCE=RAS UV No. 19625
##$NIST SQUIB=1965LAN43
##$NIST SOURCE=TYUGLMTE
##SPECTROMETER/DATA SYSTEM=Hilger Uvispek
##XUNITS=Wavelength (nm)
##YUNITS=Logarithm epsilon
##XFACTOR=1.0
##YFACTOR=1.0
##FIRSTX=204.39
##LASTX=298.14
##FIRSTY=4.191
##MAXX=298.14
##MINX=204.39
##MAXY=4.191
##MINY=0.805
##NPOINTS=114
##$REF AUTHOR=Lang (editor), L.
##$REF JOURNAL=Absorption Spectra in the Ultraviolet and Visible Region
##$REF VOLUME=5
##$REF PAGE=43
##$REF DATE=1965
##XYPOINTS=(XY..XY)
204.39,4.191
204.95,4.172
205.60,4.148
206.13,4.120
206.81,4.077
207.26,4.042
207.77,4.003
208.61,3.941
209.46,3.883
210.30,3.835
211.15,3.797
211.99,3.766
212.84,3.749
213.68,3.746
214.53,3.742
215.37,3.742
216.22,3.742
217.06,3.746
217.91,3.756
218.75,3.763
219.59,3.777
220.44,3.780
221.28,3.794
222.13,3.801
222.97,3.811
223.82,3.814
224.66,3.825
225.51,3.828
226.35,3.828
227.20,3.828
228.04,3.828
228.89,3.814
229.73,3.801
230.57,3.780
231.42,3.759
232.26,3.729
233.11,3.694
233.95,3.643
234.80,3.592
235.64,3.520
236.49,3.437
237.33,3.341
238.18,3.235
239.02,3.101
239.86,2.964
240.62,2.847
241.55,2.718
242.40,2.591
243.24,2.481
244.09,2.371
244.93,2.286
245.78,2.262
246.62,2.258
247.47,2.269
248.31,2.286
249.19,2.314
250.04,2.353
250.87,2.393
251.69,2.426
252.53,2.464
253.38,2.502
254.22,2.550
255.07,2.587
255.91,2.629
256.76,2.676
257.60,2.714
258.45,2.762
259.29,2.803
260.14,2.848
260.98,2.886
261.82,2.923
262.67,2.961
263.51,2.999
264.36,3.029
265.20,3.074
266.05,3.108
266.89,3.139
267.74,3.167
268.58,3.194
269.43,3.218
270.27,3.239
271.11,3.263
271.96,3.283
272.80,3.300
273.65,3.321
274.49,3.334
275.34,3.348
276.18,3.352
277.03,3.352
277.87,3.348
278.72,3.331
279.56,3.314
280.41,3.283
281.25,3.266
282.09,3.249
282.94,3.228
283.78,3.187
284.63,3.119
285.47,2.958
286.32,2.820
287.16,2.663
288.01,2.505
288.85,2.300
289.70,2.101
290.54,1.936
291.39,1.844
292.23,1.741
293.07,1.580
293.92,1.446
294.76,1.313
295.61,1.148
296.45,1.032
297.30,0.912
298.14,0.805
##END=
