##TITLE=2,2-Dinitropropane
##JCAMP-DX=4.24
##DATA TYPE=UV/VIS SPECTRUM
##ORIGIN=INSTITUTE OF ENERGY PROBLEMS OF CHEMICAL PHYSICS, RAS
##OWNER=INEP CP RAS, NIST OSRD
Collection (C) 2007 copyright by the U.S. Secretary of Commerce
on behalf of the United States of America. All rights reserved.
##CAS REGISTRY NO=595-49-3
##MOLFORM=C3H6N2O4
##MP=53
##BP=185.5
##SOURCE REFERENCE=RAS UV No. 13183
##$NIST SQUIB=1963UNG/KIS121
##$NIST SOURCE=TYUGLMTE
##SPECTROMETER/DATA SYSTEM=Perkin-Elmer Model 21
##XUNITS=Wavelength (nm)
##YUNITS=Logarithm epsilon
##XFACTOR=1.0
##YFACTOR=1.0
##FIRSTX=212.83
##LASTX=333.13
##FIRSTY=3.483
##MAXX=333.13
##MINX=212.83
##MAXY=3.483
##MINY=0.6
##NPOINTS=147
##$REF AUTHOR=Ungnade, H.E.; Kissinger, L.W.
##$REF JOURNAL=Tetrahedron
##$REF VOLUME=19 (supplement)
##$REF PAGE=121
##$REF DATE=1963
##XYPOINTS=(XY..XY)
212.83,3.483
213.01,3.480
213.19,3.476
213.72,3.421
214.61,3.362
215.49,3.290
216.38,3.225
217.26,3.159
218.15,3.066
219.04,2.997
219.92,2.922
220.81,2.829
221.69,2.746
222.58,2.670
223.46,2.570
224.35,2.488
225.24,2.377
226.12,2.295
227.01,2.191
227.89,2.098
228.78,2.019
229.67,1.905
230.55,1.826
231.44,1.712
232.32,1.626
233.21,1.551
234.09,1.464
234.98,1.420
235.87,1.385
236.75,1.354
237.64,1.337
238.52,1.323
240.30,1.320
241.18,1.320
242.07,1.330
242.95,1.337
243.84,1.354
244.72,1.371
245.61,1.389
246.50,1.406
247.38,1.427
248.27,1.444
249.15,1.461
250.04,1.478
250.93,1.492
251.81,1.509
252.70,1.523
253.58,1.540
254.47,1.551
255.35,1.568
256.24,1.582
257.13,1.595
258.01,1.609
258.90,1.616
259.78,1.630
260.67,1.637
261.56,1.650
262.44,1.654
263.33,1.664
264.21,1.668
265.10,1.678
265.98,1.685
266.87,1.688
267.76,1.692
268.64,1.699
269.53,1.702
270.41,1.702
271.30,1.706
272.19,1.706
273.07,1.706
273.96,1.706
274.84,1.699
275.73,1.699
276.61,1.695
277.50,1.688
278.39,1.681
279.27,1.678
280.16,1.668
281.04,1.664
281.93,1.657
282.81,1.647
283.70,1.640
284.59,1.630
285.47,1.616
286.36,1.606
287.24,1.588
288.13,1.575
289.02,1.564
289.90,1.551
290.79,1.533
291.67,1.520
292.56,1.499
293.44,1.482
294.33,1.464
295.22,1.447
296.10,1.430
296.99,1.409
297.87,1.389
298.76,1.368
299.65,1.347
300.53,1.323
301.42,1.303
302.30,1.285
303.19,1.265
304.07,1.244
304.96,1.220
305.85,1.199
306.73,1.182
307.62,1.161
308.50,1.144
309.39,1.123
310.28,1.103
311.16,1.082
312.05,1.058
312.93,1.037
313.82,1.017
314.70,0.999
315.59,0.982
316.48,0.965
317.36,0.944
318.25,0.920
319.13,0.903
320.02,0.882
320.91,0.865
321.79,0.844
322.68,0.824
323.56,0.803
324.45,0.782
325.33,0.762
326.22,0.745
327.11,0.727
328.88,0.696
329.06,0.693
329.23,0.689
329.41,0.689
329.59,0.686
329.76,0.683
329.94,0.679
330.30,0.665
330.65,0.658
331.00,0.648
331.36,0.641
331.71,0.634
332.07,0.624
332.42,0.621
332.78,0.607
333.13,0.600
##END=
