##TITLE=Niacin
##JCAMP-DX=4.24
##DATA TYPE=UV/VIS SPECTRUM
##ORIGIN=INSTITUTE OF ENERGY PROBLEMS OF CHEMICAL PHYSICS, RAS
##OWNER=INEP CP RAS, NIST OSRD
Collection (C) 2007 copyright by the U.S. Secretary of Commerce
on behalf of the United States of America. All rights reserved.
##CAS REGISTRY NO=59-67-6
##MOLFORM=C6H5NO2
##MP=236.6
##BP=sub
##SOURCE REFERENCE=RAS UV No. 8651
##$NIST SQUIB=1966BAR/SZO278B
##$NIST SOURCE=TSGMTE
##SPECTROMETER/DATA SYSTEM=Beckman DU
##XUNITS=Wavelength (nm)
##YUNITS=Logarithm epsilon
##XFACTOR=1.000000
##YFACTOR=1.000000
##FIRSTX=201.7648
##LASTX=298.4647
##FIRSTY=3.80032
##MAXX=298.465
##MINX=201.765
##MAXY=3.82848
##MINY=1.50216
##NPOINTS=318
##$REF AUTHOR=Bartecki, A.; Szoke, J.; Varsanyi, G.; Vizesy, M.
##$REF TITLE=Absorption spectra in the ultraviolet and visible region. Volume 3
##$REF PAGE=278
##$REF DATE=1966
##$REF PUBLISHER=Academic Press Inc.
##$REF LOCATION=New York
##XYPOINTS=(XY..XY)
201.7648,3.800324
201.8528,3.801352
201.9520,3.802382
202.9627,3.812679
203.5719,3.816529
203.6159,3.814790
204.1926,3.819929
204.8359,3.823107
205.1898,3.826204
206.3182,3.828477
206.4011,3.826005
212.4560,3.785904
212.6087,3.793834
212.9650,3.790843
213.4242,3.783772
213.7857,3.764299
213.8835,3.776476
214.3430,3.768728
214.6504,3.760658
214.8056,3.757599
214.9722,3.754318
215.1615,3.750588
215.1640,3.737906
216.5770,3.707361
216.6986,3.710234
216.8027,3.708182
216.9181,3.705908
217.0563,3.703185
217.2112,3.696106
217.2642,3.695061
217.3285,3.693794
217.4156,3.692078
217.9290,3.675921
218.0108,3.673302
218.1496,3.668852
218.3928,3.661786
218.6472,3.654721
218.9550,3.645636
219.0572,3.643622
219.1594,3.641608
219.2616,3.639594
219.4513,3.636370
220.8848,3.597200
222.2973,3.556431
222.7011,3.531545
222.8053,3.529494
222.9207,3.527219
223.0589,3.524497
223.6749,3.514703
224.2409,3.484089
224.3450,3.482075
224.4603,3.480063
224.5983,3.478055
225.0036,3.472652
226.2696,3.430918
233.9097,3.188819
234.3458,3.188320
234.8569,3.178250
235.1261,3.171978
235.6498,3.168486
236.5770,3.160997
236.6927,3.153160
236.8963,3.151161
237.2151,3.152938
237.5566,3.154267
237.9094,3.155372
237.9094,3.155372
238.0608,3.157424
238.3152,3.155433
238.3806,3.156457
238.4685,3.157485
238.5677,3.158514
239.1223,3.167729
239.5641,3.172042
239.6532,3.180086
240.2966,3.182937
241.1942,3.205223
241.9475,3.209753
242.1477,3.216885
242.3492,3.220673
242.5509,3.224010
242.6876,3.232509
242.7527,3.227122
243.0040,3.233247
244.1109,3.257764
244.1371,3.261617
244.5130,3.267971
244.5783,3.268995
244.6663,3.270023
244.7655,3.271053
245.1167,3.281252
245.2694,3.285033
245.4335,3.288364
245.5464,3.292221
245.6202,3.291473
245.8704,3.300643
247.7825,3.342529
247.9828,3.349661
248.1354,3.353442
248.2593,3.356610
248.2995,3.356774
248.4863,3.359883
248.6362,3.365993
248.7888,3.369774
248.9529,3.373106
249.1396,3.376215
249.5704,3.389744
250.0436,3.400702
250.1090,3.401726
250.1969,3.402754
250.2961,3.403784
250.6970,3.417034
250.7974,3.419792
250.8562,3.423067
250.8980,3.422100
250.9987,3.424181
251.1982,3.433343
251.3492,3.436372
251.5004,3.439176
251.6517,3.441528
252.8070,3.472140
253.0077,3.478258
253.1603,3.482039
253.3244,3.485370
253.3669,3.488978
253.5112,3.488480
253.8117,3.498671
253.9140,3.501430
257.0855,3.562069
257.2876,3.564091
257.4899,3.565888
257.5450,3.567897
257.6923,3.567233
258.9087,3.583871
259.9775,3.598808
260.8164,3.611863
261.3727,3.628662
261.4906,3.622190
262.0654,3.628940
262.3530,3.629749
262.6057,3.631268
263.1320,3.626972
263.1769,3.628327
263.8440,3.619272
264.1185,3.611826
264.6295,3.601756
264.6722,3.603256
264.7318,3.599742
264.8340,3.597728
264.9362,3.595714
265.1429,3.585599
265.2451,3.583548
265.3475,3.581271
265.4499,3.578543
265.6555,3.571471
265.7267,3.579432
265.8107,3.568413
265.9773,3.565131
266.1666,3.561402
266.3211,3.555337
266.4252,3.553286
266.5406,3.551011
266.6788,3.548288
266.9870,3.538188
267.0726,3.546953
267.1044,3.535876
267.2445,3.533116
267.3959,3.530133
267.7037,3.521047
267.8205,3.520013
267.9601,3.518756
268.1110,3.517050
268.3681,3.507957
268.4193,3.506650
268.4707,3.504891
268.5222,3.502907
268.7751,3.504974
268.7751,3.504974
269.0416,3.490584
269.2150,3.484297
269.4437,3.480723
269.4437,3.480723
269.4448,3.477680
269.4448,3.477680
269.4573,3.484484
269.4936,3.487796
269.5413,3.490884
269.5981,3.474621
269.7516,3.471338
269.9052,3.467602
270.0600,3.460523
270.1130,3.459479
270.1774,3.458211
270.2645,3.456495
270.4201,3.447387
273.6248,3.158662
273.7762,3.137530
273.9379,3.130337
274.0928,3.123258
274.2015,3.109032
274.2390,3.098582
274.3215,3.094583
274.4643,3.079685
274.6191,3.072606
274.6195,3.071591
274.6199,3.070577
274.6202,3.069562
274.7073,3.059714
274.7762,3.059439
275.1810,3.020922
275.3559,3.006728
275.6601,2.982199
275.9470,2.953794
276.1447,2.943541
276.5607,2.900411
276.6347,2.904944
276.7156,2.893332
277.1303,2.866401
277.1867,2.854547
277.6313,2.827907
277.6580,2.815310
278.1294,2.775848
278.1377,2.789458
278.2842,2.768768
278.6497,2.751048
278.8067,2.728262
279.1673,2.712673
279.6904,2.674326
279.8517,2.647249
280.0077,2.637126
280.0081,2.636111
280.0085,2.635097
280.0089,2.634082
280.2156,2.623967
280.2160,2.622952
280.2163,2.621938
280.2167,2.620923
280.2190,2.636004
280.3731,2.609786
280.3735,2.608771
280.3739,2.607757
280.3742,2.606742
280.5302,2.596619
280.7531,2.597700
280.8596,2.569988
281.2118,2.542909
281.2929,2.559410
281.5752,2.515606
281.7808,2.508534
281.8382,2.521128
282.3892,2.482850
282.5609,2.457492
282.9457,2.444571
283.3411,2.406164
283.5079,2.406284
284.0757,2.367985
284.1214,2.354646
284.6492,2.329669
284.9017,2.303034
285.0589,2.289867
285.2282,2.291330
285.3341,2.272359
285.6321,2.254404
285.8130,2.252966
285.9414,2.236225
286.0978,2.225087
286.1494,2.222765
286.2012,2.219992
286.2530,2.216993
286.4035,2.214568
286.4605,2.204849
286.7225,2.187640
286.9957,2.170432
286.9996,2.176132
287.2916,2.153228
287.4979,2.144127
287.6015,2.137653
288.0170,2.112752
288.2090,2.099127
288.5361,2.081376
288.8224,2.060548
289.0551,2.050001
289.2111,2.039878
289.4414,2.021911
289.5227,2.020609
289.8344,2.001115
290.0662,1.983209
290.1463,1.981170
290.4034,1.972077
290.5097,1.963976
290.6274,1.955876
290.6968,1.944441
290.7676,1.947781
291.2859,1.918434
291.3331,1.905598
291.4958,1.904975
291.7170,1.891066
291.9610,1.876936
291.9753,1.866677
292.1673,1.867835
292.6232,1.827672
292.8955,1.825030
293.2770,1.788578
293.6351,1.781775
293.9366,1.749389
293.9366,1.749389
294.3973,1.738298
294.5530,1.729189
294.8793,1.710675
295.2284,1.691712
295.5888,1.672525
295.7955,1.662410
295.9894,1.636983
296.5580,1.616360
297.2221,1.578664
297.4649,1.556365
298.1570,1.529215
298.4647,1.502157
##END=
