##TITLE=pyrazolo[1,5-a]pyridin-2(1H)-one
##JCAMP-DX=4.24
##DATA TYPE=UV/VIS SPECTRUM
##ORIGIN=INSTITUTE OF ENERGY PROBLEMS OF CHEMICAL PHYSICS, RAS
##OWNER=INEP CP RAS, NIST OSRD
Collection (C) 2007 copyright by the U.S. Secretary of Commerce
on behalf of the United States of America. All rights reserved.
##CAS REGISTRY NO=59942-87-9
##MOLFORM=C7H6N2O
##MP=127-128
##SOURCE REFERENCE=RAS UV No. 22738
##$NIST SQUIB=1976OCH/1980
##$NIST SOURCE=TYUGLMTE
##SPECTROMETER/DATA SYSTEM=Hitachi EPS-3
##XUNITS=Wavelength (nm)
##YUNITS=Logarithm epsilon
##XFACTOR=1.0
##YFACTOR=1.0
##FIRSTX=216.993
##LASTX=334.561
##FIRSTY=4.076
##MAXX=334.561
##MINX=216.993
##MAXY=4.577
##MINY=2.719
##NPOINTS=119
##$REF AUTHOR=Ochi, H.; et al.
##$REF JOURNAL=Bull. Chem. Soc. Japan
##$REF VOLUME=49
##$REF PAGE=1980
##$REF DATE=1976
##XYPOINTS=(XY..XY)
216.993,4.076
217.993,4.111
218.993,4.156
219.993,4.207
220.993,4.260
221.993,4.312
222.993,4.363
223.993,4.410
224.993,4.452
225.993,4.489
226.993,4.521
227.993,4.545
228.993,4.564
229.993,4.574
230.993,4.577
231.993,4.569
232.801,4.552
233.801,4.521
234.801,4.453
235.801,4.358
236.801,4.243
237.801,4.114
238.801,3.973
239.801,3.824
240.801,3.667
241.801,3.506
242.801,3.344
243.600,3.232
244.600,3.050
245.600,2.928
246.600,2.851
247.600,2.807
248.600,2.788
249.600,2.785
250.600,2.792
251.600,2.804
252.600,2.818
253.600,2.832
254.600,2.844
255.600,2.855
256.600,2.863
257.600,2.870
258.600,2.877
259.600,2.884
260.600,2.893
261.600,2.903
262.600,2.915
263.491,2.927
264.491,2.940
265.491,2.954
266.491,2.968
267.491,2.983
268.491,2.998
269.491,3.012
270.491,3.025
271.491,3.036
272.491,3.047
273.491,3.056
274.491,3.064
275.491,3.070
276.491,3.075
277.491,3.078
278.491,3.080
279.491,3.080
280.491,3.080
281.491,3.078
282.491,3.075
283.491,3.071
284.491,3.067
285.491,3.062
286.491,3.058
287.491,3.053
288.491,3.048
289.491,3.044
290.491,3.041
291.491,3.038
292.491,3.036
293.491,3.035
294.561,3.029
295.561,3.036
296.561,3.042
297.561,3.047
298.561,3.052
299.561,3.056
300.561,3.059
301.561,3.062
302.561,3.065
303.561,3.068
304.561,3.070
305.561,3.073
306.561,3.074
307.561,3.076
308.561,3.076
309.561,3.077
310.561,3.076
311.561,3.075
312.561,3.072
313.561,3.069
314.561,3.064
315.561,3.059
316.561,3.052
317.561,3.043
318.561,3.034
319.561,3.023
320.561,3.011
321.561,2.998
322.561,2.983
323.561,2.967
324.561,2.950
325.561,2.932
326.561,2.913
327.561,2.892
328.561,2.871
329.561,2.848
330.561,2.825
331.561,2.800
332.561,2.774
333.561,2.747
334.561,2.719
##END=
