##TITLE=3-(1-naphthalenyl)-6(2-phenylethenyll)pyridazine
##JCAMP-DX=4.24
##DATA TYPE=UV/VIS SPECTRUM
##ORIGIN=INSTITUTE OF ENERGY PROBLEMS OF CHEMICAL PHYSICS, RAS
##OWNER=INEP CP RAS, NIST OSRD
Collection (C) 2007 copyright by the U.S. Secretary of Commerce
on behalf of the United States of America. All rights reserved.
##CAS REGISTRY NO=60028-41-3
##MOLFORM=C22H16N2
##MP=177
##SOURCE REFERENCE=RAS UV No. 22982
##$NIST SQUIB=1976BAD/837
##$NIST SOURCE=TYUGLMTE
##SPECTROMETER/DATA SYSTEM=Pye Unicam SP 8000
##XUNITS=Wavelength (nm)
##YUNITS=Logarithm epsilon
##XFACTOR=1.0
##YFACTOR=1.0
##FIRSTX=216.399
##LASTX=358.044
##FIRSTY=4.659
##MAXX=358.044
##MINX=216.399
##MAXY=4.745
##MINY=3.79
##NPOINTS=286
##$REF AUTHOR=Baddar, F.G.; et al.
##$REF JOURNAL=Spectrochim. Acta
##$REF VOLUME=32A
##$REF PAGE=837
##$REF DATE=1976
##XYPOINTS=(XY..XY)
216.399,4.659
216.899,4.665
217.399,4.672
217.899,4.678
218.399,4.685
218.899,4.691
219.399,4.698
219.899,4.704
220.399,4.710
220.899,4.716
221.399,4.721
221.899,4.727
222.399,4.732
222.899,4.736
223.399,4.740
223.899,4.743
224.399,4.745
224.899,4.745
225.399,4.742
225.899,4.737
226.399,4.728
226.461,4.725
226.961,4.710
227.461,4.692
227.961,4.673
228.461,4.652
228.961,4.630
229.461,4.607
229.961,4.583
230.461,4.558
230.961,4.532
231.461,4.506
231.961,4.480
232.461,4.454
232.961,4.427
233.461,4.401
233.961,4.376
234.461,4.351
234.961,4.327
235.461,4.304
235.961,4.281
236.461,4.260
236.961,4.240
237.461,4.221
237.961,4.203
238.461,4.185
238.961,4.169
239.461,4.152
239.961,4.135
240.461,4.119
240.867,4.101
241.367,4.087
241.867,4.073
242.367,4.059
242.867,4.045
243.367,4.031
243.867,4.018
244.367,4.004
244.867,3.991
245.367,3.977
245.867,3.964
246.367,3.952
246.867,3.940
247.367,3.928
247.867,3.916
248.367,3.905
248.867,3.895
249.367,3.884
249.867,3.875
250.367,3.866
250.867,3.858
251.367,3.850
251.867,3.843
252.367,3.837
252.867,3.831
253.367,3.826
253.867,3.822
254.367,3.818
254.867,3.816
255.367,3.814
255.867,3.813
256.367,3.812
256.867,3.812
257.367,3.813
257.867,3.815
258.367,3.817
258.867,3.820
259.367,3.824
259.867,3.828
260.367,3.833
260.867,3.838
261.367,3.844
261.867,3.850
262.367,3.857
262.867,3.864
263.367,3.871
263.867,3.879
264.367,3.887
264.867,3.895
265.367,3.904
265.867,3.913
266.367,3.922
266.867,3.931
267.367,3.940
267.867,3.950
268.367,3.960
268.867,3.969
269.367,3.979
269.867,3.989
270.367,3.999
270.867,4.009
271.367,4.019
271.867,4.029
272.367,4.039
272.867,4.049
273.367,4.059
273.867,4.068
274.367,4.078
274.867,4.088
275.367,4.098
275.867,4.107
276.367,4.117
276.867,4.126
277.367,4.136
277.867,4.145
278.367,4.154
278.867,4.163
279.367,4.172
279.867,4.181
280.200,4.188
280.700,4.195
281.200,4.202
281.700,4.210
282.200,4.218
282.700,4.226
283.200,4.234
283.700,4.243
284.200,4.251
284.700,4.260
285.200,4.268
285.700,4.276
286.200,4.285
286.700,4.293
287.200,4.301
287.700,4.310
288.200,4.318
288.700,4.325
289.200,4.333
289.700,4.341
290.200,4.349
290.700,4.356
291.200,4.363
291.700,4.370
292.200,4.378
292.700,4.385
293.200,4.391
293.700,4.398
294.200,4.405
294.700,4.411
295.200,4.417
295.700,4.424
296.200,4.430
296.700,4.436
297.200,4.442
297.700,4.447
298.200,4.453
298.700,4.458
299.200,4.464
299.700,4.469
300.200,4.474
300.700,4.479
301.200,4.483
301.700,4.488
302.200,4.492
302.700,4.496
303.200,4.500
303.468,4.502
303.968,4.506
304.468,4.509
304.968,4.513
305.468,4.516
305.968,4.519
306.468,4.521
306.968,4.524
307.468,4.526
307.968,4.528
308.468,4.530
308.968,4.531
309.468,4.533
309.968,4.534
310.468,4.536
310.968,4.537
311.468,4.538
311.968,4.539
312.468,4.540
312.968,4.541
313.468,4.542
313.968,4.543
314.468,4.543
314.968,4.544
315.468,4.544
315.968,4.545
316.468,4.545
316.968,4.546
317.468,4.546
317.968,4.547
318.468,4.547
318.968,4.547
319.468,4.548
319.968,4.548
320.468,4.548
320.968,4.548
321.468,4.548
321.968,4.548
322.468,4.548
322.968,4.547
323.468,4.547
323.968,4.546
324.468,4.546
324.968,4.545
325.468,4.544
326.044,4.542
326.544,4.541
327.044,4.539
327.544,4.537
328.044,4.535
328.544,4.533
329.044,4.531
329.544,4.528
330.044,4.525
330.544,4.522
331.044,4.519
331.544,4.515
332.044,4.512
332.544,4.508
333.044,4.503
333.544,4.499
334.044,4.494
334.544,4.489
335.044,4.484
335.544,4.479
336.044,4.473
336.544,4.467
337.044,4.461
337.544,4.454
338.044,4.447
338.544,4.440
339.044,4.433
339.544,4.425
340.044,4.417
340.544,4.409
341.044,4.400
341.544,4.391
342.044,4.382
342.544,4.372
343.044,4.363
343.544,4.352
344.044,4.341
344.544,4.330
345.044,4.319
345.544,4.307
346.044,4.294
346.544,4.281
347.044,4.268
347.544,4.254
348.044,4.240
348.544,4.225
349.044,4.210
349.544,4.194
350.044,4.177
350.544,4.160
351.044,4.142
351.544,4.123
352.044,4.103
352.544,4.083
353.044,4.062
353.544,4.040
354.044,4.017
354.544,3.993
355.044,3.968
355.544,3.941
356.044,3.914
356.544,3.885
357.044,3.855
357.544,3.823
358.044,3.790
##END=
