##TITLE=2,3-Pentadione
##JCAMP-DX=4.24
##DATA TYPE=UV/VIS SPECTRUM
##ORIGIN=INSTITUTE OF ENERGY PROBLEMS OF CHEMICAL PHYSICS, RAS
##OWNER=INEP CP RAS, NIST OSRD
Collection (C) 2007 copyright by the U.S. Secretary of Commerce
on behalf of the United States of America. All rights reserved.
##CAS REGISTRY NO=600-14-6
##MOLFORM=C5H8O2
##BP=108
##SOURCE REFERENCE=RAS UV No. 5075
##$NIST SQUIB=1972JAC/YAR1331-1337
##$NIST SOURCE=TSGMTE
##SPECTROMETER/DATA SYSTEM=n.i.g.
##XUNITS=Wavelength (nm)
##YUNITS=Logarithm epsilon
##XFACTOR=1.000000
##YFACTOR=1.000000
##FIRSTX=205.8741
##LASTX=469.4509
##FIRSTY=3.57833
##MAXX=469.451
##MINX=205.874
##MAXY=3.57833
##MINY=1.62542
##NPOINTS=369
##$REF AUTHOR=Jackson, A.W.; Yarwood, A.J.
##$REF TITLE=Fluorescence and Phosphorescence of 2,3-pentanedione
##$REF JOURNAL=Can. J. Chem.
##$REF VOLUME=50
##$REF PAGE=1331-1337
##$REF DATE=1972
##XYPOINTS=(XY..XY)
205.8741,3.578329
206.0191,3.573504
206.1626,3.568621
206.3049,3.563681
206.4460,3.558680
206.5859,3.553619
206.7247,3.548495
206.8622,3.543307
206.9988,3.538054
207.1341,3.532734
207.2686,3.527344
207.4020,3.521885
207.5345,3.516353
207.6661,3.510747
207.7969,3.505066
207.9268,3.499306
208.0559,3.493466
208.1842,3.487544
208.3119,3.481538
208.4388,3.475444
208.5651,3.469262
208.6908,3.462987
208.8159,3.456618
208.9405,3.450152
209.0647,3.443585
209.1883,3.436915
209.3115,3.430139
209.4344,3.423253
209.5569,3.416253
209.6791,3.409136
209.8011,3.401899
209.9228,3.394536
210.0443,3.387044
210.1656,3.379418
210.2869,3.371654
210.4081,3.363746
210.5292,3.355690
210.6503,3.347478
210.7715,3.339106
210.8927,3.330568
211.0140,3.321857
211.1355,3.312964
211.2571,3.303885
211.3790,3.294609
211.5011,3.285129
211.6236,3.275435
211.7463,3.265518
211.8694,3.255367
211.9929,3.244972
212.1169,3.234321
212.2414,3.223399
212.3663,3.212194
212.4919,3.200692
212.6180,3.188874
212.7447,3.176725
212.8722,3.164224
213.0003,3.151352
213.1292,3.138086
213.2588,3.124400
213.3894,3.110267
213.5207,3.095659
213.6529,3.080541
213.7860,3.064877
213.9202,3.048626
214.0553,3.031744
214.1915,3.014177
214.3287,2.995870
214.4671,2.976756
214.6067,2.956763
214.7474,2.935806
214.8893,2.913786
215.0325,2.890591
215.1771,2.866086
215.1771,2.866086
215.9611,2.832348
216.8020,2.795161
217.6714,2.754159
217.6714,2.754159
218.8727,2.754562
220.0172,2.760291
221.1060,2.770757
222.1402,2.785259
223.1207,2.803046
224.0487,2.823376
224.9251,2.845554
225.7511,2.868962
226.5277,2.893066
227.2558,2.917421
227.9365,2.941662
228.5709,2.965494
229.1600,2.988682
229.7048,3.011043
230.2064,3.032431
230.6659,3.052734
231.0842,3.071862
231.4623,3.089744
231.8015,3.106321
232.1025,3.121541
232.3667,3.135359
232.5949,3.147729
232.7881,3.158605
232.9475,3.167936
233.0740,3.175665
233.1688,3.181726
233.2328,3.186039
233.2328,3.186039
233.8769,3.198894
234.4592,3.211440
234.9863,3.223676
235.4649,3.235604
235.9016,3.247223
236.3032,3.258538
236.6760,3.269549
237.0272,3.280258
237.3631,3.290667
237.6903,3.300778
238.0157,3.310595
238.3458,3.320118
238.6873,3.329351
238.6873,3.329351
239.3183,3.337035
239.8516,3.344860
240.2989,3.352785
240.6721,3.360772
240.9826,3.368786
241.2424,3.376794
241.4630,3.384764
241.6561,3.392669
241.8335,3.400481
242.0069,3.408177
242.1879,3.415732
242.3882,3.423127
242.6197,3.430341
242.8938,3.437356
243.2224,3.444155
243.6172,3.450722
244.0898,3.457041
244.6520,3.463097
245.3154,3.468878
246.0918,3.474369
246.9927,3.479558
248.0302,3.484431
249.2155,3.488977
250.5607,3.493183
252.0772,3.497036
252.0772,3.497036
253.9980,3.494615
255.5511,3.490316
256.7880,3.484559
257.7605,3.477772
258.5199,3.470401
259.1178,3.462918
259.6056,3.455831
260.0348,3.449680
260.0348,3.449680
260.3597,3.443499
260.6922,3.437147
261.0338,3.430623
261.3855,3.423928
261.7488,3.417062
262.1248,3.410023
262.5151,3.402812
262.9205,3.395428
263.3428,3.387872
263.7828,3.380144
264.2420,3.372243
264.7217,3.364169
265.2233,3.355923
265.7477,3.347505
266.2967,3.338916
266.8710,3.330155
267.4723,3.321225
268.1017,3.312125
268.7605,3.302858
269.4500,3.293425
270.1715,3.283827
270.9262,3.274068
271.7156,3.264150
272.5406,3.254075
273.4028,3.243849
274.3032,3.233474
275.2435,3.222957
276.2245,3.212302
277.2477,3.201516
278.3145,3.190607
279.4260,3.179583
280.5835,3.168453
281.7884,3.157227
283.0418,3.145919
283.0418,3.145919
283.7150,3.129708
284.4242,3.112685
285.1574,3.094840
285.9025,3.076163
285.9025,3.076163
286.6297,3.062476
287.3586,3.047934
288.0926,3.032507
288.8347,3.016158
289.5883,2.998847
290.3566,2.980528
291.1428,2.961149
291.9504,2.940652
292.7824,2.918969
293.6422,2.896025
294.5329,2.871733
295.4581,2.845993
296.4206,2.818690
297.4240,2.789693
298.4713,2.758847
299.5660,2.725970
300.7114,2.690847
301.9104,2.653223
303.1666,2.612785
304.4830,2.569151
305.8631,2.521846
307.3100,2.470264
308.8269,2.413619
310.4173,2.350856
312.0843,2.280523
313.8312,2.200525
315.6611,2.107662
317.5775,1.996662
317.5775,1.996662
320.2698,1.911513
322.9524,1.842479
325.6221,1.798315
328.2754,1.785069
330.9092,1.802728
333.5202,1.845252
336.1050,1.903816
338.6606,1.970359
341.1837,2.039052
343.6710,2.106307
346.1189,2.170136
348.5247,2.229572
350.8848,2.284243
353.1961,2.334074
355.4551,2.379169
357.6589,2.419683
359.8041,2.455792
361.8872,2.487654
361.8872,2.487654
363.6250,2.530359
365.3833,2.570891
367.1541,2.609339
368.9294,2.645795
370.7010,2.680363
372.4607,2.713140
374.2008,2.744224
375.9129,2.773705
377.5893,2.801667
379.2216,2.828189
380.8017,2.853345
382.3218,2.877202
383.7737,2.899820
385.1493,2.921256
386.4405,2.941560
387.6393,2.960778
388.7377,2.978952
389.7274,2.996119
390.6007,3.012313
390.6007,3.012313
392.3961,3.018446
394.1040,3.027468
395.7323,3.038837
397.2892,3.052017
398.7825,3.066498
400.2206,3.081813
401.6112,3.097543
402.9626,3.113319
404.2826,3.128821
405.5794,3.143775
406.8610,3.157939
408.1354,3.171107
409.4107,3.183092
410.6950,3.193726
411.9961,3.202849
413.3223,3.210305
413.3223,3.210305
413.8580,3.218507
414.4223,3.226555
415.0440,3.234456
415.0440,3.234456
415.5652,3.234913
415.6990,3.239799
415.7000,3.240283
415.7009,3.240767
415.7019,3.241250
416.1148,3.235260
416.7213,3.235388
416.7213,3.235388
417.5536,3.226520
418.0799,3.222210
418.7513,3.218870
418.7513,3.218870
419.3050,3.218854
419.9160,3.218836
420.5556,3.218817
420.5556,3.218817
420.8159,3.220182
421.0758,3.221318
421.3356,3.222339
421.3356,3.222339
424.0586,3.218506
427.3534,3.214052
430.8528,3.211847
430.8528,3.211847
431.2549,3.220024
431.6570,3.228050
432.0591,3.235929
432.0591,3.235929
432.4554,3.240779
432.5877,3.240148
432.7024,3.235404
432.7483,3.239300
432.9660,3.238341
433.3456,3.234769
433.9883,3.233915
433.9883,3.233915
434.4216,3.224001
435.0557,3.208709
436.0148,3.191318
437.4235,3.175592
439.4061,3.165840
439.4061,3.165840
440.0524,3.166945
440.6984,3.167919
441.3440,3.168638
441.3440,3.168638
441.7335,3.167461
442.1513,3.166153
442.6260,3.164582
442.6260,3.164582
443.2340,3.151151
443.8429,3.137436
444.4556,3.123406
445.0747,3.109025
445.7032,3.094253
446.3437,3.079045
446.9989,3.063352
447.6719,3.047118
448.3654,3.030280
449.0820,3.012767
449.8247,2.994498
450.5961,2.975378
451.3992,2.955301
452.2367,2.934141
453.1114,2.911754
454.0260,2.887964
454.9833,2.862566
455.9862,2.835311
457.0375,2.805892
457.0375,2.805892
457.3011,2.774726
457.6255,2.741551
458.0170,2.705956
458.4827,2.667421
459.0288,2.625258
459.6623,2.578556
460.3897,2.526047
461.2176,2.465920
462.1527,2.395430
463.2017,2.310142
464.3711,2.202152
465.6678,2.055137
465.6678,2.055137
467.4183,1.914850
469.4509,1.625425
##END=
