##TITLE=4-Phenylazoaniline
##JCAMP-DX=4.24
##DATA TYPE=UV/VIS SPECTRUM
##ORIGIN=INSTITUTE OF ENERGY PROBLEMS OF CHEMICAL PHYSICS, RAS
##OWNER=INEP CP RAS, NIST OSRD
Collection (C) 2007 copyright by the U.S. Secretary of Commerce
on behalf of the United States of America. All rights reserved.
##CAS REGISTRY NO=60-09-3
##MOLFORM=C12H11N3
##MP=127
##BP=> 360
##SOURCE REFERENCE=RAS UV No. 3827
##$NIST SQUIB=1953DAH/CAS638-645
##$NIST SOURCE=TSGMTE
##SPECTROMETER/DATA SYSTEM=n.i.g.
##XUNITS=Wavelength (nm)
##YUNITS=Logarithm epsilon
##XFACTOR=1.000000
##YFACTOR=1.000000
##FIRSTX=214.0008
##LASTX=517.5810
##FIRSTY=3.80672
##MAXX=517.581
##MINX=214.001
##MAXY=4.36349
##MINY=2.13556
##NPOINTS=375
##$REF AUTHOR=Dahn, H.; Castelmur, H.
##$REF TITLE=Uber die absorptionsspektren von polyazoverbindungen
##$REF JOURNAL=Helv. Chim. Acta
##$REF VOLUME=36
##$REF PAGE=638-645
##$REF DATE=1953
##XYPOINTS=(XY..XY)
214.0008,3.806719
214.5296,3.800954
214.5516,3.806497
215.5088,3.800560
216.0400,3.795411
223.6483,3.797282
224.1991,3.797060
224.7107,3.802406
226.2824,3.812259
226.7720,3.812062
226.7916,3.816989
227.3423,3.816767
231.5652,3.861330
234.7476,3.890890
235.2984,3.890668
235.3180,3.895595
243.6829,3.948976
244.1921,3.953706
245.7221,3.953090
246.2337,3.958435
256.4540,3.954319
256.9216,3.948579
263.4086,3.915124
263.4307,3.920667
263.9594,3.914902
264.8994,3.904654
265.4282,3.898890
265.4502,3.904432
265.8982,3.893766
266.3682,3.888642
266.3878,3.893569
266.8969,3.882877
266.9190,3.888420
267.3669,3.877753
267.3865,3.882680
273.1807,3.798306
273.6287,3.787639
273.6703,3.798109
274.0766,3.776972
274.0987,3.782515
274.6078,3.771824
274.6274,3.776751
275.0778,3.766700
275.0974,3.771627
275.5062,3.751106
275.5454,3.760960
276.0350,3.745342
276.0570,3.750884
276.5050,3.740218
276.5245,3.745144
283.2979,3.644955
283.7679,3.639831
283.7875,3.644758
284.2354,3.634091
284.2575,3.639634
284.7862,3.633869
285.2367,3.623818
285.2562,3.628745
285.7262,3.623621
286.2550,3.617857
294.8033,3.594058
295.3125,3.598788
306.5120,3.594277
307.0848,3.599598
314.2452,3.612135
314.8156,3.616840
315.3052,3.616643
315.3248,3.621570
316.3652,3.621151
316.8768,3.626497
317.9172,3.626078
317.9368,3.631005
322.0372,3.644774
322.0568,3.649701
322.5464,3.649504
324.1376,3.664284
324.6884,3.664062
324.7104,3.669605
325.2000,3.669408
325.7092,3.674138
325.7288,3.679064
326.2796,3.678843
326.3016,3.684385
326.7912,3.684188
326.8108,3.689115
332.8086,3.779226
333.2982,3.779029
333.3398,3.789499
334.4218,3.799549
334.4610,3.809403
334.9506,3.809206
334.9922,3.819675
335.5014,3.824405
335.5235,3.829948
336.0939,3.834653
336.1355,3.845122
337.1539,3.854582
337.1759,3.860125
337.7463,3.864830
337.7659,3.869756
342.1725,3.960508
342.6621,3.960311
342.7037,3.970781
343.7857,3.980831
343.8053,3.985758
344.3170,3.991104
344.3562,4.000958
344.9069,4.000736
345.4186,4.006081
345.4382,4.011008
345.9474,4.015738
345.9694,4.021281
346.5398,4.025986
346.5594,4.030913
347.0710,4.036258
347.1102,4.046112
353.0884,4.131296
353.5976,4.136026
353.6196,4.141569
354.1092,4.141371
354.1288,4.146298
355.7200,4.161079
355.7396,4.166005
356.2904,4.165784
356.3124,4.171326
362.1878,4.246066
362.2074,4.250993
362.6969,4.250795
363.7790,4.260846
363.7986,4.265773
364.2882,4.265576
364.8610,4.270897
364.8806,4.275823
365.3702,4.275626
365.3898,4.280553
365.8794,4.280356
366.4522,4.285677
366.4718,4.290604
366.9614,4.290406
367.4706,4.295136
367.4926,4.300679
368.0434,4.300457
368.5526,4.305187
369.0422,4.304990
369.1230,4.325313
371.7155,4.329820
372.7559,4.329401
373.2650,4.334131
373.2846,4.339058
373.7742,4.338861
374.3471,4.344182
374.3667,4.349109
375.3459,4.348714
375.9163,4.353419
376.4058,4.353222
376.9175,4.358568
376.9371,4.363494
378.9567,4.362681
394.7461,4.356322
395.2773,4.351173
397.2969,4.350360
397.7449,4.339693
397.7645,4.344620
403.2331,4.301706
403.7227,4.301509
404.7215,4.290620
405.2111,4.290423
407.6786,4.263522
408.1486,4.258398
408.1682,4.263324
415.5120,4.183261
415.9820,4.178137
416.0016,4.183064
416.5132,4.172988
417.0028,4.172791
421.9182,4.129483
422.4470,4.123719
422.4690,4.129261
425.4065,4.097236
425.8741,4.091496
425.8961,4.097039
426.3441,4.086372
426.3637,4.091299
426.8141,4.081248
427.3649,4.081026
427.8324,4.075286
428.3220,4.075089
429.3232,4.064816
431.3428,4.064003
431.8103,4.042842
431.8715,4.058238
432.7699,4.037521
432.7895,4.042448
433.3207,4.037299
433.7687,4.026632
433.7907,4.032175
434.2583,4.026435
434.7895,4.021286
435.2595,4.016162
435.2791,4.021089
436.2582,4.005274
437.2178,3.999952
437.2374,4.004879
444.1332,3.935483
444.6008,3.929743
444.6228,3.935286
445.0487,3.919076
445.0708,3.924619
445.5799,3.913927
446.0695,3.913730
446.5175,3.903063
446.5395,3.908606
447.0291,3.892988
447.0487,3.897915
447.5187,3.892791
448.4978,3.876975
448.5174,3.881902
454.2700,3.787059
454.2896,3.791985
455.1879,3.771268
455.2075,3.776195
456.1671,3.755452
456.1867,3.760379
456.6151,3.744785
456.6371,3.750328
457.1463,3.739637
457.1658,3.744564
457.5942,3.728970
457.6163,3.734513
458.0838,3.728773
463.7555,3.613606
464.1839,3.598012
464.2231,3.607866
464.7126,3.592248
464.7347,3.597791
465.1631,3.582197
465.1826,3.587124
465.6110,3.571530
465.6306,3.576457
466.1422,3.566381
466.1618,3.571308
466.5902,3.555715
466.6098,3.560642
467.5693,3.539899
467.5889,3.544826
468.0393,3.534775
468.0589,3.539702
468.4873,3.524108
468.5069,3.529035
469.0185,3.518960
472.7099,3.429881
473.2190,3.419190
473.2386,3.424117
473.6474,3.403596
473.6890,3.414066
474.1174,3.398472
474.1370,3.403399
474.6069,3.382854
474.6461,3.392707
475.0745,3.377114
475.0965,3.382656
475.5249,3.367063
475.5445,3.371990
475.9533,3.351469
475.9924,3.361323
476.4820,3.345705
476.5041,3.351247
476.9324,3.335654
476.9520,3.340581
477.3804,3.324987
477.4000,3.329914
477.8895,3.314296
477.9116,3.319838
478.3179,3.298702
478.3595,3.309171
478.7879,3.293578
478.8075,3.298505
479.3387,3.293356
482.5405,3.204475
482.9688,3.188881
483.0105,3.199351
483.5000,3.183732
483.5196,3.188659
483.9480,3.173065
483.9676,3.177992
484.3763,3.157472
484.4180,3.167941
484.8855,3.146780
484.9271,3.157250
485.3359,3.136730
485.3555,3.141656
485.7839,3.126063
485.8035,3.130990
486.2734,3.110444
486.3151,3.120914
487.1498,3.084184
487.2110,3.099580
487.6810,3.079035
487.7005,3.083962
488.0897,3.058515
488.1510,3.073911
488.5573,3.052775
488.5793,3.058318
489.0689,3.042699
489.0885,3.047626
489.4752,3.021563
489.5364,3.036959
489.9648,3.021366
494.5129,2.885679
494.5545,2.896148
495.0245,2.875603
495.0636,2.885457
495.4528,2.860010
495.4920,2.869863
495.9008,2.849343
495.9424,2.859812
496.3903,2.833725
496.4320,2.844194
496.8383,2.823058
496.8603,2.828600
497.2667,2.807464
497.3083,2.817934
497.7758,2.796773
497.7979,2.802315
498.2042,2.781179
498.2458,2.791649
498.6325,2.765585
498.6742,2.776055
499.1637,2.760437
503.2026,2.620020
503.2443,2.630490
503.6506,2.609353
503.6726,2.614896
504.0593,2.588833
504.1206,2.604229
504.5685,2.578141
504.6101,2.588611
504.9969,2.562548
505.0385,2.573017
505.4448,2.551881
505.4865,2.562351
505.9148,2.531336
505.9760,2.546732
506.3432,2.515742
506.3848,2.526212
506.7715,2.500148
506.8132,2.510618
507.1999,2.484555
507.2611,2.499951
507.7090,2.473863
507.7507,2.484333
508.1178,2.453343
508.1790,2.468739
508.5266,2.432822
508.5878,2.448219
509.0774,2.432601
513.5030,2.266121
513.5226,2.271048
513.9093,2.244984
513.9705,2.260381
514.4209,2.234909
514.4405,2.239836
514.8272,2.213772
514.8884,2.229169
515.2556,2.198179
515.2972,2.208648
515.7451,2.182560
515.8064,2.197957
516.1735,2.166967
516.2151,2.177436
516.6239,2.156916
516.6631,2.166770
517.0914,2.135755
517.1527,2.151151
517.5810,2.135558
##END=
