##TITLE=Benzenamine, N,N-dimethyl-4-(phenylazo)-
##JCAMP-DX=4.24
##DATA TYPE=UV/VIS SPECTRUM
##ORIGIN=INSTITUTE OF ENERGY PROBLEMS OF CHEMICAL PHYSICS, RAS
##OWNER=INEP CP RAS, NIST OSRD
Collection (C) 2007 copyright by the U.S. Secretary of Commerce
on behalf of the United States of America. All rights reserved.
##CAS REGISTRY NO=60-11-7
##MOLFORM=C14H15N3
##MP=117
##SOURCE REFERENCE=RAS UV No. 17854
##$NIST SQUIB=1976BIS/301
##$NIST SOURCE=TYUGLMTE
##SPECTROMETER/DATA SYSTEM=Zeiss PMQ II
##XUNITS=Wavelength (nm)
##YUNITS=Logarithm epsilon
##XFACTOR=1.0
##YFACTOR=1.0
##FIRSTX=236.58
##LASTX=540.58
##FIRSTY=4.005
##MAXX=540.58
##MINX=236.58
##MAXY=4.404
##MINY=2.74
##NPOINTS=115
##$REF AUTHOR=Bisle, H.; et al.
##$REF JOURNAL=Ber. Bunsen-Gesellschaft. Phys. Chem.
##$REF VOLUME=80
##$REF PAGE=301
##$REF DATE=1976
##XYPOINTS=(XY..XY)
236.58,4.005
238.27,4.017
239.88,4.030
241.76,4.040
243.48,4.048
245.26,4.054
247.08,4.061
248.92,4.067
250.79,4.073
252.63,4.077
254.89,4.079
256.99,4.078
258.99,4.073
261.12,4.063
263.22,4.050
265.62,4.030
267.57,4.009
269.30,3.983
271.13,3.949
272.85,3.918
274.55,3.886
276.11,3.844
277.64,3.800
279.96,3.769
282.06,3.751
284.46,3.732
286.90,3.720
289.39,3.714
291.45,3.709
293.01,3.712
294.49,3.714
295.71,3.712
297.11,3.707
298.68,3.709
300.07,3.714
301.24,3.717
302.79,3.720
304.21,3.720
305.56,3.720
306.91,3.715
307.62,3.711
308.38,3.707
309.04,3.709
309.74,3.712
311.25,3.714
312.58,3.708
313.84,3.695
314.99,3.687
316.82,3.683
318.54,3.687
319.85,3.695
321.09,3.712
322.60,3.726
323.92,3.730
325.74,3.732
327.04,3.725
329.03,3.722
330.59,3.735
331.86,3.751
334.06,3.788
336.30,3.831
339.34,3.875
341.65,3.918
343.99,3.961
346.77,3.999
349.18,4.042
352.05,4.079
354.95,4.116
358.34,4.172
361.35,4.203
364.41,4.240
367.53,4.271
370.70,4.309
374.07,4.338
378.16,4.364
382.32,4.385
387.29,4.399
392.47,4.404
397.97,4.396
402.44,4.371
405.70,4.333
408.45,4.290
412.37,4.240
415.22,4.191
418.69,4.141
421.62,4.092
425.80,4.036
428.22,3.986
431.91,3.924
434.41,3.875
436.93,3.825
439.48,3.776
442.72,3.726
446.00,3.676
449.33,3.633
453.40,3.590
457.53,3.552
463.17,3.521
468.22,3.484
472.63,3.447
478.65,3.404
482.96,3.363
487.96,3.311
492.19,3.269
497.65,3.218
502.25,3.171
506.88,3.118
510.80,3.074
515.56,3.025
519.36,2.984
523.64,2.932
528.24,2.883
531.77,2.838
535.77,2.790
540.58,2.740
##END=
