##TITLE=3-beta-D-ribofuranosyl-3Himidazo[4,5-g]quinazolin-8-amine
##JCAMP-DX=4.24
##DATA TYPE=UV/VIS SPECTRUM
##ORIGIN=INSTITUTE OF ENERGY PROBLEMS OF CHEMICAL PHYSICS, RAS
##OWNER=INEP CP RAS, NIST OSRD
Collection (C) 2007 copyright by the U.S. Secretary of Commerce
on behalf of the United States of America. All rights reserved.
##CAS REGISTRY NO=60189-62-0
##MOLFORM=C14H15N5O4
##MP=294-296 (dec.)
##SOURCE REFERENCE=RAS UV No. 22737
##$NIST SQUIB=1976LEO/3987
##$NIST SOURCE=TYUGLMTE
##SPECTROMETER/DATA SYSTEM=Cary 15
##XUNITS=Wavelength (nm)
##YUNITS=Logarithm epsilon
##XFACTOR=1.0
##YFACTOR=1.0
##FIRSTX=206.639
##LASTX=355.951
##FIRSTY=4.182
##MAXX=355.951
##MINX=206.639
##MAXY=4.622
##MINY=3.087
##NPOINTS=156
##$REF AUTHOR=Leonard, N.J.; et al.
##$REF JOURNAL=J.Am. Chem. Soc.
##$REF VOLUME=98
##$REF PAGE=3987
##$REF DATE=1976
##XYPOINTS=(XY..XY)
206.639,4.182
206.875,4.179
207.875,4.162
208.875,4.145
209.875,4.129
210.875,4.119
211.875,4.116
212.875,4.120
213.875,4.132
214.875,4.151
215.875,4.177
216.875,4.208
217.875,4.242
218.875,4.279
219.875,4.315
220.875,4.352
221.875,4.386
222.875,4.418
223.875,4.447
224.875,4.476
225.875,4.505
225.975,4.507
226.975,4.543
227.975,4.574
228.975,4.599
229.975,4.615
230.975,4.622
231.975,4.621
232.975,4.613
233.975,4.600
234.700,4.593
235.700,4.579
236.700,4.573
237.700,4.567
238.700,4.559
239.700,4.545
240.700,4.526
241.700,4.500
242.700,4.468
243.700,4.431
244.700,4.390
245.700,4.348
246.700,4.308
247.700,4.271
248.700,4.240
249.700,4.217
250.700,4.202
251.700,4.197
252.700,4.199
253.700,4.208
254.700,4.219
254.743,4.217
255.743,4.228
256.743,4.234
257.743,4.237
258.743,4.237
259.743,4.235
260.743,4.232
261.743,4.226
262.743,4.217
263.743,4.205
264.743,4.190
265.743,4.169
266.743,4.141
267.743,4.105
268.743,4.059
269.743,4.001
270.743,3.928
271.743,3.837
272.664,3.715
273.664,3.693
274.664,3.677
275.664,3.667
275.730,3.668
276.730,3.660
277.730,3.655
278.730,3.651
279.730,3.648
280.730,3.647
281.730,3.647
282.730,3.648
283.730,3.650
284.730,3.653
285.730,3.656
286.730,3.660
287.730,3.664
288.730,3.668
289.730,3.673
290.730,3.678
291.730,3.683
292.730,3.688
293.730,3.694
294.730,3.699
295.730,3.704
296.730,3.709
297.730,3.714
298.730,3.719
299.730,3.724
300.730,3.729
301.730,3.735
302.730,3.740
303.730,3.745
304.730,3.751
305.730,3.757
306.730,3.763
307.730,3.770
308.730,3.778
309.730,3.786
310.730,3.796
311.730,3.806
312.730,3.817
313.458,3.832
314.458,3.839
315.458,3.852
316.458,3.864
317.458,3.872
318.458,3.875
319.458,3.873
320.458,3.867
321.458,3.861
322.458,3.858
323.458,3.860
324.458,3.869
325.458,3.885
326.458,3.907
327.135,3.922
328.135,3.939
329.135,3.952
330.135,3.959
331.135,3.958
332.135,3.948
333.135,3.931
334.135,3.906
335.135,3.875
336.135,3.842
337.135,3.809
337.275,3.807
338.275,3.772
339.275,3.764
340.275,3.772
341.275,3.790
342.275,3.810
343.275,3.827
344.275,3.837
345.275,3.838
346.275,3.827
347.275,3.804
348.275,3.769
349.275,3.723
350.275,3.669
350.951,3.627
351.951,3.567
352.951,3.484
353.951,3.368
354.951,3.228
355.951,3.087
##END=
