##TITLE=9-Phenylantharcene
##JCAMP-DX=4.24
##DATA TYPE=UV/VIS SPECTRUM
##ORIGIN=INSTITUTE OF ENERGY PROBLEMS OF CHEMICAL PHYSICS, RAS
##OWNER=INEP CP RAS, NIST OSRD
Collection (C) 2007 copyright by the U.S. Secretary of Commerce
on behalf of the United States of America. All rights reserved.
##CAS REGISTRY NO=602-55-1
##MOLFORM=C20H14
##SOURCE REFERENCE=RAS UV No. 741
##$NIST SQUIB=1948HIR285-289
##$NIST SOURCE=TSGMTE
##SPECTROMETER/DATA SYSTEM=Zeiss spectrograph
##XUNITS=Wavelength (nm)
##YUNITS=Logarithm epsilon
##XFACTOR=1.000000
##YFACTOR=1.000000
##FIRSTX=239.8764
##LASTX=405.1859
##FIRSTY=4.65245
##MAXX=405.186
##MINX=239.876
##MAXY=5.36317
##MINY=2.69228
##NPOINTS=372
##$REF AUTHOR=Hirshberg, Y.
##$REF TITLE=The absorption spectra of phenylated anthracenes
##$REF JOURNAL=Trans. Faraday Soc.
##$REF VOLUME=44
##$REF PAGE=285-289
##$REF DATE=1948
##XYPOINTS=(XY..XY)
239.8764,4.652445
239.8950,4.660249
239.9228,4.667966
239.9552,4.675502
240.4429,4.716406
240.4644,4.721349
240.4949,4.726295
240.5299,4.731243
240.9055,4.782792
240.9603,4.789805
241.0196,4.796818
241.0416,4.850691
241.0879,4.803836
241.5192,4.867575
241.9348,4.878769
242.2770,4.928371
242.2827,4.889844
242.2827,4.889844
242.3637,4.973878
242.7985,5.005182
243.5023,5.033016
243.8761,5.045380
244.2500,5.057562
244.6241,5.069653
244.9047,5.114585
245.0667,5.121214
245.2378,5.127755
245.4136,5.134116
246.4151,5.189619
246.4390,5.196649
246.6461,5.205581
247.2140,5.224070
248.8507,5.274073
249.5403,5.292658
250.1438,5.311663
250.4793,5.332297
251.8496,5.343542
251.9503,5.344390
252.0511,5.345147
252.1521,5.345721
252.8929,5.356711
253.1346,5.358865
253.3762,5.361019
253.6179,5.363172
256.5835,5.342992
256.8413,5.341025
257.1199,5.336234
257.6581,5.324513
259.0069,5.254748
259.1487,5.240704
259.2997,5.226480
259.4553,5.212167
260.3585,5.161548
260.5778,5.145996
260.8017,5.130356
261.0348,5.114536
261.5201,5.055112
261.5956,5.041148
261.6757,5.027094
261.7650,5.012861
262.2525,4.930747
262.2926,4.910692
262.3403,4.944641
262.6687,4.961830
262.7779,4.851268
262.7836,4.845514
262.7893,4.839760
262.7950,4.834005
263.4919,4.766033
263.6479,4.752101
263.8040,4.738077
263.9602,4.723871
264.6320,4.681381
264.8050,4.663116
264.9511,4.653794
265.1957,4.645426
265.3711,4.570663
265.6010,4.545157
265.8031,4.529416
265.9556,4.513746
266.7772,4.422387
266.9545,4.418103
267.1322,4.408795
267.4628,4.386481
268.8209,4.286705
269.0025,4.273499
269.1933,4.260114
269.3887,4.246639
270.6075,4.185045
270.8267,4.169510
271.0505,4.153976
271.2833,4.138445
272.4278,4.049272
272.7145,4.032515
273.0103,4.015670
273.3108,3.998644
274.8395,3.952389
275.0587,3.936853
275.2825,3.921319
275.5153,3.905789
277.0651,3.838161
277.4669,3.822167
277.8689,3.805989
278.2709,3.789720
279.7086,3.732737
280.1739,3.714149
280.3739,3.703676
280.4799,3.692343
282.7713,3.614326
283.1319,3.599669
283.4970,3.585015
283.8711,3.570364
285.2081,3.491960
285.4016,3.470596
285.5747,3.460645
285.8758,3.453580
287.2307,3.377650
287.4875,3.364474
287.7445,3.351116
288.0016,3.337667
289.8710,3.254955
290.1736,3.236575
290.4762,3.218194
290.7787,3.199814
292.7343,3.132762
292.7685,3.125512
292.9685,3.115039
293.5055,3.092368
296.4171,3.044617
297.0827,3.038110
297.5184,3.031144
297.9089,3.015205
301.3082,3.008358
301.6946,3.007981
302.0811,3.007422
302.4677,3.006771
302.7748,3.004429
303.3714,3.005995
304.3181,3.009622
306.2387,3.014466
306.2387,3.014466
306.7717,3.035514
307.7483,3.050712
308.8323,3.062390
311.1022,3.129508
311.2968,3.138922
311.4960,3.148155
311.7045,3.157300
312.6991,3.219790
312.8164,3.230513
312.9428,3.241148
313.0739,3.251602
313.8574,3.322231
313.9846,3.337374
314.1120,3.352334
314.2395,3.367203
314.9157,3.422986
315.1524,3.429386
315.4607,3.441024
315.8409,3.452965
317.7038,3.479623
317.9062,3.481228
318.1132,3.482652
318.3293,3.483988
321.0666,3.489208
322.1169,3.495390
323.1672,3.501571
324.2174,3.507753
325.6621,3.546577
325.8407,3.564558
325.9121,3.581399
326.0422,3.593605
328.2069,3.643822
328.3677,3.651684
328.5375,3.659459
328.7121,3.667052
330.3513,3.714590
330.5519,3.730144
330.9389,3.744311
331.1416,3.757672
334.1320,3.835772
334.5135,3.840328
334.8951,3.844701
335.2769,3.848982
337.3888,3.849837
337.5323,3.848540
337.6759,3.847060
337.8197,3.845489
338.1243,3.845612
338.4895,3.852156
338.6220,3.856687
338.6352,3.863088
341.0497,3.866122
341.0880,3.868483
341.1264,3.870661
341.1650,3.872747
343.6286,3.928842
343.9674,3.936259
344.3109,3.943494
344.6635,3.950642
346.1207,3.976725
346.8171,3.977007
347.5226,3.977292
348.2326,3.977580
349.7239,3.948579
350.0246,3.938954
350.3622,3.933091
351.0243,3.927724
351.0243,3.927724
351.0326,3.919383
351.0410,3.910858
351.0495,3.902242
351.0495,3.902242
351.4502,3.900318
351.7816,3.895442
352.3276,3.883434
354.2267,3.873512
355.5067,3.869538
356.0042,3.867075
356.1457,3.864010
358.2556,3.866920
358.7386,3.871517
359.2218,3.875931
359.7051,3.880253
361.1582,3.910446
361.3004,3.910504
361.4425,3.910561
361.5847,3.910619
361.5847,3.910619
362.6007,3.942355
363.2371,3.974395
363.8026,4.009787
364.8248,4.044329
365.0473,4.056754
365.2608,4.064516
365.6484,4.074267
366.0103,4.119231
366.2157,4.123000
366.4303,4.126681
366.6496,4.130181
367.9256,4.113428
368.2351,4.104111
368.3521,4.097550
368.3773,4.088118
368.6096,4.058608
368.7603,4.050034
368.9109,4.041460
369.0616,4.032887
369.5258,3.994835
369.6640,3.984490
369.8113,3.973966
369.9632,3.963352
370.6500,3.905654
370.7613,3.896638
370.8771,3.887533
371.0021,3.878248
373.8512,3.873234
374.2972,3.874938
374.7479,3.876460
375.2077,3.877895
375.2077,3.877895
376.2437,3.919066
376.8573,3.962808
377.8248,4.004774
377.8248,4.004774
378.0911,4.029963
378.3036,4.075279
378.3457,4.053229
379.0944,4.117950
379.2910,4.125309
379.4923,4.132487
379.7027,4.139577
379.8879,4.178303
380.1453,4.191153
380.4118,4.204007
380.6827,4.216864
381.9243,4.255605
382.1927,4.257344
382.4702,4.258994
382.7524,4.260464
385.7180,4.240283
385.9353,4.232026
386.1619,4.223590
386.3930,4.215064
386.8414,4.172483
386.9222,4.158414
387.0123,4.144166
387.1070,4.129828
387.9814,4.087831
388.2799,4.076592
388.5049,4.062124
388.9228,3.998576
388.9228,3.998576
388.9691,4.014220
389.0198,4.029865
389.0796,4.045514
389.0796,4.045514
389.1671,3.998142
389.4114,3.997526
389.6559,3.996817
390.0040,3.973521
390.1572,3.962360
390.3106,3.951016
390.4641,3.939580
391.3516,3.884431
391.4649,3.872537
391.5783,3.860553
391.6919,3.848385
392.5046,3.786627
392.6622,3.771066
392.8197,3.755505
392.9773,3.739944
393.6487,3.697865
393.8747,3.672464
394.0479,3.659376
394.1214,3.651183
394.7891,3.612803
395.0055,3.600144
395.2264,3.587487
395.4564,3.574834
395.7017,3.532171
395.9202,3.517457
396.1431,3.502745
396.2122,3.447264
396.3751,3.488036
396.4286,3.434605
396.6496,3.421948
396.8795,3.409295
396.9132,3.375181
397.1310,3.361168
397.3534,3.346973
397.5850,3.332691
398.4968,3.273440
398.6515,3.260756
398.8063,3.248072
398.9610,3.235389
399.6494,3.176047
399.6551,3.170293
399.6608,3.164539
399.6665,3.158785
399.6665,3.158785
399.8086,3.158842
399.9508,3.158900
400.0929,3.158957
400.0929,3.158957
400.1307,3.148891
400.3048,3.142535
400.7476,3.133729
400.7476,3.133729
400.8275,3.115259
400.9120,3.096790
401.0055,3.078325
401.0055,3.078325
401.3157,3.071994
401.4575,3.067148
401.5522,3.059633
401.9258,3.010443
402.3166,2.999530
402.5251,2.985710
402.5972,2.968364
403.0703,2.921270
403.1430,2.910183
403.2202,2.899006
403.3067,2.887650
403.7880,2.832336
403.8248,2.821660
403.8708,2.810988
403.9212,2.800318
404.7091,2.743073
404.7435,2.724203
404.8671,2.711035
405.1859,2.692280
##END=
