##TITLE=Anthracene, 9-nitro-
##JCAMP-DX=4.24
##DATA TYPE=UV/VIS SPECTRUM
##ORIGIN=INSTITUTE OF ENERGY PROBLEMS OF CHEMICAL PHYSICS, RAS
##OWNER=INEP CP RAS, NIST OSRD
Collection (C) 2007 copyright by the U.S. Secretary of Commerce
on behalf of the United States of America. All rights reserved.
##CAS REGISTRY NO=602-60-8
##MOLFORM=C14H9NO2
##MP=146
##SOURCE REFERENCE=RAS UV No. 19808
##$NIST SQUIB=1967PERe2/9
##$NIST SOURCE=TYUGLMTE
##SPECTROMETER/DATA SYSTEM=Zeiss PMQ II
##XUNITS=Wavelength (nm)
##YUNITS=Logarithm epsilon
##XFACTOR=1.0
##YFACTOR=1.0
##FIRSTX=192.77
##LASTX=474.54
##FIRSTY=4.09
##MAXX=474.54
##MINX=192.77
##MAXY=5.081
##MINY=1.591
##NPOINTS=453
##$REF AUTHOR=Perkampus, H.-H.
##$REF JOURNAL=UV atlas of organic compounds
##$REF VOLUME=3
##$REF PAGE=E2/9
##$REF DATE=1967
##XYPOINTS=(XY..XY)
192.77,4.090
192.89,4.087
193.03,4.085
193.13,4.083
193.29,4.080
193.39,4.078
193.53,4.076
193.64,4.073
193.79,4.071
194.02,4.066
194.21,4.062
194.46,4.058
194.73,4.053
194.99,4.049
195.26,4.044
195.52,4.040
195.79,4.035
196.05,4.030
196.32,4.026
196.59,4.021
196.86,4.017
197.13,4.012
197.34,4.010
197.62,4.009
197.94,4.008
198.21,4.008
198.49,4.008
198.76,4.008
199.03,4.008
199.36,4.010
199.64,4.012
199.93,4.015
200.14,4.017
200.40,4.020
200.70,4.023
200.98,4.026
201.29,4.029
201.57,4.033
201.81,4.036
202.11,4.040
202.42,4.044
202.73,4.048
202.98,4.051
203.25,4.053
203.53,4.056
203.81,4.060
204.18,4.064
204.40,4.067
204.69,4.071
204.98,4.076
205.28,4.080
205.57,4.085
205.83,4.088
206.14,4.091
206.45,4.094
206.75,4.099
207.05,4.103
207.34,4.107
207.64,4.111
207.95,4.115
208.25,4.119
208.58,4.122
208.84,4.125
209.15,4.128
209.48,4.132
209.76,4.135
210.09,4.139
210.37,4.142
210.68,4.145
210.98,4.148
211.31,4.151
211.61,4.153
211.90,4.156
212.24,4.158
212.56,4.160
212.86,4.162
213.24,4.165
213.50,4.167
213.78,4.169
214.09,4.172
214.37,4.173
214.75,4.175
215.12,4.177
215.45,4.178
215.74,4.179
216.04,4.180
216.38,4.180
216.71,4.180
217.01,4.180
217.29,4.179
217.67,4.178
218.02,4.176
218.28,4.175
218.61,4.173
218.94,4.171
219.35,4.167
219.68,4.162
220.02,4.158
220.36,4.153
220.69,4.144
220.98,4.137
221.37,4.126
221.71,4.117
222.06,4.103
222.40,4.090
222.74,4.080
223.09,4.071
223.43,4.062
223.78,4.053
224.13,4.044
224.48,4.040
224.83,4.040
225.18,4.040
225.53,4.049
225.89,4.058
226.24,4.067
226.60,4.080
226.96,4.094
227.31,4.103
227.67,4.117
228.03,4.126
228.40,4.135
228.71,4.145
229.12,4.158
229.45,4.171
229.85,4.190
230.26,4.208
230.59,4.226
230.97,4.245
231.30,4.262
231.70,4.280
232.08,4.299
232.45,4.317
232.83,4.339
233.26,4.363
233.58,4.380
233.96,4.403
234.34,4.426
234.73,4.448
235.11,4.471
235.49,4.489
235.88,4.512
236.27,4.530
236.65,4.553
237.04,4.571
237.46,4.599
237.83,4.621
238.22,4.644
238.63,4.670
239.00,4.691
239.41,4.712
239.81,4.735
240.21,4.757
240.61,4.776
241.01,4.798
241.42,4.816
241.82,4.835
242.23,4.853
242.64,4.871
243.01,4.890
243.46,4.907
243.87,4.921
244.28,4.935
244.70,4.948
245.11,4.962
245.74,4.976
245.95,4.980
246.16,4.985
246.37,4.989
246.58,4.994
246.80,4.998
247.01,5.003
247.22,5.007
247.43,5.012
247.64,5.016
247.86,5.021
248.33,5.033
248.80,5.041
249.40,5.051
250.14,5.062
250.81,5.071
251.69,5.078
252.43,5.081
252.83,5.075
253.16,5.058
253.37,5.029
253.57,4.995
253.84,4.958
254.11,4.919
254.37,4.878
254.65,4.835
255.10,4.771
255.56,4.671
256.01,4.617
256.47,4.558
256.92,4.494
257.38,4.439
257.84,4.394
258.31,4.349
258.77,4.312
259.24,4.271
259.70,4.239
260.17,4.208
260.64,4.176
261.12,4.149
261.59,4.126
262.07,4.099
262.55,4.076
263.03,4.058
263.51,4.040
263.99,4.021
264.47,4.008
264.96,3.994
265.45,3.985
265.94,3.976
266.43,3.967
266.93,3.949
267.42,3.931
267.92,3.908
268.42,3.894
268.92,3.876
269.42,3.858
269.93,3.835
270.44,3.817
270.94,3.794
271.46,3.776
271.97,3.758
272.48,3.735
273.00,3.717
273.52,3.699
274.04,3.681
274.56,3.658
275.09,3.640
275.61,3.622
276.14,3.603
276.67,3.585
277.20,3.567
277.74,3.549
278.28,3.522
278.81,3.490
279.36,3.463
279.90,3.435
280.44,3.408
280.99,3.381
281.54,3.353
282.09,3.331
282.65,3.308
283.20,3.281
283.76,3.258
284.26,3.240
284.88,3.208
285.45,3.185
286.01,3.163
286.58,3.140
287.15,3.122
287.73,3.104
288.29,3.088
288.88,3.067
289.46,3.054
290.05,3.031
290.63,3.013
291.22,2.995
291.81,2.972
292.26,2.953
293.00,2.922
293.60,2.904
294.20,2.895
294.80,2.890
295.40,2.886
296.01,2.881
296.62,2.876
297.23,2.876
297.85,2.876
298.46,2.876
299.08,2.876
299.71,2.876
300.33,2.876
300.96,2.881
301.59,2.881
302.22,2.886
302.86,2.886
303.50,2.890
304.14,2.895
304.78,2.899
305.43,2.904
306.08,2.908
306.73,2.913
307.38,2.922
308.04,2.926
308.70,2.936
309.37,2.949
310.03,2.967
310.70,2.995
311.37,3.008
312.05,3.026
312.73,3.045
313.41,3.058
314.09,3.072
314.78,3.085
315.47,3.099
316.16,3.104
316.85,3.113
317.55,3.117
318.26,3.126
318.96,3.135
319.67,3.149
320.38,3.158
321.09,3.172
321.81,3.185
322.53,3.204
323.26,3.217
323.98,3.231
324.71,3.249
325.45,3.267
326.19,3.285
326.93,3.299
327.67,3.317
328.42,3.331
329.17,3.344
329.92,3.353
330.68,3.363
331.44,3.376
332.21,3.381
332.97,3.385
333.75,3.390
334.52,3.394
335.30,3.399
336.08,3.403
336.87,3.413
337.66,3.417
338.45,3.426
339.25,3.435
340.05,3.444
340.86,3.458
341.67,3.476
342.48,3.499
343.30,3.526
344.12,3.544
344.94,3.562
345.77,3.572
346.60,3.585
347.44,3.590
348.28,3.590
349.12,3.585
349.97,3.576
350.82,3.567
351.68,3.562
352.54,3.553
353.41,3.544
354.28,3.526
355.15,3.526
356.03,3.526
356.91,3.535
357.80,3.549
358.69,3.558
359.58,3.576
360.49,3.594
361.39,3.612
362.30,3.631
363.21,3.649
364.13,3.662
365.05,3.672
365.98,3.667
366.92,3.662
367.85,3.649
368.79,3.631
369.74,3.608
370.69,3.585
371.65,3.567
372.61,3.549
373.50,3.532
374.55,3.522
375.53,3.526
376.51,3.531
377.50,3.535
378.49,3.544
379.49,3.553
380.49,3.567
381.50,3.576
382.51,3.585
383.53,3.594
384.55,3.594
385.58,3.581
386.58,3.562
387.66,3.544
388.71,3.514
389.76,3.485
390.82,3.453
391.88,3.431
392.95,3.413
394.03,3.399
395.11,3.390
396.19,3.376
397.29,3.367
398.39,3.358
399.49,3.349
400.60,3.340
401.72,3.331
402.84,3.322
403.98,3.313
405.11,3.308
406.25,3.299
407.40,3.294
408.56,3.285
409.72,3.276
410.89,3.267
412.07,3.249
413.25,3.235
414.44,3.217
415.64,3.204
416.84,3.185
418.05,3.172
419.27,3.154
420.49,3.140
421.72,3.122
422.96,3.108
424.21,3.090
425.46,3.076
426.72,3.063
427.99,3.045
429.27,3.026
430.55,3.008
431.84,2.990
433.14,2.981
434.45,2.954
435.62,2.930
436.97,2.898
438.46,2.858
439.76,2.808
441.10,2.754
442.46,2.695
443.82,2.636
445.19,2.577
446.58,2.522
447.96,2.468
449.36,2.413
450.77,2.363
452.18,2.313
453.61,2.259
455.04,2.209
456.49,2.163
457.94,2.113
459.40,2.068
460.87,2.027
462.35,1.972
463.84,1.895
465.34,1.841
466.85,1.795
468.36,1.750
469.89,1.709
471.43,1.672
472.98,1.632
474.54,1.591
##END=
