##TITLE=Phosphine, triphenyl-
##JCAMP-DX=4.24
##DATA TYPE=UV/VIS SPECTRUM
##ORIGIN=INSTITUTE OF ENERGY PROBLEMS OF CHEMICAL PHYSICS, RAS
##OWNER=INEP CP RAS, NIST OSRD
Collection (C) 2007 copyright by the U.S. Secretary of Commerce
on behalf of the United States of America. All rights reserved.
##CAS REGISTRY NO=603-35-0
##MOLFORM=C18H15P
##MP=80
##BP=188
##SOURCE REFERENCE=RAS UV No. 10056
##$NIST SQUIB=1952JAF/FRE1069
##$NIST SOURCE=TYUGLMTE
##SPECTROMETER/DATA SYSTEM=Beckman DU
##XUNITS=Wavelength (nm)
##YUNITS=Logarithm epsilon
##XFACTOR=1.0
##YFACTOR=1.0
##FIRSTX=228.49
##LASTX=317.91
##FIRSTY=4.08
##MAXX=317.91
##MINX=228.49
##MAXY=4.08
##MINY=2.22
##NPOINTS=220
##$REF AUTHOR=Jaffe, H.H.; Freedman, L.D.
##$REF JOURNAL=J. Am. Chem. Soc.
##$REF VOLUME=74
##$REF PAGE=1069
##$REF DATE=1952
##XYPOINTS=(XY..XY)
228.49,4.080
228.62,4.079
228.75,4.079
228.88,4.078
229.01,4.078
229.27,4.073
229.67,4.062
230.06,4.058
230.45,4.050
230.84,4.039
231.24,4.031
231.63,4.024
232.02,4.016
232.41,4.008
232.80,3.996
233.20,3.988
233.59,3.979
233.98,3.970
234.37,3.962
234.77,3.948
235.16,3.945
235.55,3.937
235.94,3.930
236.33,3.919
236.73,3.911
237.12,3.904
237.51,3.897
237.90,3.888
238.30,3.883
238.69,3.876
239.08,3.870
239.47,3.861
239.86,3.856
240.26,3.847
240.65,3.845
241.04,3.837
241.43,3.833
241.82,3.829
242.22,3.826
243.00,3.818
243.39,3.819
243.79,3.818
244.18,3.819
244.57,3.818
244.96,3.819
245.35,3.822
245.75,3.828
246.14,3.829
246.53,3.833
246.92,3.838
247.32,3.845
247.71,3.849
248.10,3.861
248.49,3.862
248.88,3.867
249.28,3.874
249.67,3.878
250.06,3.891
250.45,3.896
250.85,3.908
251.24,3.913
251.63,3.923
252.02,3.928
252.41,3.936
252.81,3.942
253.20,3.952
253.59,3.957
253.98,3.965
254.37,3.971
254.77,3.979
255.16,3.984
255.55,3.990
255.94,3.991
256.34,3.996
256.73,4.001
257.12,4.005
257.51,4.008
257.90,4.014
258.30,4.016
258.69,4.021
259.08,4.026
259.47,4.027
259.87,4.031
260.26,4.036
260.65,4.037
261.04,4.040
261.43,4.041
261.83,4.042
263.00,4.045
263.39,4.045
263.79,4.045
264.18,4.045
264.57,4.045
264.96,4.045
265.36,4.045
265.75,4.045
266.14,4.044
266.53,4.044
266.92,4.043
267.32,4.040
267.71,4.037
268.10,4.035
268.49,4.033
268.89,4.026
269.28,4.023
269.67,4.018
270.06,4.014
270.45,4.013
270.85,4.008
271.24,4.006
271.63,4.003
272.02,4.003
272.42,4.000
272.81,3.999
273.20,3.997
273.59,3.997
273.98,3.995
274.38,3.992
274.77,3.989
275.55,3.981
275.94,3.979
276.34,3.973
276.73,3.970
277.12,3.968
277.51,3.963
277.91,3.959
278.30,3.956
278.69,3.955
279.08,3.946
279.47,3.943
279.87,3.933
280.26,3.926
280.65,3.919
281.04,3.911
281.44,3.903
281.83,3.897
282.22,3.890
282.61,3.880
283.00,3.874
283.40,3.869
283.79,3.862
284.18,3.856
284.57,3.848
284.96,3.838
285.36,3.832
285.75,3.821
286.14,3.813
286.53,3.803
286.93,3.796
287.32,3.783
287.71,3.776
288.10,3.762
288.49,3.748
288.89,3.739
289.28,3.738
289.67,3.720
290.06,3.718
290.46,3.712
290.85,3.702
291.24,3.691
291.63,3.681
292.02,3.667
292.42,3.658
292.81,3.640
293.20,3.631
293.59,3.610
293.99,3.601
294.38,3.581
294.77,3.576
295.16,3.551
295.55,3.544
295.95,3.512
296.34,3.504
297.12,3.468
297.51,3.458
297.91,3.426
298.30,3.426
298.69,3.413
299.08,3.385
299.48,3.375
299.87,3.361
300.26,3.334
300.65,3.326
301.04,3.310
301.44,3.285
301.83,3.276
302.22,3.258
302.61,3.243
303.01,3.213
303.40,3.210
303.79,3.192
304.18,3.174
304.57,3.139
304.97,3.139
305.36,3.123
305.75,3.110
306.54,3.060
306.93,3.055
307.32,3.035
307.71,3.020
308.89,2.957
309.28,2.938
309.67,2.912
310.06,2.877
310.46,2.869
310.85,2.838
311.24,2.822
311.63,2.796
312.03,2.749
312.42,2.749
312.81,2.719
313.20,2.697
314.38,2.583
314.77,2.568
315.16,2.521
315.56,2.486
316.73,2.361
317.12,2.282
317.52,2.252
317.91,2.220
##END=
