##TITLE=Benzene, 1,3,5-trimethyl-2-nitro-
##JCAMP-DX=4.24
##DATA TYPE=UV/VIS SPECTRUM
##ORIGIN=INSTITUTE OF ENERGY PROBLEMS OF CHEMICAL PHYSICS, RAS
##OWNER=INEP CP RAS, NIST OSRD
Collection (C) 2007 copyright by the U.S. Secretary of Commerce
on behalf of the United States of America. All rights reserved.
##CAS REGISTRY NO=603-71-4
##MOLFORM=C9H11NO2
##MP=44
##BP=255
##SOURCE REFERENCE=RAS UV No. 285
##$NIST SQUIB=1949INS377
##$NIST SOURCE=TSGMTE
##SPECTROMETER/DATA SYSTEM=Spectrophotometer SF-16
##XUNITS=Wavelength (nm)
##YUNITS=Logarithm epsilon
##XFACTOR=1.000000
##YFACTOR=1.000000
##FIRSTX=210.0000
##LASTX=359.0000
##FIRSTY=4.58
##MAXX=359
##MINX=210
##MAXY=4.58
##MINY=2.58
##NPOINTS=150
##$REF AUTHOR=Institute of Organic Chemistry, Siberian Branch of RAS
##$REF JOURNAL=Synthesis of Organic Preparations (in Rus.)
##$REF VOLUME=2
##$REF PAGE=377
##$REF DATE=1949
##XYPOINTS=(XY..XY)
210.0000,4.580001
211.0000,4.570000
212.0000,4.540000
213.0000,4.530000
214.0000,4.500000
215.0000,4.460000
216.0000,4.430000
217.0000,4.380000
218.0000,4.340000
219.0000,4.240000
220.0000,4.130012
221.0000,4.040000
222.0000,3.960000
223.0000,3.880000
224.0000,3.800000
225.0000,3.740000
226.0000,3.670000
227.0000,3.590000
228.0000,3.570000
229.0000,3.530000
230.0000,3.509995
231.0000,3.500000
232.0000,3.490000
233.0000,3.480000
234.0000,3.470000
235.0000,3.460000
236.0000,3.450000
237.0000,3.440000
238.0000,3.440000
239.0000,3.440000
240.0000,3.439995
241.0000,3.440000
242.0000,3.440000
243.0000,3.440000
244.0000,3.440000
245.0000,3.450000
246.0000,3.450000
247.0000,3.450000
248.0000,3.450000
249.0000,3.460000
250.0000,3.469999
251.0000,3.480000
252.0000,3.480000
253.0000,3.480000
254.0000,3.480000
255.0000,3.490000
256.0000,3.490000
257.0000,3.490000
258.0000,3.490000
259.0000,3.490000
260.0000,3.480007
261.0000,3.480000
262.0000,3.480000
263.0000,3.470000
264.0000,3.470000
265.0000,3.470000
266.0000,3.460000
267.0000,3.460000
268.0000,3.460000
269.0000,3.450000
270.0000,3.450003
271.0000,3.440000
272.0000,3.420000
273.0000,3.410000
274.0000,3.410000
275.0000,3.390000
276.0000,3.370000
277.0000,3.360000
278.0000,3.340000
279.0000,3.320000
280.0000,3.309992
281.0000,3.290000
282.0000,3.270000
283.0000,3.250000
284.0000,3.240000
285.0000,3.210000
286.0000,3.200000
287.0000,3.180000
288.0000,3.160000
289.0000,3.140000
290.0000,3.130012
291.0000,3.110000
292.0000,3.090000
293.0000,3.070000
294.0000,3.050000
295.0000,3.040000
296.0000,3.030000
297.0000,3.010000
298.0000,3.000000
299.0000,2.990000
300.0000,2.979999
301.0000,2.950000
302.0000,2.940000
303.0000,2.930000
304.0000,2.910000
305.0000,2.900000
306.0000,2.890000
307.0000,2.880000
308.0000,2.860000
309.0000,2.850000
310.0000,2.839999
311.0000,2.830000
312.0000,2.820000
313.0000,2.810000
314.0000,2.810000
315.0000,2.800000
316.0000,2.790000
317.0000,2.780000
318.0000,2.780000
319.0000,2.770000
320.0000,2.769997
321.0000,2.770000
322.0000,2.760000
323.0000,2.770000
324.0000,2.770000
325.0000,2.770000
326.0000,2.770000
327.0000,2.770000
328.0000,2.770000
329.0000,2.770000
330.0000,2.769997
331.0000,2.770000
332.0000,2.770000
333.0000,2.770000
334.0000,2.770000
335.0000,2.770000
336.0000,2.770000
337.0000,2.770000
338.0000,2.770000
339.0000,2.760000
340.0000,2.749999
341.0000,2.740000
342.0000,2.740000
343.0000,2.730000
344.0000,2.720000
345.0000,2.720000
346.0000,2.710000
347.0000,2.700000
348.0000,2.690000
349.0000,2.690000
350.0000,2.680000
351.0000,2.670000
352.0000,2.670000
353.0000,2.660000
354.0000,2.640000
355.0000,2.630000
356.0000,2.610000
357.0000,2.590000
358.0000,2.590000
359.0000,2.580000
##END=
