##TITLE=7-(methylthio)-1H-pyrazolo[4,3-d]pyrimidine
##JCAMP-DX=4.24
##DATA TYPE=UV/VIS SPECTRUM
##ORIGIN=INSTITUTE OF ENERGY PROBLEMS OF CHEMICAL PHYSICS, RAS
##OWNER=INEP CP RAS, NIST OSRD
Collection (C) 2007 copyright by the U.S. Secretary of Commerce
on behalf of the United States of America. All rights reserved.
##CAS REGISTRY NO=60355-61-5
##MOLFORM=C6H6N4S
##SOURCE REFERENCE=RAS UV No. 22359
##$NIST SQUIB=1978GOR/651
##$NIST SOURCE=TYUGLMTE
##SPECTROMETER/DATA SYSTEM=Unicam SP-800
##XUNITS=Wavelength (nm)
##YUNITS=Logarithm epsilon
##XFACTOR=1.0
##YFACTOR=1.0
##FIRSTX=236.857
##LASTX=335.595
##FIRSTY=3.37
##MAXX=335.595
##MINX=236.857
##MAXY=4.085
##MINY=2.74
##NPOINTS=127
##$REF AUTHOR=Goryunova, O.V.; et al.
##$REF JOURNAL=Zhur. Organ. Khim.
##$REF VOLUME=14
##$REF PAGE=651
##$REF DATE=1978
##XYPOINTS=(XY..XY)
236.857,3.370
237.657,3.390
238.457,3.406
239.257,3.420
240.057,3.433
240.857,3.446
241.657,3.459
242.457,3.473
243.257,3.489
244.057,3.504
244.857,3.521
245.657,3.538
246.457,3.554
247.257,3.571
248.057,3.586
248.857,3.601
249.657,3.613
250.457,3.623
251.257,3.631
252.057,3.637
252.857,3.639
253.657,3.638
254.457,3.635
255.257,3.629
256.057,3.621
256.857,3.611
257.657,3.600
258.457,3.588
259.257,3.576
260.057,3.563
261.008,3.548
261.808,3.530
262.608,3.517
263.408,3.508
264.208,3.502
265.008,3.497
265.808,3.494
266.608,3.493
267.408,3.492
268.208,3.492
269.008,3.494
269.808,3.496
270.608,3.500
271.408,3.504
272.208,3.510
273.008,3.518
273.808,3.527
274.608,3.537
275.408,3.549
276.208,3.563
277.008,3.578
277.808,3.595
278.608,3.613
279.408,3.631
280.208,3.650
281.008,3.670
281.808,3.690
282.608,3.709
283.408,3.728
284.208,3.746
285.008,3.764
285.808,3.780
286.608,3.796
287.408,3.813
288.063,3.826
288.120,3.827
288.920,3.850
289.720,3.869
290.520,3.887
291.320,3.903
292.120,3.918
292.920,3.934
293.720,3.949
294.520,3.964
295.320,3.979
296.120,3.992
296.920,4.004
297.720,4.015
298.520,4.023
299.320,4.029
300.120,4.034
300.920,4.038
301.720,4.043
302.328,4.050
303.079,4.056
303.829,4.063
304.580,4.071
305.331,4.076
306.082,4.083
306.832,4.085
307.583,4.083
308.334,4.073
309.085,4.061
309.835,4.045
310.586,4.032
311.337,4.021
312.088,4.009
312.838,4.000
313.589,3.995
314.340,3.992
315.091,3.989
315.841,3.989
316.592,3.989
317.343,3.986
318.094,3.983
318.844,3.970
319.595,3.944
320.395,3.895
321.195,3.832
321.995,3.761
322.795,3.688
323.595,3.615
324.395,3.544
325.195,3.478
325.995,3.416
326.795,3.359
327.595,3.306
328.395,3.257
329.195,3.210
329.995,3.163
330.795,3.116
331.595,3.066
332.395,3.012
333.195,2.953
333.995,2.888
334.795,2.816
335.595,2.740
##END=
