##TITLE=Triphenylamine
##JCAMP-DX=4.24
##DATA TYPE=UV/VIS SPECTRUM
##ORIGIN=INSTITUTE OF ENERGY PROBLEMS OF CHEMICAL PHYSICS, RAS
##OWNER=INEP CP RAS, NIST OSRD
Collection (C) 2007 copyright by the U.S. Secretary of Commerce
on behalf of the United States of America. All rights reserved.
##CAS REGISTRY NO=603-34-9
##MOLFORM=C18H15N
##MP=127
##BP=365
##SOURCE REFERENCE=RAS UV No. 5746
##$NIST SQUIB=1951SCH/WIL1740-1747
##$NIST SOURCE=TSGMTE
##SPECTROMETER/DATA SYSTEM=Beckman DU
##XUNITS=Wavelength (nm)
##YUNITS=Logarithm epsilon
##XFACTOR=1.000000
##YFACTOR=1.000000
##FIRSTX=213.1585
##LASTX=347.1488
##FIRSTY=4.3235
##MAXX=347.149
##MINX=213.159
##MAXY=4.37063
##MINY=2.67747
##NPOINTS=309
##$REF AUTHOR=Schroeder, W.A.; Wilcox, P.E.; Trueblood, K.N.; Dekker, A.O.
##$REF TITLE=Ultraviolet and visible absorption spectra in ethyl alcohol. Data for certain nitric esters, nitramines, nitroalkylbenzenes, and derivatives of phenol, aniline, urea, carbamic acid, diphenylamine, carbazole, and triphenylamine
##$REF JOURNAL=Anal. Chem.
##$REF VOLUME=23
##$REF NUMBER=12
##$REF PAGE=1740-1747
##$REF DATE=1951
##XYPOINTS=(XY..XY)
213.1585,4.323505
213.1588,4.328215
213.1597,4.318740
213.1605,4.332872
213.1624,4.313920
213.1636,4.337478
213.1666,4.309044
213.1682,4.342033
213.1723,4.304110
213.1740,4.346538
213.1795,4.299117
213.1813,4.350994
213.1883,4.294064
213.1900,4.355403
213.1987,4.288949
213.1999,4.359765
213.2107,4.283771
213.2111,4.364080
213.2237,4.368351
213.2243,4.278528
213.2396,4.273219
213.2565,4.267842
213.2750,4.262396
213.2953,4.256879
213.3173,4.251289
213.3410,4.245623
213.3665,4.239881
213.3938,4.234061
213.4228,4.228160
213.4537,4.222175
213.4863,4.216105
213.5209,4.209948
213.5573,4.203700
213.5956,4.197360
213.6359,4.190924
213.6780,4.184390
213.7221,4.177755
213.7681,4.171016
213.8162,4.164169
213.8663,4.157211
213.9184,4.150139
213.9725,4.142949
214.0287,4.135637
214.0870,4.128199
214.1474,4.120630
214.2099,4.112926
214.2745,4.105083
214.3415,4.097094
214.4105,4.088956
214.4816,4.080661
214.5551,4.072205
214.6308,4.063581
214.7087,4.054782
214.7087,4.054782
215.2078,4.040817
215.6308,4.028978
216.0114,4.018807
216.3830,4.009766
216.7792,4.001258
217.2338,3.992627
217.7802,3.983165
218.4520,3.972097
219.2828,3.958559
220.3062,3.941543
220.3062,3.941543
223.1237,3.925782
225.0255,3.914143
226.4667,3.903631
227.9024,3.890892
229.7877,3.872132
229.7877,3.872132
230.2049,3.858086
230.6220,3.843571
231.0393,3.828554
231.4565,3.812999
231.8737,3.796866
232.2909,3.780111
232.7081,3.762682
233.1253,3.744525
233.5426,3.725577
233.9597,3.705763
234.3769,3.685002
234.7941,3.663198
235.2113,3.640242
235.6285,3.616004
236.0458,3.590334
236.4630,3.563050
236.8801,3.533935
237.2973,3.502729
237.7145,3.469105
238.1317,3.432659
238.5490,3.392870
238.9662,3.349066
239.3834,3.300342
239.3834,3.300342
241.8543,3.194035
243.6905,3.121247
246.4659,3.027921
246.4659,3.027921
247.7805,3.036487
249.0671,3.060378
250.3242,3.096092
251.5499,3.139822
252.7424,3.188187
253.9000,3.238546
255.0211,3.289009
256.1038,3.338314
257.1466,3.385668
258.1475,3.430607
259.1049,3.472877
260.0169,3.512369
260.8820,3.549055
261.6984,3.582960
262.4643,3.614133
263.1779,3.642632
263.8377,3.668518
264.4417,3.691844
264.9884,3.712651
265.4759,3.730968
265.9024,3.746802
266.2665,3.760144
266.5661,3.770958
266.7996,3.779183
266.7996,3.779183
266.9061,3.795495
267.0245,3.811217
267.1546,3.826390
267.2962,3.841051
267.4487,3.855234
267.6120,3.868969
267.7860,3.882282
267.9700,3.895199
268.1641,3.907743
268.3679,3.919934
268.5810,3.931791
268.8032,3.943333
269.0343,3.954576
269.2738,3.965534
269.5216,3.976222
269.7773,3.986652
270.0407,3.996836
270.3115,4.006786
270.5894,4.016512
270.8741,4.026024
271.1654,4.035330
271.4629,4.044440
271.7664,4.053362
272.0755,4.062102
272.3900,4.070668
272.7097,4.079068
273.0342,4.087306
273.3632,4.095389
273.6965,4.103323
274.0337,4.111113
274.3747,4.118764
274.7190,4.126280
275.0665,4.133667
275.4169,4.140928
275.7696,4.148068
276.1248,4.155091
276.4819,4.162000
276.8407,4.168798
277.2009,4.175490
277.5622,4.182078
277.9244,4.188565
278.2871,4.194955
278.6502,4.201250
279.0132,4.207453
279.3759,4.213566
279.7380,4.219592
280.0992,4.225534
280.4594,4.231392
280.8181,4.237171
281.1751,4.242871
281.5300,4.248495
281.8826,4.254044
282.2328,4.259522
282.5800,4.264928
282.9241,4.270266
283.2648,4.275536
283.6018,4.280740
283.9348,4.285880
283.9348,4.285880
284.0409,4.287121
284.2425,4.289650
284.5355,4.293289
284.9160,4.297860
285.3799,4.303181
285.9232,4.309078
286.5420,4.315380
287.2324,4.321924
287.9901,4.328556
288.8113,4.335132
289.6919,4.341514
290.6281,4.347573
291.6156,4.353189
292.6507,4.358244
293.7293,4.362625
294.8473,4.366223
296.0009,4.368927
297.1859,4.370625
297.1859,4.370625
297.7909,4.370319
298.4467,4.369953
299.1279,4.369556
299.1279,4.369556
299.6271,4.367555
300.0509,4.365703
300.4336,4.363721
300.8094,4.361325
301.2127,4.358224
301.6776,4.354117
302.2385,4.348684
302.9296,4.341580
303.7853,4.332422
304.8396,4.320769
304.8396,4.320769
304.9805,4.315992
305.1184,4.311164
305.2535,4.306284
305.3861,4.301351
305.5166,4.296364
305.6451,4.291321
305.7719,4.286221
305.8972,4.281063
306.0214,4.275845
306.1445,4.270566
306.2671,4.265224
306.3891,4.259817
306.5111,4.254344
306.6330,4.248804
306.7553,4.243194
306.8783,4.237512
307.0021,4.231757
307.1269,4.225927
307.2532,4.220018
307.3810,4.214031
307.5107,4.207961
307.6425,4.201807
307.7767,4.195566
307.9136,4.189235
308.0533,4.182813
308.1962,4.176295
308.3425,4.169680
308.4924,4.162964
308.6463,4.156143
308.8043,4.149215
308.9667,4.142176
309.1337,4.135021
309.3057,4.127749
309.4830,4.120353
309.6656,4.112829
309.8540,4.105175
310.0483,4.097383
310.2487,4.089450
310.4557,4.081369
310.6695,4.073136
310.8901,4.064745
311.1180,4.056188
311.3534,4.047459
311.5965,4.038552
311.8476,4.029458
312.1069,4.020169
312.3748,4.010677
312.6513,4.000973
312.9370,3.991046
313.2319,3.980887
313.5363,3.970484
313.8504,3.959824
314.1748,3.948895
314.5092,3.937682
314.8543,3.926172
315.2102,3.914346
315.5771,3.902187
315.9553,3.889676
316.3451,3.876793
316.7467,3.863512
317.1604,3.849810
317.5865,3.835659
318.0250,3.821028
318.4766,3.805884
318.9411,3.790188
319.4190,3.773900
319.9106,3.756973
320.4159,3.739354
320.9354,3.720985
321.4693,3.701798
322.0177,3.681719
322.5811,3.660659
323.1597,3.638518
323.7536,3.615179
324.3632,3.590506
324.9886,3.564336
325.6303,3.536478
325.6303,3.536478
326.9099,3.499711
328.0781,3.462534
329.1725,3.424748
330.2310,3.386074
331.2913,3.346123
332.3911,3.304364
333.5684,3.260073
334.8609,3.212245
336.3062,3.159463
337.9422,3.099660
339.8068,3.029662
341.9375,2.944240
344.3723,2.833801
347.1488,2.677467
##END=
