##TITLE=1,1'-Binaphtyl
##JCAMP-DX=4.24
##DATA TYPE=UV/VIS SPECTRUM
##ORIGIN=INSTITUTE OF ENERGY PROBLEMS OF CHEMICAL PHYSICS, RAS
##OWNER=INEP CP RAS, NIST OSRD
Collection (C) 2007 copyright by the U.S. Secretary of Commerce
on behalf of the United States of America. All rights reserved.
##CAS REGISTRY NO=604-53-5
##MOLFORM=C20H14
##MP=160
##BP=360; 240(12)
##SOURCE REFERENCE=RAS UV No. 742
##$NIST SQUIB=1948FRI/ORC199-204
##$NIST SOURCE=TSGMTE
##SPECTROMETER/DATA SYSTEM=Beckman spectrophotometer
##XUNITS=Wavelength (nm)
##YUNITS=Logarithm epsilon
##XFACTOR=1.000000
##YFACTOR=1.000000
##FIRSTX=205.4782
##LASTX=329.3941
##FIRSTY=4.31893
##MAXX=329.394
##MINX=205.478
##MAXY=4.58114
##MINY=2.44669
##NPOINTS=169
##$REF AUTHOR=Friedel, R.A.; Orchin, M.; Reggel, L.
##$REF TITLE=Steric hindrance and short wave length bands in the ultraviolet spectra of some naphthalene and diphenyl derivatives
##$REF JOURNAL=J. Am. Chem. Soc.
##$REF VOLUME=70
##$REF PAGE=199-204
##$REF DATE=1948
##XYPOINTS=(XY..XY)
205.4782,4.318931
206.2138,4.343788
207.2753,4.368930
208.5637,4.393845
209.9799,4.418022
211.4248,4.440951
212.7992,4.462120
214.0041,4.481018
214.0041,4.481018
214.8550,4.491393
215.8012,4.503100
216.8275,4.515608
217.9188,4.528389
219.0599,4.540913
220.2356,4.552650
221.4307,4.563072
222.6301,4.571647
223.8184,4.577847
224.9807,4.581143
226.1016,4.581004
227.1660,4.576901
228.1588,4.568306
229.0647,4.554687
229.8685,4.535516
230.5551,4.510262
230.5551,4.510262
230.9634,4.498298
231.7635,4.466844
233.4756,4.400100
233.4756,4.400100
233.9132,4.371236
234.3515,4.342273
234.7903,4.313218
235.2292,4.284078
235.6679,4.254862
236.1061,4.225578
236.5436,4.196232
236.9798,4.166834
237.4146,4.137390
237.8475,4.107907
238.2784,4.078395
238.7068,4.048861
239.1325,4.019312
239.5550,3.989756
239.9742,3.960201
240.3896,3.930655
240.8009,3.901125
241.2079,3.871619
241.2079,3.871619
241.5557,3.852081
241.9849,3.827335
242.4986,3.799103
243.1001,3.769110
243.7924,3.739080
244.5787,3.710735
245.4623,3.685801
246.4461,3.666001
247.5335,3.653058
248.7275,3.648697
248.7275,3.648697
250.1935,3.664485
251.6317,3.680361
253.0361,3.696725
254.4005,3.713982
255.7189,3.732533
256.9851,3.752782
258.1930,3.775131
259.3366,3.799982
259.3366,3.799982
260.2087,3.811735
261.1701,3.822312
263.0447,3.840777
263.0447,3.840777
264.2712,3.863009
265.4939,3.885780
266.7168,3.908786
267.9435,3.931724
269.1778,3.954290
270.4236,3.976180
271.6844,3.997088
271.6844,3.997088
272.9786,4.005872
274.2810,4.014497
275.5875,4.023044
275.5875,4.023044
276.7594,4.041964
277.7693,4.061557
278.6646,4.080658
279.4929,4.098104
280.3014,4.112729
281.1377,4.123371
282.0491,4.128864
283.0831,4.128045
284.2872,4.119750
285.7087,4.102815
285.7087,4.102815
287.0373,4.094376
287.6933,4.089789
288.0657,4.088484
288.0657,4.088484
288.7462,4.094918
289.9999,4.104817
291.2280,4.116323
291.2280,4.116323
292.0926,4.115460
292.8189,4.112599
293.5850,4.101993
293.5850,4.101993
294.2655,4.073752
294.9536,4.045720
295.6497,4.017880
296.3542,3.990215
297.0676,3.962709
297.7903,3.935344
298.5228,3.908105
299.2656,3.880974
300.0190,3.853935
300.7835,3.826972
301.5595,3.800067
302.3476,3.773204
303.1481,3.746366
303.9614,3.719537
304.7881,3.692699
305.6285,3.665837
306.4832,3.638934
307.3525,3.611972
307.3525,3.611972
308.7926,3.556006
309.7499,3.519302
310.4436,3.493809
311.0926,3.471477
311.9159,3.444255
311.9159,3.444255
314.5119,3.372639
315.5660,3.341557
315.9750,3.330914
315.9750,3.330914
316.6424,3.295295
317.2077,3.261658
317.5563,3.244589
317.5563,3.244589
318.1862,3.201057
318.8068,3.158386
319.4173,3.116605
320.0171,3.075743
320.6054,3.035830
321.1816,2.996894
321.7449,2.958966
322.2948,2.922073
322.8304,2.886246
323.3512,2.851513
323.8564,2.817903
324.3453,2.785446
324.8173,2.754171
325.2716,2.724107
325.7076,2.695283
326.1246,2.667728
326.5219,2.641472
326.8988,2.616543
327.2546,2.592971
327.5886,2.570785
327.9001,2.550014
328.1885,2.530687
328.4531,2.512834
328.6931,2.496483
328.9079,2.481664
329.0968,2.468406
329.2591,2.456738
329.3941,2.446689
##END=
