##TITLE=9,10-Dichloroanthracene
##JCAMP-DX=4.24
##DATA TYPE=UV/VIS SPECTRUM
##ORIGIN=INSTITUTE OF ENERGY PROBLEMS OF CHEMICAL PHYSICS, RAS
##OWNER=INEP CP RAS, NIST OSRD
Collection (C) 2007 copyright by the U.S. Secretary of Commerce
on behalf of the United States of America. All rights reserved.
##CAS REGISTRY NO=605-48-1
##MOLFORM=C14H8Cl2
##MP=212
##SOURCE REFERENCE=RAS UV No. 661
##$NIST SQUIB=1950CLA/MAR433-444
##$NIST SOURCE=TSGMTE
##SPECTROMETER/DATA SYSTEM=n.i.g.
##XUNITS=Wavelength (nm)
##YUNITS=Logarithm epsilon
##XFACTOR=1.000000
##YFACTOR=1.000000
##FIRSTX=234.6449
##LASTX=417.6213
##FIRSTY=3.83975
##MAXX=417.621
##MINX=234.645
##MAXY=5.28388
##MINY=2.31309
##NPOINTS=920
##$REF AUTHOR=Clar, E.; Marschalk, Ch.
##$REF TITLE=L'effet additif et peri des atomes d'halogene dans les derives halogenes des hydrocarbures aromatiques
##$REF JOURNAL=Bull. Soc. Chim. Fr.
##$REF VOLUME=17
##$REF PAGE=433-444
##$REF DATE=1950
##XYPOINTS=(XY..XY)
234.6449,3.839746
234.6449,3.835453
234.6449,3.844182
234.6449,3.848691
234.8056,3.890665
234.8473,3.905529
234.9033,3.920465
234.9664,3.935544
234.9664,3.935544
235.0723,3.936609
235.1926,3.937817
235.3200,3.939096
235.3200,3.939096
235.3200,3.943305
235.3200,3.995922
235.3200,4.002475
235.3200,3.941129
235.3200,3.945554
235.3200,3.999163
235.3200,4.005931
235.6414,4.042739
235.9641,4.073831
236.2939,4.105066
236.6380,4.136374
237.6345,4.169953
237.6345,4.159621
237.6345,4.162945
237.6345,4.166413
238.6632,4.219998
238.7608,4.233248
238.8656,4.246570
238.9846,4.260035
238.9846,4.260035
239.2097,4.262295
239.4347,4.264555
239.6597,4.277889
239.6597,4.283605
239.6597,4.272316
239.6597,4.266816
239.6597,4.266816
240.6562,4.323642
240.6562,4.328162
240.6562,4.330422
240.6562,4.325902
242.3278,4.367230
242.6338,4.380205
243.1256,4.397628
243.6458,4.417276
243.6458,4.417276
243.7518,4.418340
243.8721,4.419548
243.9995,4.420828
243.9995,4.420828
243.9995,4.425037
243.9995,4.427285
243.9995,4.422860
246.3140,4.510910
246.4759,4.518109
246.6450,4.525451
246.8283,4.532866
246.8283,4.532866
246.8700,4.541033
246.9259,4.549344
246.9891,4.557727
246.9891,4.557727
247.0950,4.558791
247.2153,4.559999
247.3427,4.571288
247.3427,4.591306
247.3427,4.561279
247.3427,4.561279
247.3427,4.581297
247.9856,4.672683
247.9856,4.694950
247.9856,4.694950
247.9856,4.661693
247.9856,4.683744
248.0915,4.696014
248.2118,4.697222
248.3392,4.698501
248.3392,4.698501
248.4583,4.718675
248.5416,4.727297
248.6607,4.731757
249.3357,4.805373
249.4334,4.821936
249.5381,4.838641
249.6572,4.855419
249.6572,4.855419
249.7631,4.856483
249.8834,4.857691
250.0108,4.858971
250.0108,4.858971
250.1084,4.872221
250.2132,4.885542
250.3323,4.899007
251.0073,4.969394
251.1050,4.987153
251.2097,5.004911
251.3288,5.022669
251.3288,5.022669
251.4347,5.023733
251.5550,5.024941
251.6824,5.026221
251.6824,5.026221
251.6824,5.032774
251.6824,5.029461
251.6824,5.036230
251.6824,5.036230
251.8848,5.038490
252.1015,5.040750
252.3253,5.043010
252.3253,5.043010
253.9827,5.046478
254.6327,5.048152
254.8327,5.049468
254.8327,5.049468
255.1554,5.064416
255.4852,5.079507
255.8293,5.094670
255.8293,5.094670
255.9912,5.120835
256.1602,5.147072
256.3436,5.173452
256.6651,5.217782
256.6651,5.208981
256.6651,5.226727
256.6651,5.226727
256.6651,5.200251
256.7710,5.227791
256.8913,5.228999
257.0187,5.236832
257.0187,5.240288
257.0187,5.230279
257.0187,5.230279
257.0187,5.233519
258.0152,5.270315
258.1343,5.273209
258.2390,5.276031
258.3367,5.278710
258.3367,5.278710
258.5617,5.279990
258.7867,5.281197
259.0117,5.282262
259.0117,5.282262
259.3558,5.282895
259.6856,5.283458
260.0083,5.283876
260.0083,5.283876
260.1916,5.275481
260.3607,5.267086
260.5226,5.258692
260.5226,5.258692
260.6834,5.243528
260.8441,5.228437
261.0048,5.213489
261.3584,5.190242
261.3584,5.179910
261.3584,5.183234
261.3584,5.186702
261.6799,5.146654
261.8073,5.120919
261.9275,5.095328
262.0335,5.069809
262.0335,4.842181
262.0966,4.814749
262.1526,4.787388
262.1942,4.760171
262.3550,4.691721
262.3550,4.728529
262.3550,4.730562
262.3550,4.732738
262.3550,4.999422
262.3550,4.734986
262.4181,4.691087
262.4740,4.952964
262.4740,4.690525
262.5157,4.690106
262.5157,4.690106
262.5573,4.932120
262.5788,4.678256
262.6348,4.666548
262.6764,4.654913
262.6764,4.654913
262.6764,4.624885
262.6764,4.919026
262.7181,4.632001
262.7740,4.639188
262.8038,4.653071
262.8372,4.646518
262.8372,4.646518
262.9014,4.647499
262.9241,4.651373
262.9657,4.648551
263.0300,4.649747
263.0300,4.649747
263.3515,4.549978
263.3515,4.534480
263.3515,4.534480
263.3515,4.542229
263.3515,4.557727
263.4789,4.533200
263.5991,4.531993
263.7051,4.501965
263.7051,4.516411
263.7051,4.530928
263.7051,4.530928
263.7051,4.487663
264.0266,4.427285
264.1456,4.407267
264.2504,4.387248
264.3480,4.367230
265.0231,4.296843
265.0231,4.240017
265.0231,4.258839
265.0231,4.169953
265.0231,4.277805
265.1434,4.132810
265.2350,4.115398
265.3767,4.042739
265.3767,4.102794
265.4398,4.040898
265.4958,4.039200
265.5374,4.037573
265.5374,4.037573
265.6005,4.016921
265.6565,3.996341
265.6982,3.975904
266.0196,3.942325
266.0196,3.935544
266.0196,3.937805
266.0196,3.940065
266.3732,3.898737
266.4923,3.881959
266.5971,3.865253
266.6947,3.848691
267.3698,3.810687
267.3698,3.815112
267.3698,3.808654
267.3698,3.812863
267.6912,3.775075
267.7543,3.774441
267.8103,3.773879
267.8520,3.773461
267.8520,3.773461
268.3663,3.356950
268.3663,3.657871
268.4294,3.354056
268.4854,3.618803
268.4854,3.351234
268.5270,3.320142
268.5270,3.320142
268.5270,3.333380
268.5270,3.333380
268.5270,3.324435
268.5270,3.348555
268.5270,3.348555
268.5270,3.328872
268.5687,3.601475
268.6247,3.335006
268.6461,3.347921
268.6878,3.591035
268.7104,3.318528
268.7294,3.336704
268.7509,3.347359
268.8485,3.346941
268.8485,3.346941
268.8485,3.338546
268.8485,3.338546
268.8485,3.341225
268.8485,3.344047
268.8795,3.316913
269.0414,3.512911
269.0414,3.380197
269.0414,3.392466
269.0414,3.404736
269.0414,3.417005
269.0414,3.527429
269.0414,3.315299
269.0414,3.484163
269.0414,3.498465
270.0379,3.270096
270.1010,3.264942
270.1570,3.259860
270.1986,3.254921
271.0344,3.196481
271.0344,3.196481
271.0344,3.201969
271.0344,3.207458
271.0344,3.212947
271.1618,3.195201
271.2821,3.193993
271.3881,3.192929
272.0310,3.152892
272.1572,3.139319
272.2905,3.130195
272.5453,3.117699
273.7026,3.085830
273.7026,3.079276
273.7026,3.092526
273.7026,3.099295
275.0527,3.049249
275.1158,3.044095
275.1718,3.039012
275.2135,3.034074
275.2135,3.034074
275.3325,3.033440
275.4373,3.032878
275.5349,3.032459
275.5349,3.032459
275.7599,3.021816
275.9850,3.011245
276.2100,3.000817
276.2100,3.000817
276.4553,2.997003
276.6719,2.994408
277.0458,2.990808
279.7139,2.928816
279.8413,2.927537
279.9616,2.926329
280.0675,2.925264
280.0675,2.925264
280.1866,2.909539
280.2914,2.893957
280.3890,2.878447
280.3890,2.845191
280.4521,2.843349
280.5081,2.841651
280.5497,2.840025
281.3855,2.808383
281.7713,2.787456
282.0713,2.773560
282.5428,2.754786
282.5428,2.754786
282.7262,2.753171
282.8952,2.751557
283.0571,2.749943
285.0502,2.694731
285.1133,2.691191
285.1693,2.687723
285.2109,2.684399
285.2109,2.684399
285.6193,2.675035
286.0134,2.665672
286.4003,2.656308
289.3899,2.594316
289.5173,2.593037
289.6376,2.591829
289.7436,2.590765
289.7436,2.590765
289.9043,2.585694
290.0650,2.580767
290.2257,2.575912
290.2257,2.575912
290.4508,2.572038
290.6758,2.568163
290.9008,2.564289
290.9008,2.564289
291.1342,2.561538
291.2675,2.558859
291.4152,2.553957
295.0798,2.500682
295.9561,2.493196
296.6895,2.487504
297.9087,2.478726
297.9087,2.478726
298.3587,2.477530
298.8088,2.476478
299.2588,2.475498
306.1060,2.515534
306.3513,2.520557
306.5679,2.524072
306.9418,2.529095
306.9418,2.529095
307.1442,2.536844
307.3609,2.544593
307.5847,2.552342
307.5847,2.552342
307.6907,2.553969
307.8109,2.555667
307.9383,2.557508
307.9383,2.557508
308.1717,2.565748
308.3050,2.569180
308.4527,2.570746
309.4492,2.602711
309.5468,2.604325
309.6516,2.605940
309.7707,2.607554
310.2850,2.639519
310.7565,2.657457
311.0565,2.666999
311.4423,2.676327
311.4423,2.676327
311.6673,2.678922
311.8923,2.681588
312.1173,2.684399
312.1173,2.684399
312.1173,2.686659
312.1173,2.691179
312.1173,2.688919
314.1104,2.723144
314.2164,2.724758
314.3366,2.726373
314.4640,2.727987
315.4605,2.751557
315.5022,2.754236
315.5582,2.757058
315.6213,2.759952
315.6213,2.759952
315.7189,2.761566
315.8237,2.763180
315.9427,2.764795
315.9427,2.764795
315.9844,2.768036
316.0404,2.771348
316.1035,2.774804
316.1035,2.774804
316.2094,2.775868
316.3297,2.777076
316.4571,2.778356
316.4571,2.778356
316.4987,2.782649
316.5547,2.787085
316.6178,2.791594
316.6178,2.791594
316.8428,2.797728
317.0679,2.803863
317.2929,2.809998
317.2929,2.809998
317.3345,2.814936
317.3905,2.820019
317.4536,2.825173
319.4467,2.911799
319.4467,2.915255
319.4467,2.915255
319.4467,2.905246
319.4467,2.908487
320.0372,2.923172
320.5492,2.930371
321.1183,2.937211
321.1183,2.937211
321.3433,2.937629
321.5683,2.938191
321.7934,2.938825
321.7934,2.938825
322.2434,2.944326
322.6935,2.949899
323.1435,2.955615
323.1435,2.955615
323.2411,2.959908
323.3459,2.964344
323.4650,2.968853
324.3008,3.044083
324.4627,3.056771
324.6317,3.069602
324.8151,3.082505
327.1296,3.149663
327.1713,3.152904
327.2273,3.156217
327.2904,3.159673
327.2904,3.159673
327.3963,3.161287
327.5166,3.162901
327.6440,3.164516
327.6440,3.164516
327.6856,3.168390
327.7416,3.172265
327.8047,3.176139
327.8047,3.176139
328.1274,3.179464
328.4571,3.182932
328.8012,3.186471
328.8012,3.186471
329.0679,3.186053
329.3489,3.185491
329.6370,3.184857
329.6370,3.184857
330.6419,3.178483
331.3753,3.174549
332.4659,3.169682
334.1375,3.246526
334.4685,3.269869
334.8138,3.293355
335.1662,3.316913
336.3235,3.388915
336.3651,3.394822
336.4211,3.400873
336.4842,3.406996
336.4842,3.406996
336.5901,3.408060
336.7104,3.409268
336.8378,3.410548
336.8378,3.410548
336.8795,3.418942
336.9354,3.427337
336.9985,3.435732
336.9985,3.435732
337.2652,3.450596
337.5462,3.465532
337.8343,3.480612
339.8274,3.517420
340.1715,3.517420
340.5013,3.517420
340.8239,3.517420
340.8239,3.517420
341.2097,3.520314
341.5954,3.523136
341.9812,3.525814
341.9812,3.525814
342.3896,3.526448
342.7837,3.527010
343.1706,3.527429
343.1706,3.527429
343.3956,3.525181
343.6207,3.523004
343.8457,3.520971
343.8457,3.520971
344.0695,3.520971
344.2862,3.520971
344.4886,3.520971
344.4886,3.520971
344.6160,3.519692
344.7363,3.518484
344.8422,3.517420
344.8422,3.517420
344.9613,3.511703
345.0660,3.506131
345.1637,3.500630
345.8387,3.477383
345.9888,3.470304
346.2888,3.459924
346.9960,3.437346
346.9960,3.437346
347.3401,3.435505
347.6699,3.433807
347.9925,3.432180
348.5069,3.430566
349.8082,3.431762
350.3666,3.432599
350.6607,3.433795
350.6607,3.433795
350.9155,3.438817
351.0488,3.442333
351.1750,3.447355
351.8501,3.477383
351.8501,3.460593
351.8501,3.466094
351.8501,3.471667
353.2002,3.527429
353.4026,3.542939
353.6193,3.558520
353.8432,3.574246
353.8432,3.574246
353.9491,3.575310
354.0694,3.576518
354.1968,3.577797
354.1968,3.577797
354.2944,3.586611
354.3992,3.595568
354.5182,3.604596
355.5148,3.624615
355.5148,3.634624
355.5148,3.627855
355.5148,3.631168
355.8684,3.657871
355.9934,3.671659
356.1184,3.680783
356.3506,3.693064
356.3506,3.693064
356.5839,3.700670
356.7173,3.707199
356.8649,3.718249
359.3723,3.785084
359.7033,3.786411
360.5201,3.788169
362.5226,3.791864
362.5226,3.791864
362.8536,3.789604
363.1989,3.787344
363.5513,3.785084
365.5444,3.765066
365.6635,3.755057
365.7682,3.745047
365.8659,3.735038
365.8659,3.735038
365.9933,3.733759
366.1135,3.732551
366.2195,3.731487
367.2160,3.671432
367.3767,3.658528
367.5375,3.645697
367.6982,3.633009
367.6982,3.633009
368.1066,3.630749
368.5007,3.628489
368.8876,3.626229
369.2091,3.624615
369.6591,3.625033
370.1092,3.625595
370.5592,3.626229
370.5592,3.626229
370.7199,3.627293
370.8807,3.628501
371.0414,3.629781
371.0414,3.629781
371.0831,3.637948
371.1390,3.646259
371.2021,3.654642
371.8772,3.678953
371.8772,3.684670
371.8772,3.684670
371.8772,3.667880
371.8772,3.673381
372.0391,3.685734
372.2082,3.686942
372.3915,3.688221
372.3915,3.688221
372.4892,3.693076
372.5939,3.698003
372.7130,3.703073
372.7130,3.703073
372.7547,3.711468
372.8106,3.719863
372.8737,3.728258
373.5488,3.741496
373.5905,3.743756
373.6464,3.746016
373.7095,3.748276
373.7095,3.748276
374.0322,3.751517
374.3620,3.754829
374.7061,3.758285
374.7061,3.758285
375.1883,3.760785
375.4133,3.761706
375.5740,3.761837
377.5671,3.838682
377.6087,3.848057
377.6647,3.857504
377.7278,3.867095
377.7278,3.867095
377.8254,3.872595
377.9302,3.878168
378.0493,3.883884
378.0493,3.883884
378.1136,3.884303
378.1779,3.884865
378.2422,3.885499
378.5636,3.949105
378.7886,3.970188
379.0137,3.991414
379.2387,4.012712
380.5567,4.075996
381.3508,4.075996
382.1307,4.075996
382.9034,4.075996
382.9034,4.075996
383.0224,4.065986
383.1272,4.055977
383.2248,4.045968
383.3856,3.963969
383.3856,3.953948
383.3856,3.953948
383.3856,3.958887
383.3856,3.969124
383.3856,3.969124
383.4915,3.976239
383.5130,3.953315
383.5784,4.012712
383.6118,3.983426
383.6332,3.952752
383.6916,4.008455
383.7332,4.002762
383.7392,3.952334
383.7392,3.952334
383.7392,3.990756
383.7392,3.990756
383.8999,3.969124
383.9642,3.936190
384.0833,3.968490
384.1892,3.920046
384.2523,3.967928
384.2535,3.953948
384.2952,3.954367
384.3511,3.954929
384.4142,3.903903
384.4142,3.903903
384.4142,3.959449
384.4142,3.955563
384.4142,3.955563
384.4142,3.963407
384.4142,3.967509
384.4142,3.967509
384.7516,3.868711
385.0881,3.833527
385.4228,3.798362
385.7549,3.763224
386.0833,3.728122
386.4073,3.693064
386.4073,3.693064
386.4704,3.679181
386.5264,3.665297
386.5680,3.651413
386.5680,3.651413
386.6954,3.650134
386.8157,3.648926
386.9216,3.671432
386.9216,3.647862
386.9216,3.647862
386.9847,3.635592
387.0407,3.623323
387.0824,3.611054
387.0824,3.611054
387.0824,3.670152
387.2431,3.668944
387.3062,3.593714
387.4038,3.667880
387.4038,3.667880
387.4669,3.664424
387.5229,3.576518
387.5229,3.661112
387.5646,3.657871
387.7253,3.559394
387.7253,3.559394
387.9087,3.554873
388.0777,3.550353
388.2396,3.545833
388.2396,3.545833
388.5278,3.541324
388.8088,3.536888
389.0754,3.532595
389.5898,3.530980
389.8148,3.530980
390.0398,3.530980
390.2649,3.530980
390.2649,3.530980
390.3899,3.537127
390.5149,3.540978
390.7470,3.545833
390.7470,3.545833
390.7887,3.553032
390.8447,3.560374
390.9078,3.567788
390.9078,3.567788
391.1745,3.569821
391.4555,3.571998
391.7436,3.574246
391.7436,3.574246
391.8495,3.578132
391.9698,3.582090
392.0972,3.593941
392.0972,3.586192
392.0972,3.586192
392.0972,3.601690
392.0972,3.609439
392.0972,3.609439
392.1388,3.609858
392.1948,3.610420
392.2579,3.664651
392.2579,3.611054
392.4829,3.662391
392.7080,3.660131
392.7401,3.646247
392.8044,3.650122
392.8687,3.653996
392.9330,3.657871
392.9330,3.657871
394.6046,3.721477
394.8070,3.733747
395.0237,3.746016
395.2475,3.758285
395.2475,3.758285
395.3535,3.759350
395.4737,3.760557
395.6011,3.761837
395.6011,3.761837
395.6428,3.766692
395.6988,3.771619
395.7619,3.776689
395.7619,3.776689
395.9952,3.782656
396.1286,3.785252
396.2762,3.786698
396.2762,3.786698
396.8239,3.786698
397.3787,3.786698
397.9478,3.786698
397.9478,3.786698
398.0728,3.785132
398.1978,3.781700
398.4300,3.773461
398.4300,3.773461
398.8158,3.771834
399.2015,3.770136
399.5873,3.768294
400.4231,3.837067
400.5850,3.856452
400.7540,3.875908
400.9374,3.895508
401.6125,3.975904
401.7375,4.001650
401.8625,4.017639
402.0947,4.037573
402.0947,4.037573
402.1590,4.037992
402.2233,4.038554
402.2875,4.039188
402.6090,4.092785
402.6507,4.101180
402.7066,4.109575
402.7697,4.117970
402.7697,4.117970
402.8114,4.118388
402.8674,4.118950
402.9305,4.119584
405.2771,4.129593
405.3081,4.128027
405.5248,4.124595
406.1129,4.116355
406.1129,4.116355
406.1761,4.114095
406.2320,4.111835
406.2737,4.060270
406.2737,4.029179
406.2737,4.075996
406.2737,4.044689
406.2737,4.109575
406.6273,3.959114
406.7464,3.934576
406.8511,3.910037
406.9488,3.885499
407.2702,3.818663
407.3905,3.781520
407.4822,3.764109
407.6238,3.751505
407.9453,3.671432
408.0727,3.670152
408.1929,3.668944
408.2989,3.667880
408.2989,3.667880
408.3620,3.644968
408.4180,3.622127
408.4596,3.599430
408.4596,3.599430
408.5227,3.598234
408.5787,3.597182
408.6204,3.596201
408.9418,3.527429
409.0049,3.499016
409.0609,3.470603
409.1026,3.442189
409.2954,3.403767
409.2954,3.412497
409.2954,3.417005
409.2954,3.408060
409.6169,3.370188
409.7360,3.322905
409.8193,3.303819
409.9384,3.263316
409.9384,3.265576
409.9384,3.267836
409.9384,3.270096
409.9384,3.296572
410.2920,3.236517
410.4110,3.224511
410.4944,3.209778
410.6134,3.179691
410.6134,3.179691
410.7408,3.178411
410.8611,3.177204
410.9670,3.169371
410.9670,3.172683
410.9670,3.176139
410.9670,3.176139
410.9670,3.166130
411.6100,3.069267
411.6100,3.049249
411.6100,3.049249
411.6100,3.059258
411.6100,3.079276
411.7374,3.047969
411.8576,3.046761
411.9636,3.002432
411.9636,3.016734
411.9636,3.031180
411.9636,3.045697
411.9636,3.045697
412.2850,2.961104
412.2850,2.965624
412.2850,2.928816
412.2850,2.958844
412.2850,2.963364
412.4124,2.927537
412.5327,2.926329
412.6386,2.861981
412.6386,2.904050
412.6386,2.925264
412.6386,2.925264
412.6386,2.882980
412.9601,2.741320
412.9601,2.764807
412.9601,2.788365
412.9601,2.717978
413.6352,2.631124
413.7542,2.610878
413.8590,2.590776
413.9566,2.570746
414.9532,2.470332
415.0734,2.440221
415.1651,2.423814
415.3068,2.407048
415.9497,2.313091
415.9497,2.318592
415.9497,2.324164
415.9497,2.329881
416.6248,2.356679
416.9474,2.356679
417.2772,2.356679
417.6213,2.356679
##END=
