##TITLE=1-Phenylnaphthalene
##JCAMP-DX=4.24
##DATA TYPE=UV/VIS SPECTRUM
##ORIGIN=INSTITUTE OF ENERGY PROBLEMS OF CHEMICAL PHYSICS, RAS
##OWNER=INEP CP RAS, NIST OSRD
Collection (C) 2007 copyright by the U.S. Secretary of Commerce
on behalf of the United States of America. All rights reserved.
##CAS REGISTRY NO=605-02-7
##MOLFORM=C16H12
##MP=45
##BP=334
##SOURCE REFERENCE=RAS UV No. 9043
##$NIST SQUIB=1967JOHe1/2C
##$NIST SOURCE=TSGMTE
##SPECTROMETER/DATA SYSTEM=Unicam SP 500
##XUNITS=Wavelength (nm)
##YUNITS=Logarithm epsilon
##XFACTOR=1.000000
##YFACTOR=1.000000
##FIRSTX=332.7989
##LASTX=231.8863
##FIRSTY=1.13594
##MAXX=332.799
##MINX=231.886
##MAXY=4.57949
##MINY=1.13594
##NPOINTS=1000
##$REF AUTHOR=Johnson, E.A.
##$REF TITLE=1-Phenylnaphthalene
##$REF BOOK TITLE=UV Atlas of Organic Compounds - Vol. 3
##$REF PAGE=E1/2
##$REF DATE=1967
##$REF PUBLISHER=Plenum Press
##$REF LOCATION=New York
##XYPOINTS=(XY..XY)
332.7989,1.135943
332.5706,1.138230
332.5605,1.174150
332.3326,1.176439
332.3260,1.199876
332.0701,1.201908
332.0595,1.240120
331.8323,1.242154
331.8240,1.271958
331.5976,1.271953
331.5906,1.297428
331.3357,1.299714
331.3246,1.339966
331.0983,1.341998
331.0971,1.346329
330.8712,1.348361
330.8630,1.378167
330.6093,1.380455
330.5887,1.454842
330.3641,1.454837
330.3571,1.480312
330.1322,1.482345
330.1299,1.490752
330.1229,1.516226
330.1176,1.535332
329.9052,1.493038
329.8994,1.514182
329.8930,1.537620
329.8848,1.567425
329.6326,1.569458
329.6244,1.599264
329.4005,1.601296
329.3883,1.645878
329.1647,1.648166
329.1572,1.675678
328.9061,1.677710
328.8980,1.707517
328.6751,1.709549
328.6669,1.739355
328.4443,1.741642
328.4362,1.771193
328.1862,1.773480
328.1781,1.803031
327.9561,1.805319
327.9492,1.830794
327.7276,1.832827
327.7178,1.869001
327.4689,1.871033
327.4608,1.900839
327.2399,1.902872
327.2324,1.930640
327.0117,1.932673
327.0037,1.962478
326.7559,1.964510
326.7432,2.011384
326.5232,2.013417
326.5186,2.030486
326.2989,2.032518
326.2892,2.068693
326.0425,2.070725
326.0339,2.102824
325.8149,2.104856
325.8080,2.130332
325.5893,2.132364
325.5796,2.168539
325.3340,2.170571
325.3265,2.198339
325.1084,2.200372
325.1027,2.221771
324.8855,2.221765
324.8753,2.259978
324.6307,2.262010
324.6199,2.302515
324.4028,2.304548
324.3949,2.334354
324.1780,2.336387
324.1696,2.368230
323.9260,2.370518
323.9159,2.408730
323.6997,2.410763
323.6873,2.457637
323.4714,2.459670
323.4591,2.506289
323.2165,2.508576
323.2149,2.514944
323.0001,2.514939
322.9968,2.527677
322.7818,2.529710
322.7778,2.544740
322.5364,2.546772
322.5308,2.567916
322.3164,2.570204
322.3109,2.591348
322.0968,2.593381
322.0912,2.614780
321.8774,2.616813
321.8724,2.635919
321.6322,2.638206
321.6279,2.655020
321.4146,2.657307
321.4086,2.680490
321.1956,2.682777
321.1907,2.701883
320.9516,2.703916
320.9450,2.729391
320.7326,2.731678
320.7271,2.752822
320.5152,2.754855
320.5096,2.776254
320.2716,2.778287
320.2671,2.795355
320.0558,2.797388
320.0497,2.820825
319.8386,2.822857
319.8342,2.839926
319.5972,2.841958
319.5906,2.867433
319.3801,2.869721
319.3730,2.897234
319.1628,2.899266
319.1578,2.918627
318.9218,2.920660
318.9157,2.944097
318.7062,2.946129
318.7013,2.965236
318.4920,2.967269
318.4887,2.980006
318.2536,2.982293
318.2476,3.005730
318.0389,3.007763
318.0351,3.022538
317.8266,3.024826
317.8233,3.037563
317.5892,3.039596
317.5855,3.054371
317.3776,3.056659
317.3749,3.067104
317.1673,3.069391
317.1641,3.082129
316.9309,3.084161
316.9287,3.092822
316.7218,3.094855
316.7196,3.103262
316.5128,3.105550
316.5112,3.111918
316.2791,3.113951
316.2764,3.124650
316.0702,3.126683
316.0686,3.133052
315.8628,3.135085
315.8601,3.145784
315.6294,3.145779
315.6267,3.156478
315.4219,3.156473
315.4193,3.166918
315.2142,3.169205
315.2121,3.177612
314.9818,3.179644
314.9797,3.188306
314.7752,3.190339
314.7725,3.201038
314.5684,3.203071
314.5657,3.213770
314.3618,3.215803
314.3607,3.220134
314.1317,3.222166
314.1285,3.234904
313.9251,3.237192
313.9230,3.245598
313.7199,3.247631
313.7178,3.256293
313.4897,3.258325
313.4870,3.269024
313.2845,3.271057
313.2824,3.279719
313.0801,3.281752
313.0781,3.290158
312.8508,3.292445
312.8488,3.300852
312.6471,3.302885
312.6449,3.311546
312.4440,3.311541
312.4414,3.321986
312.2157,3.321980
312.2136,3.330642
312.0127,3.332675
312.0106,3.341082
311.8100,3.343369
311.8079,3.351776
311.5826,3.353808
311.5805,3.362470
311.3804,3.364503
311.3778,3.375202
311.1780,3.377235
311.1759,3.385896
310.9519,3.385891
310.9494,3.396335
310.7506,3.396330
310.7485,3.404992
310.5495,3.407025
310.5469,3.417724
310.3239,3.417718
310.3214,3.428163
310.1229,3.430451
310.1203,3.440896
309.9221,3.443183
309.9206,3.449552
309.6980,3.451584
309.6964,3.457953
309.4987,3.460241
309.4962,3.470685
309.2987,3.472973
309.2977,3.477049
309.0760,3.479336
309.0735,3.489781
308.8765,3.492068
308.8756,3.496144
308.6789,3.498432
308.6769,3.506839
308.4561,3.508871
308.4540,3.517532
308.2579,3.519565
308.2564,3.525934
308.0606,3.527967
308.0595,3.532298
307.8396,3.534330
307.8375,3.542991
307.6422,3.545024
307.6407,3.551393
307.4456,3.553681
307.4441,3.560049
307.2493,3.562082
307.2478,3.568451
307.0290,3.570483
307.0270,3.579145
306.8327,3.581178
306.8317,3.585508
306.6377,3.587541
306.6366,3.591872
306.4187,3.593904
306.4172,3.600273
306.2237,3.602306
306.2222,3.608675
306.0289,3.610962
306.0280,3.615038
305.8109,3.617325
305.8094,3.623694
305.6166,3.625727
305.6156,3.630058
305.4231,3.632091
305.4221,3.636421
305.2059,3.638454
305.2044,3.644822
305.0124,3.647110
305.0115,3.651186
304.8197,3.653474
304.8187,3.657550
304.6033,3.659837
304.6024,3.663913
304.4111,3.666200
304.4096,3.672569
304.2187,3.674602
304.2182,3.676640
304.0036,3.678927
304.0022,3.685296
303.8117,3.687329
303.8112,3.689367
303.6210,3.691654
303.6195,3.698023
303.4058,3.700055
303.4048,3.704386
303.2151,3.706419
303.2141,3.710750
303.0247,3.712783
303.0237,3.717113
302.8109,3.719146
302.8098,3.723476
302.6209,3.725509
302.6199,3.729840
302.4312,3.731873
302.4302,3.736204
302.2182,3.738236
302.2177,3.740529
302.0294,3.742561
302.0284,3.746892
301.8405,3.748925
301.8395,3.753256
301.6283,3.755288
301.6273,3.759619
301.4398,3.761652
301.4394,3.763690
301.2521,3.765977
301.2511,3.770053
301.0407,3.772340
301.0398,3.776416
300.8530,3.778704
300.8521,3.782780
300.6655,3.785068
300.6650,3.787106
300.4787,3.789139
300.4782,3.791431
300.2690,3.793464
300.2680,3.797794
300.0822,3.799827
300.0812,3.804158
299.8956,3.806191
299.8946,3.810522
299.6862,3.812554
299.6857,3.814592
299.5006,3.816880
299.4996,3.821210
299.3148,3.823243
299.3138,3.827574
299.1066,3.827568
299.1057,3.831644
298.9218,3.831639
298.9208,3.835970
298.7367,3.838003
298.7362,3.840295
298.5293,3.842328
298.5284,3.846658
298.3452,3.846653
298.3442,3.850729
298.1608,3.853017
298.1603,3.855055
297.9543,3.857087
297.9533,3.861418
297.7708,3.861413
297.7698,3.865744
297.5876,3.865739
297.5867,3.869815
297.3819,3.869809
297.3809,3.874140
297.1987,3.876172
297.1981,3.878465
297.0161,3.880498
297.0157,3.882536
296.8112,3.884823
296.8107,3.886861
296.6292,3.888894
296.6286,3.891187
296.4473,3.893220
296.4469,3.895258
296.2431,3.897545
296.2427,3.899583
295.8811,3.903903
295.8807,3.905941
295.6778,3.907973
295.6773,3.910266
295.3171,3.914587
295.3167,3.916625
295.1146,3.918657
295.1136,3.922988
294.9346,3.922983
294.9341,3.925021
294.7548,3.927308
294.7544,3.929346
294.5535,3.929341
294.5530,3.931379
294.3747,3.931373
294.3742,3.933666
294.1960,3.933661
294.1956,3.935699
294.0177,3.935694
294.0172,3.937732
293.8173,3.937726
293.8168,3.940019
293.6393,3.940014
293.6389,3.942052
293.4616,3.942047
293.0848,3.946367
292.9082,3.946362
292.5328,3.950427
292.1592,3.950416
291.9833,3.952704
291.4363,3.952688
291.4358,3.954726
290.5215,3.954699
290.3476,3.956732
287.8548,3.956658
287.6637,3.954614
286.6038,3.954582
286.4353,3.952539
285.2175,3.950210
285.2170,3.952502
284.6955,3.950194
284.5085,3.948150
283.8234,3.948129
283.6582,3.946086
283.1419,3.946070
282.9570,3.943771
282.6280,3.943761
282.4437,3.941718
282.1159,3.941707
281.9527,3.939664
281.6061,3.937361
281.6057,3.939653
281.4435,3.935318
281.4431,3.937356
281.0981,3.933269
281.0977,3.935307
280.9361,3.930971
280.9357,3.933264
280.5920,3.928922
280.5916,3.930960
280.4305,3.926879
280.2491,3.924581
280.2487,3.926873
280.0881,3.922537
280.0877,3.924575
279.9272,3.920494
279.9268,3.922532
279.7464,3.918196
279.7460,3.920489
279.5860,3.916153
279.5856,3.918191
279.0861,3.907475
279.0857,3.909768
278.9264,3.905432
278.9260,3.907470
278.7469,3.903389
278.7465,3.905427
278.5876,3.901091
278.4288,3.897010
278.4280,3.901086
278.2500,3.894711
278.2496,3.897004
278.0913,3.892668
278.0909,3.894706
277.9327,3.890625
277.9323,3.892663
277.7545,3.888327
277.7540,3.890619
277.5963,3.886283
277.5959,3.888321
277.4383,3.884240
277.4379,3.886278
277.2607,3.881942
277.2603,3.884235
277.1035,3.877861
277.1027,3.881937
276.9461,3.875563
276.9456,3.877856
276.7691,3.873519
276.7687,3.875557
276.6120,3.871476
276.6116,3.873514
276.4551,3.869178
276.4547,3.871471
276.2984,3.867135
276.2980,3.869173
276.1223,3.865091
276.1219,3.867129
275.9660,3.862794
275.9655,3.865086
275.8098,3.860751
275.8094,3.862789
275.6343,3.858707
275.6339,3.860745
275.4785,3.856409
275.4781,3.858702
275.3229,3.854366
275.3225,3.856404
275.1480,3.852322
275.1476,3.854360
274.9928,3.850024
274.9924,3.852317
274.8377,3.847981
274.8374,3.850019
274.6635,3.845938
274.6631,3.847976
274.1806,3.839553
274.0265,3.837255
274.0261,3.839548
273.8725,3.835212
273.8721,3.837250
272.5897,3.818101
272.4373,3.816058
272.4369,3.818096
272.1144,3.809678
272.1141,3.811716
271.9627,3.807381
271.9622,3.809673
271.7920,3.805337
271.7916,3.807375
271.6409,3.801001
271.6405,3.803294
271.4896,3.798958
271.4892,3.800996
271.3200,3.794621
271.3195,3.796914
271.1690,3.792578
271.1686,3.794616
271.0187,3.788242
271.0182,3.790535
270.8680,3.786199
270.8677,3.788237
270.6992,3.781863
270.6987,3.784156
270.3992,3.775484
270.3988,3.777777
270.0812,3.769104
270.0808,3.771397
269.9320,3.765023
269.9316,3.767061
269.7643,3.760687
269.7639,3.762725
269.6155,3.756351
269.6150,3.758644
269.4664,3.754308
269.4660,3.756346
269.2993,3.749971
269.2988,3.752264
269.1509,3.745890
269.1505,3.747928
269.0024,3.743593
269.0020,3.745885
268.8358,3.739511
268.8354,3.741549
268.6876,3.737213
268.6872,3.739506
268.5400,3.733132
268.5396,3.735170
268.2263,3.726752
268.2259,3.728790
268.0792,3.722417
268.0788,3.724455
267.9138,3.718080
267.9130,3.722411
267.7666,3.716037
267.7662,3.718075
267.6200,3.711701
267.6192,3.716032
267.4547,3.709657
267.4543,3.711695
267.3084,3.705322
267.3076,3.709652
267.1619,3.703278
267.1615,3.705316
266.9976,3.698942
266.9972,3.700980
266.8514,3.696899
266.8511,3.698937
266.7058,3.692563
266.7054,3.694601
266.5417,3.690519
266.5413,3.692557
266.3964,3.686184
266.3960,3.688222
266.2509,3.684140
266.2505,3.686178
266.1059,3.679805
266.1055,3.681843
265.9425,3.677761
265.9421,3.679799
265.7979,3.673425
265.7971,3.677756
265.6530,3.671382
265.6526,3.673420
265.4906,3.667045
265.4902,3.669083
265.3460,3.665002
265.3457,3.667040
265.2021,3.660667
265.2013,3.664997
265.0398,3.658623
265.0394,3.660661
264.8958,3.656325
264.8954,3.658618
264.7522,3.652244
264.7519,3.654282
264.5905,3.649945
264.5901,3.652238
264.4473,3.645864
264.4466,3.649940
264.3040,3.643566
264.3036,3.645859
264.1431,3.639485
264.1424,3.643561
264.0001,3.637187
263.9997,3.639480
263.8572,3.635144
263.8568,3.637182
263.6969,3.630807
263.6962,3.635138
263.5543,3.628764
263.5540,3.630802
263.4119,3.626466
263.4115,3.628759
263.2522,3.622385
263.2518,3.624423
263.1101,3.620087
263.1097,3.622380
262.9685,3.616006
262.9678,3.620082
262.8090,3.613707
262.8086,3.616000
262.6677,3.609626
262.6670,3.613702
262.5263,3.607328
262.5259,3.609621
262.3672,3.605285
262.3669,3.607323
262.2265,3.600949
262.2257,3.605280
262.0855,3.598906
262.0851,3.600944
261.9270,3.596862
261.9266,3.598900
261.7867,3.592526
261.7863,3.594564
261.6461,3.590483
261.6458,3.592521
261.3483,3.584104
261.3480,3.586142
261.2083,3.581806
261.2079,3.584098
261.0688,3.577725
261.0684,3.579763
260.9115,3.575426
260.9111,3.577719
260.7719,3.573383
260.7716,3.575421
260.6329,3.569047
260.6325,3.571340
260.4761,3.567003
260.4758,3.569041
260.3370,3.564960
260.3366,3.566998
260.1980,3.562663
260.1977,3.564955
260.0422,3.558581
260.0418,3.560619
259.9035,3.556283
259.9032,3.558576
259.7650,3.554240
259.7647,3.556278
259.6093,3.552196
259.6090,3.554234
259.4715,3.547860
259.4711,3.549898
259.3334,3.545817
259.3331,3.547855
259.1783,3.543519
259.1779,3.545811
259.0405,3.541476
259.0402,3.543514
258.7486,3.535096
258.7483,3.537134
258.6114,3.532798
258.6110,3.535091
258.4742,3.530755
258.4739,3.532793
258.3201,3.528711
258.3197,3.530749
258.1833,3.526414
258.1829,3.528706
258.0466,3.524371
258.0462,3.526409
257.6207,3.515948
257.6203,3.517986
257.4676,3.513649
257.4672,3.515942
257.3316,3.511606
257.3313,3.513644
257.1958,3.509563
257.1955,3.511601
257.0432,3.507265
257.0429,3.509557
256.9078,3.505222
256.9074,3.507260
256.7721,3.505217
256.6203,3.500880
256.6199,3.503173
256.4853,3.498837
256.3504,3.496794
256.3500,3.498832
256.2153,3.496789
255.9294,3.492447
255.7950,3.490404
255.7947,3.492442
255.6441,3.488106
255.5097,3.488101
255.3759,3.486057
255.2254,3.484014
255.2250,3.486052
255.0918,3.481716
255.0914,3.484009
254.9580,3.481711
254.8080,3.479667
254.6749,3.477624
254.6746,3.479662
254.3917,3.477613
254.2591,3.475315
253.7117,3.475294
253.5632,3.473251
252.0677,3.473193
251.9205,3.475225
251.6596,3.475215
251.5291,3.477502
251.2528,3.477492
251.2525,3.479530
251.1227,3.479524
251.1224,3.481562
250.9766,3.481557
250.8467,3.483844
250.8464,3.485882
250.5710,3.490202
250.4419,3.490197
250.3126,3.492230
250.0390,3.492219
250.0387,3.494257
249.9102,3.494252
249.9098,3.496545
249.7651,3.498577
249.7648,3.500615
249.6361,3.502903
249.6358,3.504941
249.5074,3.506974
249.3634,3.506968
249.2352,3.509256
249.2346,3.513332
249.1065,3.515619
249.1062,3.517657
248.9624,3.519689
248.9617,3.524020
248.8339,3.526053
248.8333,3.530384
248.7056,3.532417
248.7053,3.534710
248.5619,3.536742
248.5612,3.541073
248.4339,3.543105
248.4332,3.547436
248.3060,3.549469
248.3054,3.553800
248.1625,3.555832
248.1618,3.560163
248.0352,3.560158
248.0342,3.566526
247.9077,3.566521
247.9070,3.570852
247.7649,3.570846
247.7639,3.577215
247.6374,3.579248
247.6367,3.583579
247.5103,3.585612
247.5097,3.589942
247.3680,3.589937
247.3670,3.596305
247.2409,3.598338
247.2402,3.602669
247.1142,3.604702
247.1133,3.611071
246.9877,3.611066
246.9867,3.617434
246.8457,3.617429
246.8447,3.623797
246.7194,3.623792
246.7184,3.630161
246.5930,3.632194
246.5920,3.638817
246.4513,3.638812
246.4504,3.645180
246.3252,3.647213
246.3239,3.655620
246.1988,3.657908
246.1982,3.661984
246.0576,3.664271
246.0567,3.670639
245.9319,3.672672
245.9312,3.677003
245.8066,3.679036
245.8053,3.687443
245.6652,3.689730
245.6642,3.696098
245.5402,3.696093
245.5386,3.706538
245.4143,3.708826
245.4137,3.712902
245.2740,3.715189
245.2734,3.719265
245.1494,3.721552
245.1484,3.727921
245.0245,3.729954
245.0239,3.734285
244.8847,3.736317
244.8838,3.742686
244.7601,3.744973
244.7595,3.749049
244.6360,3.751337
244.6350,3.757706
244.4963,3.759738
244.4954,3.766107
244.3722,3.768140
244.3715,3.772470
244.2484,3.774503
244.2478,3.778834
244.1095,3.780866
244.1089,3.785197
243.9860,3.787230
243.9851,3.793599
243.8624,3.795886
243.8617,3.799962
243.7239,3.802249
243.7233,3.806325
243.6008,3.808613
243.6002,3.812689
243.4778,3.814977
243.4772,3.819307
243.3398,3.821340
243.3391,3.825670
243.2171,3.827703
243.2168,3.829741
243.0948,3.832029
243.0939,3.838398
242.9569,3.840430
242.9563,3.844761
242.8346,3.846793
242.8340,3.851124
242.7124,3.853157
242.7118,3.857488
242.5904,3.859521
242.5901,3.861559
242.4536,3.863846
242.4530,3.867922
242.3318,3.870209
242.3312,3.874285
242.2102,3.876573
242.2095,3.880649
242.0735,3.882936
242.0729,3.887012
241.9521,3.889300
241.9515,3.893376
241.8308,3.895663
241.8305,3.897701
241.6950,3.899734
241.6943,3.904064
241.5739,3.906097
241.5736,3.908390
241.4533,3.910423
241.4524,3.916792
241.3175,3.916786
241.3169,3.921117
241.1969,3.923150
241.1963,3.927480
241.0764,3.929513
241.0757,3.933844
240.9410,3.935876
240.9404,3.940207
240.8210,3.940202
240.8204,3.944533
240.7009,3.946565
240.7002,3.950896
240.5659,3.952928
240.5653,3.957259
240.4460,3.959292
240.4457,3.961330
240.3265,3.963618
240.3259,3.967694
240.1920,3.969981
240.1917,3.972019
240.0728,3.974052
240.0722,3.978382
239.9534,3.980415
239.9531,3.982708
239.8196,3.984740
239.8190,3.989071
239.7005,3.991104
239.7002,3.993142
239.5817,3.995430
239.5814,3.997468
239.4487,3.997462
239.4480,4.001793
239.3299,4.003825
239.3289,4.010194
239.2109,4.012482
239.2103,4.016558
239.0776,4.018845
239.0773,4.020883
238.9595,4.022916
238.9586,4.029284
238.8412,4.029279
238.8406,4.033610
238.7083,4.035642
238.7074,4.042011
238.5899,4.044299
238.5894,4.048375
238.4720,4.050662
238.4714,4.054738
238.3545,4.054733
238.3536,4.061102
238.2222,4.061096
238.2210,4.069758
238.1043,4.069753
238.1034,4.076121
237.9865,4.078154
237.9856,4.084523
237.8543,4.086555
237.8537,4.090886
237.7371,4.093174
237.7362,4.099542
237.6197,4.101575
237.6188,4.107944
237.4882,4.107938
237.4870,4.116345
237.3710,4.116340
237.3698,4.125001
237.2540,4.124996
237.2528,4.133403
237.1226,4.133397
237.1214,4.141804
237.0058,4.141799
237.0046,4.150460
236.8888,4.152493
236.8879,4.158862
236.7578,4.160894
236.7566,4.169556
236.6411,4.171589
236.6396,4.182288
236.5241,4.184321
236.5226,4.195021
236.3930,4.197053
236.3917,4.205714
236.2766,4.207747
236.2751,4.218447
236.1600,4.220480
236.1588,4.228886
236.0298,4.228881
236.0280,4.241618
235.9135,4.241613
235.9117,4.254350
235.7973,4.254345
235.7961,4.263007
235.6672,4.265039
235.6657,4.275739
235.5515,4.275734
235.5500,4.286433
235.4357,4.288466
235.4345,4.296873
235.3060,4.299160
235.3048,4.307566
235.1907,4.309599
235.1895,4.318261
235.0758,4.318256
235.0746,4.326662
234.9465,4.328695
234.9456,4.335063
234.8318,4.337351
234.8306,4.345758
234.7170,4.347791
234.7158,4.356452
234.5881,4.358484
234.5872,4.364853
234.4737,4.367141
234.4729,4.373510
234.3595,4.375542
234.3584,4.383949
234.2451,4.386237
234.2443,4.392606
234.1171,4.394638
234.1159,4.403045
234.0032,4.403039
234.0015,4.415777
233.8886,4.418065
233.8877,4.424433
233.7609,4.426466
233.7597,4.434872
233.6471,4.437160
233.6459,4.445567
233.5337,4.445562
233.5325,4.453968
233.4064,4.453963
233.4049,4.464662
233.2929,4.464657
233.2917,4.473318
233.1796,4.475351
233.1787,4.481720
233.0527,4.483752
233.0521,4.488083
232.9401,4.490116
232.9387,4.500815
232.8268,4.502848
232.8259,4.509217
232.7003,4.511504
232.6994,4.517873
232.5878,4.519906
232.5869,4.526274
232.4754,4.528307
232.4746,4.534676
232.3492,4.536963
232.3484,4.543332
232.2371,4.545365
232.2359,4.554026
232.1250,4.554021
232.1239,4.562428
231.9993,4.562422
231.9981,4.570829
231.8875,4.570824
231.8863,4.579485
##END=
