##TITLE=Benzoic acid, 2-nitro-, methyl ester
##JCAMP-DX=4.24
##DATA TYPE=UV/VIS SPECTRUM
##ORIGIN=INSTITUTE OF ENERGY PROBLEMS OF CHEMICAL PHYSICS, RAS
##OWNER=INEP CP RAS, NIST OSRD
Collection (C) 2007 copyright by the U.S. Secretary of Commerce
on behalf of the United States of America. All rights reserved.
##CAS REGISTRY NO=606-27-9
##MOLFORM=C8H7NO4
##MP=-13
##BP=275
##SOURCE REFERENCE=RAS UV No. 4091
##$NIST SQUIB=1967LAR/BEL2536-2540
##$NIST SOURCE=TSGMTE
##SPECTROMETER/DATA SYSTEM=n.i.g.
##XUNITS=Wavelength (nm)
##YUNITS=Logarithm epsilon
##XFACTOR=1.000000
##YFACTOR=1.000000
##FIRSTX=222.0010
##LASTX=366.4023
##FIRSTY=4.00488
##MAXX=366.402
##MINX=222.001
##MAXY=4.01372
##MINY=2.33192
##NPOINTS=159
##$REF AUTHOR=Larina, M.K.; Belotsvetov, A.V.
##$REF TITLE=Color of phenol esters of nitro-substituted aromatic carboxylic acids. III. 2,4- and 3,5-dinitrobenzoic esters
##$REF JOURNAL=Zh. Obshch. Khim.
##$REF VOLUME=37
##$REF PAGE=2536-2540
##$REF DATE=1967
##XYPOINTS=(XY..XY)
222.0010,4.004885
222.1193,4.013719
222.2674,4.011217
222.4222,4.008672
222.4328,4.004861
222.5905,4.006051
222.8647,4.004838
222.8647,4.004838
223.3293,3.991843
223.5657,3.979832
223.5713,3.984772
224.0465,3.975119
225.8861,3.936303
226.6538,3.922740
227.9669,3.890317
228.0818,3.897720
228.0818,3.897720
228.1726,3.885149
228.4782,3.895640
228.6012,3.895454
228.7241,3.895230
228.8468,3.894929
229.4641,3.881104
229.4641,3.881104
229.8374,3.882493
229.9653,3.884019
230.0998,3.885461
230.2481,3.886858
230.4937,3.866162
231.5568,3.850306
231.9250,3.832584
232.4625,3.839229
232.6563,3.839011
232.8638,3.838749
232.9272,3.824299
233.0779,3.838398
233.1747,3.824069
233.4290,3.823794
233.6968,3.823427
233.6968,3.823427
235.2297,3.806605
236.9993,3.791125
239.3820,3.776823
239.3820,3.776823
239.9123,3.766016
240.6586,3.761291
241.7947,3.762161
241.7970,3.763548
241.7992,3.764880
241.8012,3.766105
241.8174,3.775698
241.8867,3.774778
241.9696,3.773805
242.0592,3.772728
242.3129,3.758366
242.3129,3.758366
244.2430,3.748562
246.1909,3.741147
248.5380,3.734558
249.0639,3.735498
249.8125,3.740661
250.2477,3.742772
250.7428,3.743679
251.4916,3.729261
254.3900,3.724375
257.0321,3.717685
259.7557,3.705663
260.8975,3.684038
262.6901,3.686340
262.6943,3.689382
262.6986,3.692403
262.7028,3.695403
262.9793,3.677838
264.6685,3.666995
266.1131,3.652258
267.4612,3.634381
268.8608,3.614190
272.0257,3.575382
272.3105,3.573439
272.6087,3.571323
272.9138,3.569116
272.9138,3.569116
274.2981,3.548449
275.9271,3.528622
277.2765,3.505612
277.8216,3.474438
278.1185,3.496423
278.5287,3.496352
278.9526,3.496278
279.3833,3.496203
279.6320,3.462644
280.3763,3.438671
281.6243,3.415607
283.0017,3.389878
284.1341,3.356963
284.6470,3.310665
284.9162,3.347243
285.1641,3.347182
285.4189,3.347120
285.6874,3.347054
286.1520,3.298899
286.4388,3.298820
286.7393,3.298737
287.0466,3.298653
287.0466,3.298653
288.7959,3.265914
290.6050,3.231701
292.4811,3.195322
294.4313,3.155858
296.4628,3.112062
296.4628,3.112062
297.5612,3.118684
298.5047,3.114817
298.8759,3.040960
299.1308,3.065866
299.2038,3.072389
299.2904,3.078309
299.3837,3.083900
299.3837,3.083900
300.3741,3.034165
301.9202,3.003829
303.4514,2.966395
303.4514,2.966395
305.8388,2.932052
308.3882,2.882648
310.3535,2.782808
310.3535,2.782808
311.6422,2.901616
312.0065,2.880248
312.1384,2.860847
312.1508,2.825679
312.2786,2.780222
314.2152,2.775998
316.1621,2.770239
318.1183,2.763038
320.0827,2.754475
321.9769,2.734149
322.0542,2.744637
322.1021,2.738241
322.2340,2.741200
322.3795,2.743586
324.0317,2.733601
326.0142,2.721448
328.0005,2.708266
329.9896,2.694148
331.9805,2.679200
333.9719,2.663547
335.9629,2.647327
337.9524,2.630704
339.9392,2.613876
341.9224,2.597067
343.9007,2.580537
345.8732,2.564595
355.5668,2.502218
357.7373,2.483701
359.9517,2.454219
362.1644,2.416514
364.3298,2.374061
366.4023,2.331920
##END=
