##TITLE=8-chloro-1-methoxy-5H-benzocyclohepten-5-one
##JCAMP-DX=4.24
##DATA TYPE=UV/VIS SPECTRUM
##ORIGIN=INSTITUTE OF ENERGY PROBLEMS OF CHEMICAL PHYSICS, RAS
##OWNER=INEP CP RAS, NIST OSRD
Collection (C) 2007 copyright by the U.S. Secretary of Commerce
on behalf of the United States of America. All rights reserved.
##CAS REGISTRY NO=60683-63-8
##MOLFORM=C12H9ClO2
##MP=123-124
##SOURCE REFERENCE=RAS UV No. 22815
##$NIST SQUIB=1976SAT/2230
##$NIST SOURCE=TYUGLMTE
##SPECTROMETER/DATA SYSTEM=unknown
##XUNITS=Wavelength (nm)
##YUNITS=Logarithm epsilon
##XFACTOR=1.0
##YFACTOR=1.0
##FIRSTX=211.296
##LASTX=377.673
##FIRSTY=4.26
##MAXX=377.673
##MINX=211.296
##MAXY=4.435
##MINY=3.881
##NPOINTS=116
##$REF AUTHOR=Sato, M.; et al.
##$REF JOURNAL=Bull. Chem. Soc. Japan
##$REF VOLUME=49
##$REF PAGE=2230
##$REF DATE=1976
##XYPOINTS=(XY..XY)
211.296,4.260
212.796,4.280
214.296,4.301
215.796,4.323
217.296,4.345
218.796,4.367
220.296,4.387
221.796,4.404
223.296,4.419
224.796,4.430
226.296,4.435
227.796,4.435
229.296,4.427
230.698,4.412
232.198,4.385
233.698,4.352
235.198,4.317
236.698,4.279
238.198,4.240
239.698,4.201
241.198,4.164
242.698,4.127
244.198,4.093
245.698,4.060
247.198,4.028
248.698,3.997
250.198,3.966
251.698,3.933
251.717,3.934
253.217,3.907
254.717,3.891
256.217,3.883
257.717,3.881
259.217,3.885
260.717,3.892
262.217,3.901
263.717,3.912
265.217,3.923
266.717,3.935
268.217,3.946
269.717,3.957
271.120,3.968
272.620,3.977
274.120,3.987
275.620,3.997
277.120,4.007
278.620,4.017
280.120,4.025
281.620,4.032
283.120,4.036
284.620,4.039
286.120,4.039
287.620,4.037
289.120,4.033
290.620,4.026
292.120,4.018
293.620,4.009
295.120,3.999
296.620,3.989
296.720,3.988
298.220,3.979
299.720,3.970
301.220,3.962
302.720,3.955
304.220,3.950
305.720,3.945
307.220,3.942
308.720,3.941
310.220,3.941
311.720,3.943
313.220,3.946
314.720,3.950
316.220,3.955
317.720,3.960
319.220,3.967
320.720,3.974
322.051,3.983
323.551,3.988
325.051,3.994
326.551,4.001
328.051,4.009
329.551,4.017
331.051,4.025
332.551,4.033
334.051,4.040
335.551,4.047
337.051,4.052
338.551,4.057
340.051,4.060
341.551,4.062
343.051,4.063
344.551,4.063
346.051,4.061
347.551,4.058
347.621,4.058
349.121,4.053
350.621,4.048
352.121,4.042
353.621,4.036
355.121,4.030
356.621,4.024
358.121,4.019
359.621,4.013
359.673,4.013
361.173,4.007
362.673,4.001
364.173,3.994
365.673,3.985
367.173,3.976
368.673,3.966
370.173,3.956
371.673,3.944
373.173,3.932
374.673,3.919
376.173,3.905
377.673,3.892
##END=
