##TITLE=6-chloro-5-methoxy-7H-benzocyclohepten-7-one
##JCAMP-DX=4.24
##DATA TYPE=UV/VIS SPECTRUM
##ORIGIN=INSTITUTE OF ENERGY PROBLEMS OF CHEMICAL PHYSICS, RAS
##OWNER=INEP CP RAS, NIST OSRD
Collection (C) 2007 copyright by the U.S. Secretary of Commerce
on behalf of the United States of America. All rights reserved.
##CAS REGISTRY NO=60683-54-7
##MOLFORM=C12H9ClO2
##MP=95-96
##SOURCE REFERENCE=RAS UV No. 22818
##$NIST SQUIB=1976SAT/2230
##$NIST SOURCE=TYUGLMTE
##SPECTROMETER/DATA SYSTEM=unknown
##XUNITS=Wavelength (nm)
##YUNITS=Logarithm epsilon
##XFACTOR=1.0
##YFACTOR=1.0
##FIRSTX=209.427
##LASTX=364.364
##FIRSTY=4.104
##MAXX=364.364
##MINX=209.427
##MAXY=4.579
##MINY=2.739
##NPOINTS=159
##$REF AUTHOR=Sato, M.; et al.
##$REF JOURNAL=Bull. Chem. Soc. Japan.
##$REF VOLUME=49
##$REF PAGE=2230
##$REF DATE=1976
##XYPOINTS=(XY..XY)
209.427,4.104
210.427,4.125
211.427,4.142
212.427,4.158
213.427,4.174
214.427,4.190
215.427,4.206
216.427,4.223
217.427,4.242
218.427,4.261
219.427,4.282
220.427,4.303
221.427,4.325
222.427,4.346
223.427,4.365
224.427,4.382
225.427,4.396
226.427,4.407
227.427,4.413
228.427,4.414
229.427,4.410
230.184,4.403
231.184,4.391
232.184,4.382
233.184,4.376
234.184,4.370
235.184,4.364
236.184,4.358
237.184,4.350
238.184,4.341
239.184,4.330
240.184,4.319
241.184,4.306
242.184,4.294
243.184,4.281
244.184,4.270
245.184,4.261
246.184,4.254
247.184,4.250
248.184,4.249
249.184,4.253
250.184,4.261
251.184,4.273
252.184,4.290
253.184,4.310
254.184,4.333
255.092,4.354
256.092,4.378
257.092,4.399
258.092,4.419
259.092,4.439
260.092,4.459
261.092,4.479
262.092,4.500
263.092,4.521
264.092,4.539
265.092,4.556
266.092,4.569
267.092,4.577
268.092,4.579
269.092,4.574
270.092,4.561
271.092,4.541
272.092,4.513
273.092,4.478
274.092,4.437
274.139,4.433
275.139,4.389
276.139,4.348
277.139,4.309
278.139,4.273
279.139,4.239
280.139,4.207
281.139,4.178
282.139,4.151
283.139,4.126
284.139,4.102
285.139,4.081
286.139,4.061
287.139,4.042
288.139,4.025
289.139,4.009
290.139,3.994
291.139,3.979
292.139,3.966
293.139,3.952
294.139,3.940
295.139,3.928
296.139,3.916
297.139,3.904
298.139,3.892
299.139,3.881
300.139,3.870
301.139,3.858
302.139,3.847
303.139,3.836
304.139,3.824
305.139,3.813
306.139,3.802
307.139,3.790
308.139,3.778
309.139,3.766
310.139,3.754
311.139,3.741
311.990,3.730
312.990,3.713
313.990,3.701
314.990,3.692
315.990,3.684
316.990,3.676
317.990,3.666
318.990,3.656
319.990,3.644
320.990,3.631
321.990,3.617
322.990,3.602
323.990,3.587
324.990,3.572
325.990,3.558
326.990,3.546
327.990,3.535
328.990,3.525
329.990,3.518
330.990,3.512
331.990,3.507
332.990,3.504
333.990,3.501
334.990,3.498
335.990,3.494
336.990,3.487
337.990,3.478
338.990,3.465
339.990,3.448
340.990,3.425
341.990,3.395
342.990,3.360
343.003,3.359
344.003,3.318
345.003,3.273
346.003,3.230
347.003,3.191
348.003,3.159
349.003,3.133
350.003,3.114
351.003,3.101
352.003,3.093
353.003,3.089
354.003,3.085
355.003,3.081
356.003,3.073
357.003,3.061
358.003,3.042
359.003,3.015
359.364,3.003
360.364,2.965
361.364,2.919
362.364,2.862
363.364,2.799
364.364,2.739
##END=
