##TITLE=5,6,8,9-tetrahydro-7H-pyrido[3,2-c]azepin-7-one
##JCAMP-DX=4.24
##DATA TYPE=UV/VIS SPECTRUM
##ORIGIN=INSTITUTE OF ENERGY PROBLEMS OF CHEMICAL PHYSICS, RAS
##OWNER=INEP CP RAS, NIST OSRD
Collection (C) 2007 copyright by the U.S. Secretary of Commerce
on behalf of the United States of America. All rights reserved.
##CAS REGISTRY NO=60796-79-4
##MOLFORM=C9H10N2O
##MP=163.5-166
##SOURCE REFERENCE=RAS UV No. 22139
##$NIST SQUIB=1978ZUK/63
##$NIST SOURCE=TYUGLMTE
##SPECTROMETER/DATA SYSTEM=SF-4A
##XUNITS=Wavelength (nm)
##YUNITS=Logarithm epsilon
##XFACTOR=1.0
##YFACTOR=1.0
##FIRSTX=220.131
##LASTX=288.231
##FIRSTY=3.817
##MAXX=288.231
##MINX=220.131
##MAXY=3.817
##MINY=2.758
##NPOINTS=86
##$REF AUTHOR=Zukauskaite, L.N.; et al.
##$REF JOURNAL=Khim. Geterosikl. Soedin.
##$REF PAGE=63
##$REF DATE=1978
##XYPOINTS=(XY..XY)
220.131,3.817
220.931,3.790
221.731,3.757
222.531,3.721
223.331,3.681
224.131,3.638
224.931,3.593
225.731,3.544
226.531,3.493
227.331,3.439
228.131,3.383
228.931,3.323
229.778,3.258
230.578,3.178
231.378,3.106
232.178,3.042
232.978,2.988
233.778,2.941
234.578,2.904
235.378,2.874
236.178,2.852
236.978,2.837
237.778,2.830
238.578,2.828
239.378,2.833
240.178,2.843
240.978,2.856
241.778,2.874
242.578,2.894
243.378,2.915
244.231,2.935
245.031,2.962
245.831,2.991
246.631,3.021
247.431,3.051
248.231,3.083
249.031,3.115
249.831,3.148
250.631,3.181
251.431,3.215
252.231,3.249
253.031,3.283
253.831,3.316
254.631,3.349
255.431,3.382
256.231,3.413
257.031,3.444
257.831,3.474
258.631,3.502
259.431,3.529
260.231,3.554
261.031,3.578
261.831,3.600
262.631,3.619
263.431,3.637
264.231,3.652
265.031,3.665
265.831,3.675
266.631,3.683
267.431,3.689
268.231,3.692
269.031,3.692
269.831,3.690
270.631,3.686
271.431,3.679
272.231,3.669
273.031,3.657
273.831,3.643
274.631,3.626
275.431,3.606
276.231,3.584
277.031,3.559
277.831,3.531
278.631,3.501
279.431,3.467
280.231,3.430
281.031,3.390
281.831,3.345
282.631,3.296
283.431,3.242
284.231,3.181
285.031,3.115
285.831,3.040
286.631,2.957
287.431,2.863
288.231,2.758
##END=
