##TITLE=3,9-dihydro-6,7-dimethyl-2-oxo-N-(phenylmethyl)oxazolo[4,5-b]quinoxaline-9a(2H)-carboxamide
##JCAMP-DX=4.24
##DATA TYPE=UV/VIS SPECTRUM
##ORIGIN=INSTITUTE OF ENERGY PROBLEMS OF CHEMICAL PHYSICS, RAS
##OWNER=INEP CP RAS, NIST OSRD
Collection (C) 2007 copyright by the U.S. Secretary of Commerce
on behalf of the United States of America. All rights reserved.
##CAS REGISTRY NO=60735-47-9
##MOLFORM=C19H18N4O3
##SOURCE REFERENCE=RAS UV No. 22756
##$NIST SQUIB=1976KOZ/HEM1276
##$NIST SOURCE=TYUGLMTE
##SPECTROMETER/DATA SYSTEM=Cary 14
##XUNITS=Wavelength (nm)
##YUNITS=Logarithm epsilon
##XFACTOR=1.0
##YFACTOR=1.0
##FIRSTX=282.39
##LASTX=431.774
##FIRSTY=3.078
##MAXX=431.774
##MINX=282.39
##MAXY=3.762
##MINY=2.172
##NPOINTS=152
##$REF AUTHOR=Koziol, J.; Hemmerich, P.
##$REF JOURNAL=Liebigs Ann. Chem.
##$REF PAGE=1276
##$REF DATE=1976
##XYPOINTS=(XY..XY)
282.390,3.078
283.390,3.063
284.390,3.061
285.390,3.068
286.390,3.083
287.390,3.103
288.390,3.127
289.390,3.153
290.390,3.180
291.390,3.208
292.390,3.235
293.390,3.262
294.390,3.288
295.390,3.313
296.390,3.337
297.390,3.360
298.390,3.383
299.390,3.404
300.390,3.425
301.390,3.446
302.390,3.466
303.390,3.486
304.390,3.506
305.390,3.526
306.390,3.546
307.390,3.566
308.390,3.585
309.390,3.604
310.390,3.622
311.390,3.639
312.390,3.654
313.346,3.664
314.346,3.678
315.346,3.690
316.346,3.700
317.346,3.708
318.346,3.716
319.346,3.722
320.346,3.727
321.346,3.732
322.346,3.736
323.346,3.740
324.346,3.743
325.346,3.746
326.346,3.749
327.346,3.751
328.346,3.753
329.346,3.755
330.346,3.757
331.346,3.759
332.346,3.760
333.346,3.761
334.346,3.762
335.346,3.762
336.346,3.762
337.346,3.762
338.346,3.760
339.346,3.759
340.346,3.756
341.346,3.753
342.346,3.749
343.346,3.745
344.346,3.739
345.346,3.733
346.346,3.726
347.346,3.718
348.346,3.709
349.346,3.700
349.695,3.697
350.695,3.687
351.695,3.678
352.695,3.672
353.695,3.667
354.695,3.664
355.695,3.661
356.695,3.660
357.695,3.660
358.695,3.660
359.695,3.661
360.695,3.663
361.695,3.665
362.695,3.668
363.695,3.671
364.695,3.673
365.695,3.676
366.695,3.679
367.695,3.682
368.695,3.685
369.695,3.688
370.695,3.691
371.695,3.693
372.695,3.695
373.695,3.697
374.695,3.698
375.695,3.699
376.695,3.700
377.695,3.700
378.695,3.699
379.695,3.698
380.695,3.697
381.695,3.694
382.695,3.691
383.695,3.688
384.695,3.684
385.695,3.679
386.695,3.673
387.695,3.667
388.695,3.659
389.695,3.651
390.695,3.642
391.695,3.633
392.695,3.622
393.695,3.611
394.695,3.599
395.695,3.586
396.695,3.572
397.695,3.558
398.695,3.543
399.695,3.527
400.349,3.523
401.349,3.500
402.349,3.478
403.349,3.456
404.349,3.433
405.349,3.410
406.349,3.385
407.349,3.358
408.349,3.329
409.349,3.298
410.349,3.264
411.349,3.228
412.349,3.190
413.349,3.149
414.349,3.106
415.349,3.061
416.349,3.014
417.349,2.966
418.349,2.917
419.349,2.866
420.349,2.814
421.349,2.761
422.349,2.708
423.349,2.655
424.349,2.600
425.349,2.546
426.349,2.491
427.349,2.434
428.349,2.377
429.349,2.319
430.349,2.259
431.349,2.196
431.774,2.172
##END=
