##TITLE=5,6,8,9-tetrahydro-2-methyl-7H-pyrido[3,2-c]azepin-6-one
##JCAMP-DX=4.24
##DATA TYPE=UV/VIS SPECTRUM
##ORIGIN=INSTITUTE OF ENERGY PROBLEMS OF CHEMICAL PHYSICS, RAS
##OWNER=INEP CP RAS, NIST OSRD
Collection (C) 2007 copyright by the U.S. Secretary of Commerce
on behalf of the United States of America. All rights reserved.
##CAS REGISTRY NO=60796-80-7
##MOLFORM=C10H12N2O
##MP=174.5-176
##SOURCE REFERENCE=RAS UV No. 22136
##$NIST SQUIB=1978ZUK/63
##$NIST SOURCE=TYUGLMTE
##SPECTROMETER/DATA SYSTEM=SF-4A
##XUNITS=Wavelength (nm)
##YUNITS=Logarithm epsilon
##XFACTOR=1.0
##YFACTOR=1.0
##FIRSTX=220.909
##LASTX=293.228
##FIRSTY=3.963
##MAXX=293.228
##MINX=220.909
##MAXY=3.965
##MINY=2.988
##NPOINTS=93
##$REF AUTHOR=Zukauskaite, L.N.; et al.
##$REF JOURNAL=Khim. Geterosikl. Soedin.
##$REF PAGE=63
##$REF DATE=1978
##XYPOINTS=(XY..XY)
220.909,3.963
221.709,3.962
222.509,3.962
223.309,3.964
224.109,3.965
224.909,3.965
225.709,3.963
226.509,3.959
227.309,3.954
228.109,3.946
228.909,3.935
229.709,3.923
230.509,3.909
230.650,3.907
231.450,3.893
232.250,3.876
233.050,3.855
233.850,3.832
234.650,3.805
235.450,3.775
236.250,3.743
237.050,3.708
237.850,3.672
238.650,3.634
239.450,3.595
240.250,3.554
241.050,3.513
241.850,3.471
242.650,3.428
243.450,3.386
244.250,3.344
244.917,3.305
245.717,3.274
246.517,3.248
247.317,3.224
248.117,3.204
248.917,3.191
249.717,3.186
250.517,3.193
251.317,3.213
252.117,3.249
252.788,3.280
253.490,3.322
254.290,3.360
255.090,3.401
255.890,3.443
256.690,3.485
257.490,3.527
258.290,3.568
259.090,3.608
259.890,3.647
260.690,3.683
261.490,3.716
262.290,3.746
263.090,3.774
263.890,3.798
264.690,3.819
265.490,3.837
266.290,3.851
267.090,3.862
267.890,3.870
268.690,3.874
269.490,3.876
270.290,3.874
271.090,3.870
271.890,3.863
272.690,3.853
273.490,3.841
274.290,3.828
275.090,3.812
275.890,3.794
276.690,3.775
277.490,3.755
278.290,3.733
279.090,3.710
279.890,3.686
280.690,3.661
281.490,3.634
282.290,3.607
283.090,3.579
283.890,3.549
284.690,3.518
285.490,3.485
286.290,3.450
287.090,3.413
287.890,3.373
288.690,3.329
289.490,3.282
290.290,3.231
291.090,3.174
291.890,3.112
292.690,3.042
293.228,2.988
##END=
