##TITLE=Phenol, 2,6-dibromo-
##JCAMP-DX=4.24
##DATA TYPE=UV/VIS SPECTRUM
##ORIGIN=INSTITUTE OF ENERGY PROBLEMS OF CHEMICAL PHYSICS, RAS
##OWNER=INEP CP RAS, NIST OSRD
Collection (C) 2007 copyright by the U.S. Secretary of Commerce
on behalf of the United States of America. All rights reserved.
##CAS REGISTRY NO=608-33-3
##MOLFORM=C6H4Br2O
##MP=56.5
##BP=255
##SOURCE REFERENCE=RAS UV No. 4000
##$NIST SQUIB=1967ASH/COR1558-1559
##$NIST SOURCE=TSGMTE
##SPECTROMETER/DATA SYSTEM=Cary 14
##XUNITS=Wavelength (nm)
##YUNITS=Logarithm epsilon
##XFACTOR=1.000000
##YFACTOR=1.000000
##FIRSTX=233.3867
##LASTX=286.9300
##FIRSTY=4.00015
##MAXX=286.93
##MINX=233.387
##MAXY=4.00375
##MINY=3.21576
##NPOINTS=1000
##$REF AUTHOR=Ashworth, R.B.; Cormier, M.J.
##$REF TITLE=Isolation of 2,6-dibromophenol from the marine hemichordate, balanoglossus biminiensis
##$REF JOURNAL=Science
##$REF VOLUME=155
##$REF PAGE=1558-1559
##$REF DATE=1967
##XYPOINTS=(XY..XY)
233.3867,4.000150
233.3867,4.003752
233.4813,3.999710
233.4813,3.996469
233.5655,3.996025
233.5655,3.992358
233.6496,3.991910
233.6496,3.986951
233.7442,3.982749
233.7442,3.986497
233.8283,3.977631
233.8283,3.982291
233.9125,3.972922
233.9125,3.977219
234.0071,3.969893
234.0071,3.972453
234.0912,3.964621
234.0912,3.969421
234.1753,3.961052
234.1753,3.964196
234.2595,3.956591
234.2595,3.960624
234.3541,3.950278
234.3541,3.956158
234.4382,3.946146
234.4382,3.949839
234.5223,3.945703
234.5223,3.941080
234.6170,3.940632
234.6170,3.936860
234.7011,3.932599
234.7011,3.936408
234.7852,3.932142
234.7852,3.927371
234.8799,3.923540
234.8799,3.926909
234.9640,3.918143
234.9640,3.923015
235.0481,3.914705
235.0481,3.917670
235.1427,3.909738
235.1427,3.914229
235.2269,3.909257
235.2269,3.904714
235.3110,3.901659
235.3110,3.904227
235.3951,3.898088
235.3951,3.901168
235.4897,3.897593
235.4897,3.893988
235.5739,3.890290
235.5739,3.893426
235.6580,3.889787
235.6580,3.885608
235.7526,3.885035
235.7526,3.882415
235.8367,3.878099
235.8367,3.882415
235.9209,3.873805
235.9209,3.877581
236.0155,3.868874
236.0155,3.873282
236.0996,3.868874
236.0996,3.864488
236.1837,3.858908
236.1837,3.863886
236.2784,3.858908
236.2784,3.855512
236.3625,3.849262
236.3625,3.854966
236.4466,3.845161
236.4466,3.848639
236.5307,3.844602
236.5307,3.841725
236.6254,3.835772
236.6254,3.841091
236.7095,3.830459
236.7095,3.835201
236.7936,3.825592
236.7936,3.830459
236.8883,3.818298
236.8883,3.825007
236.9724,3.812088
236.9724,3.817629
237.0565,3.808911
237.0565,3.811409
237.1511,3.808303
237.1511,3.803180
237.2353,3.800634
237.2353,3.802564
237.3194,3.794792
237.3194,3.800015
237.4035,3.794164
237.4035,3.790853
237.4981,3.785598
237.4981,3.790219
237.5823,3.780927
237.5823,3.784957
237.6664,3.777513
237.6664,3.780279
237.7610,3.773414
237.7610,3.776860
237.8451,3.767942
237.8451,3.772754
237.9293,3.763076
237.9293,3.767274
238.0239,3.760962
238.0239,3.762401
238.1080,3.760283
238.1080,3.755330
238.1921,3.753178
238.1921,3.754557
238.2868,3.747356
238.2868,3.752401
238.3709,3.746656
238.3709,3.743755
238.4550,3.739322
238.4550,3.742961
238.5391,3.734844
238.5391,3.738520
238.6338,3.731863
238.6338,3.734123
238.7179,3.728861
238.7179,3.731046
238.8020,3.724273
238.8020,3.728039
238.8967,3.721125
238.8967,3.723442
238.9808,3.720381
238.9808,3.717298
239.0649,3.716548
239.0649,3.712586
239.1595,3.710210
239.1595,3.711827
239.2437,3.709447
239.2437,3.705420
239.3278,3.704648
239.3278,3.702229
239.4224,3.699796
239.4224,3.701452
239.5065,3.694888
239.5065,3.699014
239.5907,3.690822
239.5907,3.694098
239.6748,3.689125
239.6748,3.690024
239.7694,3.683284
239.7694,3.688324
239.8535,3.681557
239.8535,3.682473
239.9377,3.680742
239.9377,3.677364
240.0323,3.673026
240.0323,3.676541
240.1164,3.672195
240.1164,3.670423
240.2005,3.666963
240.2005,3.669587
240.2952,3.662626
240.2952,3.666121
240.3793,3.661668
240.3793,3.659103
240.4634,3.657277
240.4634,3.658138
240.5475,3.656415
240.5475,3.652733
240.6422,3.649129
240.6422,3.651862
240.7263,3.647370
240.7263,3.648250
240.8104,3.642720
240.8104,3.646378
240.9051,3.639929
240.9051,3.641829
240.9892,3.636216
240.9892,3.639032
241.0733,3.631445
241.0733,3.636216
241.1679,3.628580
241.1679,3.630530
241.2521,3.627659
241.2521,3.625811
241.3362,3.620923
241.3362,3.625811
241.4308,3.618929
241.4308,3.619986
241.5149,3.617987
241.5149,3.615980
241.5991,3.611099
241.5991,3.615032
241.6832,3.608096
241.6832,3.610140
241.7778,3.608096
241.7778,3.606042
241.8619,3.605072
241.8619,3.604100
241.9461,3.602027
241.9461,3.603003
242.0407,3.601048
242.0407,3.597974
242.1248,3.596986
242.1248,3.592761
242.2089,3.591760
242.2089,3.589627
242.3036,3.587610
242.3036,3.588620
242.3877,3.586598
242.3877,3.583420
242.4718,3.579060
242.4718,3.582270
242.5665,3.579060
242.5665,3.574786
242.6506,3.574786
242.6506,3.572699
242.7347,3.569417
242.7347,3.571520
242.8188,3.566110
242.8188,3.569417
242.9135,3.563847
242.9135,3.566110
242.9976,3.560497
242.9976,3.562778
243.0817,3.559420
243.0817,3.557122
243.1763,3.556036
243.1763,3.552625
243.2605,3.549187
243.2605,3.551528
243.3446,3.545722
243.3446,3.548082
243.4392,3.543490
243.4392,3.545722
243.5233,3.542229
243.5233,3.538708
243.6075,3.536439
243.6075,3.537575
243.7021,3.532870
243.7021,3.535300
243.7862,3.528114
243.7862,3.531722
243.8703,3.525644
243.8703,3.528114
243.9545,3.523159
243.9545,3.524476
244.0491,3.521985
244.0491,3.519627
244.1332,3.515916
244.1332,3.519627
244.2173,3.515916
244.2173,3.513375
244.3120,3.509611
244.3120,3.512174
244.3961,3.507032
244.3961,3.509611
244.4802,3.505814
244.4802,3.504592
244.5749,3.503366
244.5749,3.499514
244.6590,3.496874
244.6590,3.498118
244.7431,3.492964
244.7431,3.495627
244.8272,3.489017
244.8272,3.491705
244.9219,3.487747
244.9219,3.489017
245.0060,3.486473
245.0060,3.482467
245.0901,3.479721
245.0901,3.482467
245.1847,3.476959
245.1847,3.479721
245.2689,3.475652
245.2689,3.474342
245.3530,3.473028
245.3530,3.470222
245.4476,3.470222
245.4476,3.467398
245.5317,3.463212
245.5317,3.466063
245.6159,3.460511
245.6159,3.461863
245.7105,3.456257
245.7105,3.458984
245.7946,3.453340
245.7946,3.454887
245.8787,3.451961
245.8787,3.450577
245.9629,3.446224
245.9629,3.449015
246.0575,3.443239
246.0575,3.444646
246.1416,3.440233
246.1416,3.443239
246.2257,3.437385
246.2257,3.440233
246.3204,3.434339
246.3204,3.435954
246.4045,3.431452
246.4045,3.434339
246.4886,3.429819
246.4886,3.426902
246.5833,3.425252
246.5833,3.423780
246.6674,3.423780
246.6674,3.420822
246.7515,3.416159
246.7515,3.420822
246.8461,3.414468
246.8461,3.416159
246.9303,3.412959
246.9303,3.411445
247.0144,3.409736
247.0144,3.411445
247.0985,3.404951
247.0985,3.408210
247.1931,3.403409
247.1931,3.404951
247.2773,3.400308
247.2773,3.401861
247.3614,3.398554
247.3614,3.400308
247.4560,3.393644
247.4560,3.396989
247.5401,3.390472
247.5401,3.392061
247.6243,3.387077
247.6243,3.390472
247.7189,3.383654
247.7189,3.387077
247.8030,3.380408
247.8030,3.383654
247.8871,3.380408
247.8871,3.378776
247.9713,3.375288
247.9713,3.376933
248.0659,3.373636
248.0659,3.371771
248.1500,3.370106
248.1500,3.371771
248.2341,3.368435
248.2341,3.364862
248.3288,3.361259
248.3288,3.363170
248.4970,3.357841
248.4970,3.356122
248.5917,3.352445
248.5917,3.354179
248.6758,3.348738
248.6758,3.352445
248.7599,3.348738
248.7599,3.346982
248.8545,3.343227
248.8545,3.346982
248.9387,3.341449
248.9387,3.343227
249.0228,3.337871
249.0228,3.339663
249.2015,3.334036
249.2015,3.332220
249.2857,3.328334
249.2857,3.330167
249.3698,3.324414
249.3698,3.326494
249.4644,3.322557
249.4644,3.324414
249.5485,3.318584
249.5485,3.320692
249.6327,3.316702
249.6327,3.318584
249.7273,3.312913
249.7273,3.314811
249.8114,3.310767
249.8114,3.312913
249.8955,3.306925
249.8955,3.310767
249.9902,3.304749
249.9902,3.306925
250.1584,3.298647
250.1584,3.300854
250.3372,3.292458
250.3372,3.294696
250.4213,3.290459
250.4213,3.292458
250.5054,3.288450
250.6001,3.286433
250.6001,3.288450
250.6842,3.282113
250.6842,3.284151
250.7683,3.282113
250.8629,3.277751
250.8629,3.280066
251.1258,3.271254
251.1258,3.269155
251.2099,3.267045
251.2099,3.269155
251.2941,3.267045
251.2941,3.264659
251.5569,3.258232
251.6411,3.255798
251.6411,3.258232
251.7357,3.255798
251.7357,3.253622
251.8198,3.253622
251.9986,3.248962
252.0827,3.248962
252.0827,3.246751
252.1668,3.246751
252.3456,3.242017
252.5138,3.242017
252.5138,3.239770
252.6926,3.237513
252.6926,3.239770
252.8713,3.237513
252.8713,3.235243
253.0396,3.232675
253.0396,3.235243
253.1342,3.232675
253.2183,3.230380
253.3025,3.230380
253.3866,3.228073
253.4812,3.228073
253.5653,3.225463
253.8282,3.225463
253.9123,3.223129
254.0911,3.220783
254.0911,3.223129
254.4381,3.220783
254.5222,3.218128
254.8797,3.218128
254.9639,3.215755
256.0995,3.218128
256.0995,3.215755
256.3624,3.218128
256.4465,3.220783
256.7094,3.220783
256.7935,3.223129
257.0564,3.223129
257.1510,3.225463
257.2351,3.225463
257.4139,3.230380
257.4980,3.230380
257.5821,3.232675
257.6663,3.232675
257.7609,3.235243
257.8450,3.235243
257.9291,3.237513
258.0238,3.239770
258.0238,3.237513
258.1079,3.239770
258.1920,3.242017
258.2867,3.242017
258.2867,3.244530
258.3708,3.246751
258.3708,3.244530
258.4549,3.246751
258.5495,3.248962
258.6337,3.251435
258.6337,3.248962
258.7178,3.253622
258.7178,3.251435
258.8019,3.255798
258.8019,3.253622
258.9807,3.258232
258.9807,3.255798
259.1594,3.262527
259.2435,3.262527
259.2435,3.264659
259.3277,3.267045
259.3277,3.264659
259.4223,3.271254
259.4223,3.269155
259.5064,3.273604
259.5064,3.271254
259.5905,3.273604
259.5905,3.275682
259.6747,3.277751
259.6747,3.275682
259.7693,3.280066
259.7693,3.277751
259.8534,3.284151
259.8534,3.282113
259.9375,3.286433
259.9375,3.284151
260.2004,3.296676
260.2004,3.292458
260.2951,3.300854
260.2951,3.296676
260.3792,3.302806
260.3792,3.300854
260.4633,3.304749
260.4633,3.302806
260.6421,3.310767
260.6421,3.308850
260.7262,3.312913
260.7262,3.314811
260.9049,3.320692
260.9049,3.318584
260.9891,3.322557
260.9891,3.320692
261.0732,3.326494
261.0732,3.324414
261.1678,3.330167
261.1678,3.326494
261.2519,3.332220
261.2519,3.330167
261.3361,3.334036
261.3361,3.335845
261.4307,3.335845
261.4307,3.337871
261.5148,3.341449
261.5148,3.339663
261.5989,3.343227
261.5989,3.345219
261.6936,3.346982
261.6936,3.345219
261.7777,3.350705
261.7777,3.348738
261.8618,3.352445
261.8618,3.350705
261.9459,3.354179
261.9459,3.356122
262.0406,3.357841
262.0406,3.359553
262.1247,3.363170
262.1247,3.361259
262.2088,3.366547
262.2088,3.363170
262.3034,3.368435
262.3034,3.370106
262.3876,3.370106
262.3876,3.371771
262.4717,3.375288
262.4717,3.373636
262.5663,3.376933
262.5663,3.378776
262.6505,3.378776
262.6505,3.382034
262.7346,3.385469
262.7346,3.382034
262.8187,3.385469
262.8187,3.387077
262.9133,3.390472
262.9133,3.388678
262.9975,3.393644
262.9975,3.390472
263.0816,3.393644
263.0816,3.395418
263.1762,3.398554
263.1762,3.396989
263.2603,3.401861
263.2603,3.400308
263.3445,3.403409
263.3445,3.404951
263.4391,3.409736
263.4391,3.406680
263.5232,3.412959
263.5232,3.409736
263.7020,3.416159
263.7861,3.416159
263.7861,3.423780
263.8702,3.426902
263.8702,3.425252
263.9543,3.429819
263.9543,3.428363
264.0490,3.432898
264.0490,3.429819
264.1331,3.432898
264.1331,3.435954
264.2172,3.435954
264.2172,3.438812
264.3118,3.443239
264.3118,3.440233
264.3960,3.447622
264.3960,3.443239
264.4801,3.447622
264.4801,3.450577
264.5747,3.453340
264.5747,3.450577
264.6588,3.456257
264.6588,3.454887
264.7430,3.461863
264.7430,3.457623
264.8376,3.461863
264.8376,3.464723
264.9217,3.467398
264.9217,3.464723
265.0059,3.471545
265.0059,3.467398
265.0900,3.474342
265.0900,3.471545
265.1846,3.478424
265.1846,3.474342
265.2687,3.482467
265.2687,3.478424
265.3529,3.485035
265.3529,3.482467
265.4475,3.485035
265.4475,3.489017
265.5316,3.490284
265.5316,3.489017
265.6157,3.494219
265.6157,3.491705
265.7104,3.495627
265.7104,3.499514
265.7945,3.503366
265.7945,3.500750
265.8786,3.505814
265.8786,3.504592
265.9732,3.507032
265.9732,3.509611
266.0574,3.514573
266.0574,3.510819
266.1415,3.514573
266.1415,3.518295
266.2256,3.523159
266.2256,3.519627
266.3202,3.525644
266.3202,3.523159
266.4044,3.529272
266.4044,3.526808
266.4885,3.532870
266.4885,3.530427
266.5831,3.537575
266.5831,3.534016
266.6672,3.538708
266.6672,3.539979
266.7514,3.542229
266.7514,3.541106
266.8460,3.543490
266.8460,3.546973
266.9301,3.548082
266.9301,3.551528
267.0143,3.556036
267.0143,3.552625
267.0984,3.560497
267.0984,3.557122
267.1930,3.563847
267.1930,3.561706
267.2771,3.563847
267.2771,3.568229
267.3613,3.571520
267.3613,3.569417
267.4559,3.572699
267.4559,3.573744
267.5400,3.574786
267.5400,3.576993
267.6241,3.578028
267.6241,3.583420
267.7188,3.585457
267.7188,3.583420
267.8870,3.589627
267.8870,3.587610
267.9816,3.593883
267.9816,3.590758
268.0658,3.596986
268.0658,3.594878
268.1499,3.600066
268.1499,3.596986
268.2340,3.603003
268.2340,3.600066
268.3286,3.607131
268.3286,3.604100
268.4128,3.612056
268.4128,3.607131
268.4969,3.613129
268.4969,3.617987
268.5915,3.617987
268.5915,3.620923
268.6756,3.621858
268.6756,3.624768
268.7598,3.625811
268.7598,3.628580
268.8544,3.632472
268.8544,3.629613
268.9385,3.634291
268.9385,3.632472
269.0226,3.637119
269.0226,3.635311
269.1173,3.639032
269.1173,3.637119
269.2014,3.641829
269.2014,3.639929
269.2855,3.641829
269.2855,3.643610
269.3697,3.644609
269.3697,3.643610
269.4643,3.645494
269.4643,3.648250
269.5484,3.650005
269.5484,3.648250
269.6325,3.650989
269.6325,3.651862
269.7272,3.655444
269.7272,3.652733
269.8113,3.658138
269.8113,3.656415
269.8954,3.660815
269.8954,3.659103
269.9900,3.661668
269.9900,3.662626
270.0742,3.665276
270.0742,3.663476
270.1583,3.666963
270.1583,3.666121
270.2424,3.670423
270.2424,3.667910
270.3370,3.672195
270.3370,3.670423
270.4212,3.673026
270.4212,3.674787
270.5053,3.678186
270.5053,3.675614
270.5999,3.680742
270.5999,3.679108
270.7682,3.682473
270.7682,3.684095
270.8628,3.688324
270.8628,3.685004
270.9469,3.689125
270.9469,3.690822
271.0310,3.693306
271.0310,3.691618
271.1257,3.695775
271.1257,3.694098
271.2098,3.696563
271.2098,3.698231
271.2939,3.699014
271.2939,3.701452
271.3780,3.702229
271.3780,3.701452
271.4727,3.703875
271.4727,3.703004
271.5568,3.704648
271.5568,3.707822
271.7356,3.710972
271.7356,3.709447
271.8197,3.710972
271.8197,3.711827
271.9038,3.718048
271.9038,3.712586
271.9984,3.719636
271.9984,3.718048
272.0826,3.720381
272.0826,3.722702
272.1667,3.723442
272.1667,3.728039
272.2613,3.728861
272.2613,3.731863
272.3454,3.732587
272.3454,3.734123
272.4296,3.739322
272.4296,3.734844
272.5137,3.740746
272.5137,3.739322
272.6083,3.744460
272.6083,3.741544
272.6924,3.745955
272.6924,3.745164
272.7766,3.748056
272.7766,3.746656
272.8712,3.752401
272.8712,3.748841
272.9553,3.754557
272.9553,3.752401
273.0394,3.755330
273.0394,3.756017
273.1341,3.756702
273.1341,3.760283
273.2182,3.762401
273.2182,3.760962
273.3023,3.765851
273.3023,3.763076
273.3970,3.766522
273.3970,3.769358
273.4811,3.772093
273.4811,3.770023
273.5652,3.772754
273.5652,3.774812
273.6493,3.778898
273.6493,3.775468
273.7440,3.779548
273.7440,3.782947
273.8281,3.785598
273.8281,3.783591
273.9122,3.789585
273.9122,3.786238
274.0068,3.792196
274.0068,3.789585
274.0910,3.792827
274.0910,3.795497
274.1751,3.796123
274.1751,3.798695
274.2697,3.799317
274.2697,3.801947
274.3538,3.805711
274.3538,3.802564
274.4380,3.809518
274.4380,3.806399
274.5221,3.812690
274.5221,3.810200
274.6167,3.816437
274.6167,3.813292
274.7008,3.824421
274.7008,3.817033
274.7850,3.825007
274.7850,3.827996
274.8796,3.829229
274.8796,3.828649
274.9637,3.829229
274.9637,3.832836
275.0478,3.834056
275.0478,3.832836
275.1425,3.835201
275.1425,3.834629
275.2266,3.840527
275.2266,3.835772
275.3107,3.842850
275.3107,3.841091
275.4054,3.843411
275.4054,3.845161
275.4895,3.847529
275.4895,3.845789
275.5736,3.848084
275.5736,3.850919
275.6577,3.851539
275.6577,3.852638
275.7524,3.853256
275.7524,3.854351
275.9206,3.857756
275.9206,3.855512
276.0152,3.858908
276.0152,3.857756
276.0994,3.859449
276.0994,3.858908
276.1835,3.859989
276.1835,3.860596
276.2781,3.862278
276.2781,3.861135
276.3622,3.862278
276.3622,3.863351
276.4464,3.863886
276.4464,3.863351
276.5410,3.865022
276.5410,3.864488
276.6251,3.865022
276.7092,3.865555
276.8880,3.865555
276.9721,3.866154
277.1509,3.865022
277.5820,3.865022
277.7608,3.863886
277.7608,3.862815
277.8449,3.862815
278.0236,3.861673
278.1078,3.861673
278.1078,3.861135
278.1919,3.861135
278.2865,3.860596
278.2865,3.859989
278.3706,3.859989
278.4548,3.859449
278.4548,3.858299
278.5494,3.858299
278.6335,3.857756
278.6335,3.857213
278.8018,3.855512
278.8018,3.856057
278.8964,3.854966
279.0646,3.854351
279.0646,3.854966
279.0646,3.855512
279.0646,3.856057
279.1593,3.852638
279.1593,3.854966
279.1593,3.856601
279.1593,3.854966
279.1593,3.853804
279.1593,3.855512
279.2434,3.852089
279.2434,3.852638
279.3275,3.850919
279.3275,3.855512
279.3275,3.854966
279.3275,3.851539
279.4222,3.849815
279.4222,3.850367
279.5063,3.849262
279.5063,3.849815
279.5904,3.849262
279.5904,3.848639
279.7692,3.847529
279.7692,3.846903
279.8533,3.846903
280.1162,3.845161
280.2003,3.845161
280.2949,3.844602
280.9048,3.845161
280.9048,3.844602
280.9889,3.845161
281.3359,3.847529
281.4306,3.847529
281.4306,3.848084
281.5147,3.848639
281.5147,3.848084
281.6934,3.850367
281.6934,3.849815
281.6934,3.854966
281.7776,3.851539
281.7776,3.854351
281.7776,3.855512
281.7776,3.854351
281.7776,3.850919
281.8617,3.851539
281.8617,3.855512
281.8617,3.852638
281.9458,3.854966
281.9458,3.852638
282.1246,3.855512
282.1246,3.854966
282.2087,3.856057
282.2087,3.856601
282.3033,3.857756
282.3033,3.857213
282.3874,3.857756
282.3874,3.858299
282.4716,3.858299
282.4716,3.859449
282.5662,3.859449
282.5662,3.859989
282.7344,3.861135
282.7344,3.861673
283.2602,3.865022
283.4390,3.865022
283.5231,3.865555
283.7860,3.865555
283.8701,3.865022
284.0488,3.865022
284.0488,3.864488
284.1330,3.864488
284.3958,3.861673
284.3958,3.862815
284.4800,3.861673
284.4800,3.860596
284.5746,3.858908
284.5746,3.859989
284.6587,3.857213
284.6587,3.858908
284.7428,3.855512
284.7428,3.856601
284.8375,3.853256
284.8375,3.855512
284.9216,3.852089
284.9216,3.853256
285.0057,3.849815
285.0057,3.851539
285.1004,3.849262
285.1004,3.848084
285.1845,3.847529
285.1845,3.845161
285.2686,3.845161
285.2686,3.841725
285.3527,3.841091
285.3527,3.837552
285.4474,3.834056
285.4474,3.837552
285.5315,3.834056
285.5315,3.829808
285.6156,3.829229
285.6156,3.824421
285.7102,3.821334
285.7102,3.823761
285.7944,3.816437
285.7944,3.820743
285.8785,3.815765
285.8785,3.813292
285.9731,3.808911
285.9731,3.812690
286.0572,3.805099
286.0572,3.808303
286.1414,3.804486
286.1414,3.798695
286.2255,3.795497
286.2255,3.798695
286.3201,3.794792
286.3201,3.790853
286.4042,3.790853
286.4042,3.784957
286.4884,3.780279
286.4884,3.784234
286.5830,3.775468
286.5830,3.779548
286.6671,3.771432
286.6671,3.774812
286.7512,3.767274
286.7512,3.770686
286.8459,3.760962
286.8459,3.766522
286.9300,3.757387
286.9300,3.760283
##END=
