##TITLE=beta-chloro-alpha-(phenylthio)benzenepropanoic acid
##JCAMP-DX=4.24
##DATA TYPE=UV/VIS SPECTRUM
##ORIGIN=INSTITUTE OF ENERGY PROBLEMS OF CHEMICAL PHYSICS, RAS
##OWNER=INEP CP RAS, NIST OSRD
Collection (C) 2007 copyright by the U.S. Secretary of Commerce
on behalf of the United States of America. All rights reserved.
##CAS REGISTRY NO=60805-23-4
##MOLFORM=C15H12O2S
##MP=143-144
##SOURCE REFERENCE=RAS UV No. 23325
##$NIST SQUIB=1976RAS/153
##$NIST SOURCE=TYUGLMTE
##SPECTROMETER/DATA SYSTEM=SF-4A
##XUNITS=Wavelength (nm)
##YUNITS=Logarithm epsilon
##XFACTOR=1.0
##YFACTOR=1.0
##FIRSTX=225.357
##LASTX=344.612
##FIRSTY=4.058
##MAXX=344.612
##MINX=225.357
##MAXY=4.212
##MINY=3.605
##NPOINTS=122
##$REF AUTHOR=Rasteikiene, L.M.; et al.
##$REF JOURNAL=Zhur. Organ. Khim.
##$REF VOLUME=12
##$REF PAGE=153
##$REF DATE=1976
##XYPOINTS=(XY..XY)
225.357,4.058
226.357,4.034
227.357,4.015
228.357,4.000
229.357,3.987
230.357,3.978
231.357,3.971
232.357,3.967
233.357,3.965
234.357,3.964
235.357,3.965
236.357,3.967
237.357,3.971
238.357,3.976
239.357,3.981
240.357,3.988
241.357,3.995
242.357,4.004
243.357,4.014
244.357,4.024
245.357,4.036
246.357,4.049
247.357,4.064
248.357,4.081
249.357,4.099
250.357,4.120
251.357,4.143
251.628,4.152
252.628,4.175
253.628,4.192
254.628,4.202
255.628,4.208
256.628,4.211
257.628,4.212
258.628,4.211
259.628,4.210
260.628,4.208
261.628,4.206
262.628,4.204
263.628,4.203
264.628,4.202
265.628,4.201
266.628,4.201
267.628,4.201
268.628,4.201
269.628,4.201
270.628,4.201
270.751,4.201
271.751,4.200
272.751,4.200
273.751,4.200
274.751,4.199
275.751,4.197
276.751,4.194
277.751,4.190
278.671,4.183
279.671,4.177
280.671,4.170
281.671,4.163
282.671,4.155
283.671,4.147
284.671,4.138
285.671,4.128
286.671,4.118
287.671,4.108
288.671,4.097
289.671,4.086
290.671,4.075
291.671,4.063
292.671,4.051
293.671,4.039
294.671,4.026
295.671,4.014
296.671,4.001
297.671,3.988
298.671,3.975
299.671,3.962
300.671,3.949
301.505,3.939
302.505,3.926
303.505,3.913
304.505,3.900
305.505,3.888
306.505,3.875
307.505,3.862
308.505,3.851
309.505,3.840
310.505,3.831
311.505,3.822
312.505,3.813
313.505,3.800
314.612,3.788
315.612,3.778
316.612,3.769
317.612,3.761
318.612,3.754
319.612,3.749
320.612,3.744
321.612,3.740
322.612,3.736
323.612,3.733
324.612,3.730
325.612,3.727
326.612,3.723
327.612,3.720
328.612,3.715
329.612,3.711
330.612,3.706
331.612,3.700
332.612,3.693
333.612,3.687
334.612,3.680
335.612,3.672
336.612,3.665
337.612,3.658
338.612,3.650
339.612,3.643
340.612,3.636
341.612,3.629
342.612,3.622
343.612,3.614
344.612,3.605
##END=
