##TITLE=Antipyrine
##JCAMP-DX=4.24
##DATA TYPE=UV/VIS SPECTRUM
##ORIGIN=INSTITUTE OF ENERGY PROBLEMS OF CHEMICAL PHYSICS, RAS
##OWNER=INEP CP RAS, NIST OSRD
Collection (C) 2007 copyright by the U.S. Secretary of Commerce
on behalf of the United States of America. All rights reserved.
##CAS REGISTRY NO=60-80-0
##MOLFORM=C11H12N2O
##MP=114
##BP=319
##SOURCE REFERENCE=RAS UV No. 9911
##$NIST SQUIB=1949BRO/2812
##$NIST SOURCE=TYUGLMTE
##SPECTROMETER/DATA SYSTEM=Hilger medium spectrophotometer and Beckman DU
##XUNITS=Wavelength (nm)
##YUNITS=Logarithm epsilon
##XFACTOR=1.0
##YFACTOR=1.0
##FIRSTX=218.16
##LASTX=289.8
##FIRSTY=3.9
##MAXX=289.8
##MINX=218.16
##MAXY=3.974
##MINY=3.234
##NPOINTS=107
##$REF AUTHOR=Brown, R.D.; et al.
##$REF JOURNAL=J. Chem. Soc.
##$REF PAGE=2812
##$REF DATE=1949
##XYPOINTS=(XY..XY)
218.16,3.900
218.41,3.901
218.66,3.901
218.91,3.903
219.15,3.903
219.40,3.904
219.65,3.904
219.90,3.906
220.15,3.908
220.40,3.908
220.65,3.909
220.90,3.909
221.14,3.911
221.33,3.912
221.64,3.913
221.85,3.913
222.60,3.912
223.38,3.911
224.09,3.910
224.84,3.909
225.62,3.908
226.34,3.907
227.09,3.906
227.84,3.905
228.61,3.904
229.37,3.904
230.05,3.903
230.87,3.903
231.54,3.903
232.34,3.904
233.08,3.906
233.83,3.909
234.58,3.914
235.32,3.921
236.07,3.928
236.82,3.934
237.56,3.939
238.31,3.946
239.05,3.949
239.80,3.954
240.55,3.959
241.29,3.962
242.04,3.965
242.79,3.969
243.53,3.972
244.28,3.974
245.02,3.972
245.77,3.967
246.52,3.960
247.26,3.947
248.01,3.939
248.76,3.924
249.50,3.914
250.25,3.904
251.00,3.900
251.74,3.895
252.49,3.891
253.23,3.890
253.98,3.890
254.73,3.891
255.47,3.895
256.16,3.898
256.89,3.902
257.71,3.908
258.46,3.914
259.20,3.921
259.95,3.929
260.65,3.937
261.44,3.944
262.19,3.951
262.94,3.956
263.68,3.960
264.43,3.964
265.17,3.965
265.92,3.967
266.67,3.969
267.40,3.969
268.17,3.971
268.91,3.972
269.65,3.972
270.40,3.970
271.14,3.967
271.89,3.964
272.64,3.957
273.38,3.947
274.13,3.937
274.88,3.924
275.61,3.910
276.34,3.894
277.11,3.875
277.62,3.862
278.45,3.839
279.35,3.809
280.10,3.786
280.85,3.761
281.59,3.733
282.34,3.710
283.08,3.684
283.83,3.652
284.58,3.623
285.32,3.578
286.07,3.534
286.82,3.468
287.56,3.423
288.31,3.362
289.05,3.303
289.80,3.234
##END=
