##TITLE=trans-3,4-dihydroxy-3,4-dihydrobenzo[a]anthracene
##JCAMP-DX=4.24
##DATA TYPE=UV/VIS SPECTRUM
##ORIGIN=INSTITUTE OF ENERGY PROBLEMS OF CHEMICAL PHYSICS, RAS
##OWNER=INEP CP RAS, NIST OSRD
Collection (C) 2007 copyright by the U.S. Secretary of Commerce
on behalf of the United States of America. All rights reserved.
##CAS REGISTRY NO=60967-89-7
##MOLFORM=C18H14O2
##MP=215-217
##SOURCE REFERENCE=RAS UV No. 22458
##$NIST SQUIB=1977LEH/736
##$NIST SOURCE=TYUGLMTE
##SPECTROMETER/DATA SYSTEM=Cary 14
##XUNITS=Wavelength (nm)
##YUNITS=Logarithm epsilon
##XFACTOR=1.0
##YFACTOR=1.0
##FIRSTX=218.216
##LASTX=410.858
##FIRSTY=4.258
##MAXX=410.858
##MINX=218.216
##MAXY=5.017
##MINY=2.847
##NPOINTS=132
##$REF AUTHOR=Lehr, R.E.; et al.
##$REF JOURNAL=J. Org. Chem.
##$REF VOLUME=42
##$REF PAGE=736
##$REF DATE=1977
##XYPOINTS=(XY..XY)
218.216,4.258
218.520,4.255
220.020,4.232
221.520,4.217
223.020,4.206
224.520,4.199
226.020,4.195
227.520,4.195
229.020,4.199
230.520,4.208
232.020,4.224
236.734,4.315
238.234,4.348
239.734,4.382
241.234,4.419
242.734,4.459
244.234,4.501
245.734,4.545
247.234,4.592
248.734,4.641
250.234,4.693
251.734,4.748
253.234,4.805
254.874,4.860
256.466,4.913
257.680,4.946
258.287,4.972
259.198,4.998
260.412,5.017
261.930,4.991
262.841,4.929
264.341,4.796
265.841,4.638
267.341,4.492
268.841,4.376
270.341,4.299
271.841,4.258
273.341,4.243
274.841,4.243
277.412,4.237
278.912,4.240
280.412,4.238
281.912,4.231
283.412,4.222
284.912,4.210
286.412,4.196
287.912,4.177
289.412,4.154
290.912,4.122
292.412,4.081
293.912,4.029
295.412,3.964
296.912,3.885
298.412,3.796
299.876,3.701
301.376,3.599
302.876,3.540
304.376,3.486
305.876,3.410
307.376,3.297
308.876,3.140
310.349,2.981
311.167,2.939
312.356,2.869
314.363,2.857
315.948,2.854
317.448,2.849
318.948,2.848
320.448,2.849
321.948,2.850
323.448,2.850
324.948,2.849
326.448,2.847
327.330,2.852
328.394,2.865
329.894,2.885
331.394,2.922
332.894,2.980
334.394,3.055
335.894,3.140
337.394,3.224
338.894,3.298
340.394,3.354
341.894,3.390
343.572,3.433
345.072,3.451
346.572,3.426
348.427,3.377
349.927,3.342
351.427,3.332
352.927,3.352
354.427,3.391
355.927,3.429
356.941,3.450
359.072,3.549
359.859,3.586
362.072,3.636
363.572,3.641
364.786,3.605
365.710,3.563
367.210,3.498
368.710,3.453
370.210,3.429
371.710,3.425
373.210,3.441
374.710,3.478
376.558,3.517
377.893,3.552
379.393,3.590
380.893,3.638
382.393,3.688
384.268,3.702
385.266,3.668
385.900,3.650
386.367,3.626
387.000,3.598
388.500,3.529
390.000,3.462
391.500,3.406
393.000,3.369
394.500,3.357
396.000,3.371
397.500,3.410
399.000,3.466
400.358,3.517
401.858,3.582
403.358,3.626
404.858,3.647
406.358,3.646
407.858,3.622
409.358,3.574
410.858,3.501
##END=
