##TITLE=8-nitro-2-phenylindolizine
##JCAMP-DX=4.24
##DATA TYPE=UV/VIS SPECTRUM
##ORIGIN=INSTITUTE OF ENERGY PROBLEMS OF CHEMICAL PHYSICS, RAS
##OWNER=INEP CP RAS, NIST OSRD
Collection (C) 2007 copyright by the U.S. Secretary of Commerce
on behalf of the United States of America. All rights reserved.
##CAS REGISTRY NO=60917-52-4
##MOLFORM=C14H10N2O2
##MP=172-173
##SOURCE REFERENCE=RAS UV No. 23229
##$NIST SQUIB=1976KOS/922
##$NIST SOURCE=TYUGLMTE
##SPECTROMETER/DATA SYSTEM=Cary 15
##XUNITS=Wavelength (nm)
##YUNITS=Logarithm epsilon
##XFACTOR=1.0
##YFACTOR=1.0
##FIRSTX=215.353
##LASTX=540.831
##FIRSTY=4.48
##MAXX=540.831
##MINX=215.353
##MAXY=4.613
##MINY=2.974
##NPOINTS=329
##$REF AUTHOR=Kost, A.N.; et al.
##$REF JOURNAL=Khim. Geterosikl. Soedin.
##$REF PAGE=922
##$REF DATE=1976
##XYPOINTS=(XY..XY)
215.353,4.480
216.353,4.454
217.353,4.435
218.353,4.423
219.353,4.415
220.353,4.412
221.353,4.412
222.353,4.415
223.353,4.420
224.353,4.427
225.353,4.435
226.353,4.444
227.353,4.453
228.353,4.463
229.353,4.474
230.353,4.484
231.353,4.494
232.353,4.505
233.353,4.515
234.353,4.525
235.353,4.534
236.353,4.544
237.353,4.553
238.353,4.561
239.353,4.569
240.353,4.577
241.353,4.584
242.353,4.590
243.353,4.596
244.353,4.601
245.353,4.606
246.353,4.609
247.353,4.612
248.353,4.613
249.353,4.613
250.353,4.612
251.353,4.610
252.353,4.607
253.353,4.602
254.353,4.596
255.353,4.589
256.353,4.580
257.353,4.571
258.353,4.559
259.353,4.547
260.353,4.534
261.353,4.520
262.353,4.505
263.353,4.489
264.353,4.474
265.353,4.458
265.465,4.455
266.465,4.444
267.465,4.430
268.465,4.414
269.465,4.396
270.465,4.378
271.465,4.359
272.465,4.340
273.465,4.320
274.465,4.301
275.465,4.280
276.465,4.259
277.465,4.237
278.465,4.214
279.465,4.189
280.465,4.163
281.465,4.134
282.465,4.103
283.465,4.069
284.465,4.032
285.465,3.992
286.465,3.950
287.465,3.905
288.465,3.857
289.465,3.807
290.465,3.755
291.465,3.702
292.465,3.650
293.465,3.598
294.465,3.549
295.465,3.505
296.343,3.462
297.343,3.445
298.343,3.425
299.343,3.405
300.343,3.384
301.343,3.363
302.343,3.344
303.343,3.327
304.343,3.311
305.343,3.298
306.343,3.286
307.343,3.276
308.343,3.268
309.343,3.261
310.343,3.255
311.343,3.251
312.343,3.247
313.343,3.245
314.343,3.243
315.343,3.242
316.343,3.242
317.343,3.243
318.343,3.245
319.343,3.248
320.343,3.253
321.343,3.260
322.343,3.269
323.343,3.281
324.343,3.295
325.343,3.312
326.343,3.332
327.343,3.355
328.343,3.379
329.343,3.406
330.343,3.433
331.343,3.460
332.282,3.487
333.282,3.499
334.282,3.512
335.282,3.524
336.282,3.537
337.282,3.549
338.282,3.562
339.282,3.574
340.282,3.586
341.282,3.598
342.282,3.610
343.282,3.622
344.282,3.634
345.282,3.646
346.282,3.657
347.282,3.668
348.282,3.679
349.282,3.690
350.282,3.700
351.282,3.711
352.282,3.721
353.282,3.730
354.282,3.740
355.282,3.749
356.282,3.758
357.282,3.766
358.282,3.774
359.282,3.782
360.282,3.789
361.282,3.796
362.282,3.803
363.282,3.809
364.282,3.815
365.282,3.820
366.282,3.825
367.282,3.829
368.282,3.834
369.282,3.837
370.282,3.840
371.282,3.843
372.282,3.845
373.282,3.847
374.282,3.848
375.282,3.849
376.282,3.850
377.282,3.850
378.282,3.849
379.282,3.848
380.282,3.846
381.282,3.844
382.282,3.842
383.282,3.839
384.282,3.835
385.282,3.831
386.282,3.827
387.282,3.822
388.282,3.816
389.282,3.810
390.282,3.804
391.000,3.797
392.000,3.791
393.000,3.784
394.000,3.777
395.000,3.769
396.000,3.761
397.000,3.752
398.000,3.743
399.000,3.734
400.000,3.724
401.000,3.715
402.000,3.705
403.000,3.695
404.000,3.684
405.000,3.674
406.000,3.664
407.000,3.654
408.000,3.644
409.000,3.634
410.000,3.624
411.000,3.614
412.000,3.604
413.000,3.595
414.000,3.585
415.000,3.576
416.000,3.568
417.000,3.559
418.000,3.551
419.000,3.543
420.000,3.535
421.000,3.528
422.000,3.521
423.000,3.514
424.000,3.507
425.000,3.501
426.000,3.495
427.000,3.490
428.000,3.485
429.000,3.480
430.000,3.475
431.000,3.471
432.000,3.467
433.000,3.464
434.000,3.461
435.000,3.458
436.000,3.455
437.000,3.453
438.000,3.451
439.000,3.449
440.000,3.447
441.000,3.446
442.000,3.445
443.000,3.444
444.000,3.443
445.000,3.443
446.000,3.442
447.000,3.442
448.000,3.442
449.000,3.442
450.000,3.442
451.000,3.442
452.000,3.443
453.000,3.443
454.000,3.444
455.000,3.444
456.000,3.445
457.000,3.445
458.000,3.446
459.000,3.446
460.000,3.447
461.000,3.447
462.000,3.447
463.000,3.447
464.000,3.448
465.000,3.448
466.000,3.448
467.000,3.447
468.000,3.447
469.000,3.446
470.000,3.446
471.000,3.445
472.000,3.444
473.000,3.443
474.000,3.442
475.000,3.440
476.000,3.438
477.000,3.437
478.000,3.435
479.000,3.432
480.000,3.430
481.000,3.428
482.000,3.425
483.000,3.423
484.000,3.420
485.000,3.417
486.000,3.414
486.159,3.411
487.159,3.410
488.159,3.409
489.159,3.407
490.159,3.405
491.159,3.402
492.159,3.398
493.159,3.394
494.159,3.389
495.159,3.384
496.159,3.379
497.159,3.373
498.159,3.367
499.159,3.361
500.159,3.354
501.159,3.347
502.159,3.340
503.159,3.332
504.159,3.325
505.159,3.317
506.159,3.309
507.159,3.301
508.159,3.293
509.159,3.284
510.159,3.276
511.159,3.267
512.159,3.259
513.159,3.250
514.159,3.241
515.159,3.233
516.159,3.224
517.159,3.215
518.159,3.206
519.159,3.197
520.159,3.188
521.159,3.179
522.159,3.170
523.159,3.161
524.159,3.152
525.159,3.142
526.159,3.133
527.159,3.123
528.159,3.114
529.159,3.104
530.159,3.094
531.159,3.084
532.159,3.074
533.159,3.064
534.159,3.053
535.159,3.042
536.159,3.031
537.159,3.020
538.159,3.008
539.159,2.996
540.159,2.984
540.831,2.974
##END=
