##TITLE=Diethazine
##JCAMP-DX=4.24
##DATA TYPE=UV/VIS SPECTRUM
##ORIGIN=INSTITUTE OF ENERGY PROBLEMS OF CHEMICAL PHYSICS, RAS
##OWNER=INEP CP RAS, NIST OSRD
Collection (C) 2007 copyright by the U.S. Secretary of Commerce
on behalf of the United States of America. All rights reserved.
##CAS REGISTRY NO=60-91-3
##MOLFORM=C18H22N2S
##MP=185-187
##SOURCE REFERENCE=RAS UV No. 19648
##$NIST SQUIB=1965LAN373
##$NIST SOURCE=TYUGLMTE
##SPECTROMETER/DATA SYSTEM=Hilder Uvispek
##XUNITS=Wavelength (nm)
##YUNITS=Logarithm epsilon
##XFACTOR=1.0
##YFACTOR=1.0
##FIRSTX=208.44
##LASTX=360
##FIRSTY=4.384
##MAXX=360
##MINX=208.44
##MAXY=4.493
##MINY=1.305
##NPOINTS=186
##$REF AUTHOR=Lang (editor), L.
##$REF JOURNAL=Absorption Spectra in the Ultraviolet and Visible Region
##$REF VOLUME=5
##$REF PAGE=373
##$REF DATE=1965
##XYPOINTS=(XY..XY)
208.44,4.384
209.62,4.363
210.43,4.342
211.48,4.315
212.32,4.291
213.16,4.267
214.01,4.243
214.85,4.216
215.62,4.190
216.37,4.164
217.05,4.137
217.89,4.110
218.73,4.082
219.58,4.058
220.76,4.038
222.28,4.031
223.80,4.038
225.15,4.055
226.16,4.075
227.17,4.096
228.35,4.116
229.37,4.140
230.38,4.161
231.56,4.182
232.74,4.202
233.92,4.223
235.11,4.243
236.29,4.260
237.47,4.277
238.65,4.295
239.83,4.312
241.01,4.332
242.03,4.353
243.04,4.373
244.22,4.394
245.40,4.414
246.24,4.438
247.43,4.459
248.61,4.476
249.96,4.490
251.48,4.493
253.00,4.483
254.01,4.459
255.02,4.435
255.86,4.408
256.54,4.380
257.22,4.353
257.72,4.325
258.23,4.298
258.57,4.267
259.07,4.240
259.41,4.209
259.92,4.178
260.08,4.147
260.42,4.116
260.76,4.086
261.10,4.055
261.27,4.024
261.60,3.993
261.94,3.962
262.28,3.932
262.62,3.901
262.95,3.870
263.29,3.839
263.80,3.812
264.14,3.781
264.47,3.750
264.81,3.719
265.32,3.692
265.65,3.661
265.99,3.630
266.50,3.599
267.00,3.572
267.34,3.541
267.68,3.510
268.08,3.483
268.52,3.452
269.09,3.421
269.70,3.394
270.26,3.365
270.89,3.336
271.39,3.308
271.90,3.281
272.57,3.253
273.42,3.226
274.94,3.219
276.46,3.226
277.81,3.240
278.99,3.257
280.17,3.277
281.35,3.298
282.19,3.322
283.21,3.342
284.22,3.366
285.23,3.390
286.41,3.411
287.59,3.432
288.61,3.452
289.79,3.469
290.97,3.486
292.32,3.503
293.67,3.514
295.02,3.527
296.37,3.541
297.89,3.548
299.41,3.555
300.93,3.555
302.45,3.555
303.97,3.548
305.49,3.545
307.00,3.538
308.35,3.524
309.70,3.510
311.05,3.493
312.24,3.476
313.25,3.455
314.26,3.435
315.27,3.411
316.29,3.390
317.13,3.366
318.14,3.346
319.16,3.322
320.00,3.295
320.84,3.271
321.69,3.243
322.53,3.219
323.38,3.195
324.22,3.171
325.06,3.147
325.91,3.120
326.75,3.092
327.43,3.065
328.27,3.038
329.11,3.010
329.79,2.983
330.46,2.955
331.31,2.928
331.98,2.901
332.83,2.877
333.33,2.849
334.18,2.822
334.85,2.795
335.53,2.767
336.20,2.740
336.88,2.712
337.72,2.685
338.23,2.658
339.07,2.630
339.58,2.603
340.25,2.575
340.76,2.548
341.27,2.521
341.94,2.493
342.45,2.466
343.12,2.438
343.63,2.411
344.30,2.384
344.81,2.356
345.49,2.329
345.99,2.301
346.67,2.274
347.17,2.247
347.68,2.219
348.35,2.192
348.86,2.164
349.37,2.137
349.87,2.106
350.38,2.079
350.89,2.051
351.39,2.024
351.90,1.997
352.24,1.966
352.74,1.938
353.25,1.911
353.59,1.880
354.09,1.849
354.43,1.818
354.82,1.791
355.54,1.738
356.44,1.674
357.02,1.619
357.97,1.524
358.48,1.476
358.99,1.421
359.49,1.370
360.00,1.305
##END=
