##TITLE=3-(methylthio)pyrido[2,3-e]-1,2,4-triazine
##JCAMP-DX=4.24
##DATA TYPE=UV/VIS SPECTRUM
##ORIGIN=INSTITUTE OF ENERGY PROBLEMS OF CHEMICAL PHYSICS, RAS
##OWNER=INEP CP RAS, NIST OSRD
Collection (C) 2007 copyright by the U.S. Secretary of Commerce
on behalf of the United States of America. All rights reserved.
##CAS REGISTRY NO=61006-76-6
##MOLFORM=C7H6N4S
##MP=160-161
##SOURCE REFERENCE=RAS UV No. 23236
##$NIST SQUIB=1976POS/1140
##$NIST SOURCE=TYUGLMTE
##SPECTROMETER/DATA SYSTEM=Specord UV-Vis
##XUNITS=Wavelength (nm)
##YUNITS=Logarithm epsilon
##XFACTOR=1.0
##YFACTOR=1.0
##FIRSTX=239.492
##LASTX=435.382
##FIRSTY=4.055
##MAXX=435.382
##MINX=239.492
##MAXY=4.4
##MINY=3.518
##NPOINTS=95
##$REF AUTHOR=Postovskii, I.Ya.; et al.
##$REF JOURNAL=Khim. Geterosikl. Soedin.
##$REF PAGE=1140
##$REF DATE=1976
##XYPOINTS=(XY..XY)
239.492,4.055
240.572,4.087
241.508,4.127
241.820,4.156
242.415,4.188
243.067,4.225
244.003,4.257
244.627,4.289
245.339,4.311
246.187,4.339
247.434,4.366
248.263,4.382
249.306,4.393
250.554,4.400
251.801,4.390
253.361,4.368
254.921,4.339
256.168,4.311
257.416,4.284
258.519,4.259
260.079,4.238
262.574,4.227
264.574,4.221
266.574,4.212
268.574,4.199
270.574,4.182
272.574,4.162
274.574,4.137
276.574,4.109
278.574,4.078
280.574,4.044
282.574,4.008
284.574,3.970
286.574,3.933
288.574,3.897
290.574,3.863
292.574,3.831
294.391,3.804
296.391,3.783
298.391,3.760
300.391,3.736
302.391,3.712
304.391,3.690
306.391,3.669
308.391,3.651
310.391,3.636
312.391,3.623
314.391,3.613
316.391,3.605
318.391,3.600
320.391,3.596
322.391,3.594
324.391,3.594
326.391,3.594
328.391,3.595
330.391,3.597
332.391,3.600
334.391,3.604
336.391,3.608
338.391,3.613
340.391,3.618
342.391,3.624
344.391,3.631
346.391,3.639
348.391,3.648
350.391,3.658
352.391,3.667
354.391,3.677
356.391,3.686
358.391,3.692
360.831,3.702
362.289,3.707
365.212,3.722
368.136,3.733
371.060,3.748
373.984,3.758
376.907,3.769
379.831,3.779
382.755,3.789
385.679,3.789
388.602,3.784
391.526,3.774
394.450,3.763
397.374,3.743
400.297,3.717
403.221,3.676
406.145,3.646
409.068,3.620
411.992,3.595
414.916,3.579
417.840,3.564
421.969,3.543
426.611,3.528
430.391,3.520
435.382,3.518
##END=
