##TITLE=Benzoic acid, 2,5-dimethyl-
##JCAMP-DX=4.24
##DATA TYPE=UV/VIS SPECTRUM
##ORIGIN=INSTITUTE OF ENERGY PROBLEMS OF CHEMICAL PHYSICS, RAS
##OWNER=INEP CP RAS, NIST OSRD
Collection (C) 2007 copyright by the U.S. Secretary of Commerce
on behalf of the United States of America. All rights reserved.
##CAS REGISTRY NO=610-72-0
##MOLFORM=C9H10O2
##MP=133-133.5
##SOURCE REFERENCE=RAS UV No. 19667
##$NIST SQUIB=1966OSSd9/10
##$NIST SOURCE=TYUGLMTE
##SPECTROMETER/DATA SYSTEM=Beckman DU
##XUNITS=Wavelength (nm)
##YUNITS=Logarithm epsilon
##XFACTOR=1.0
##YFACTOR=1.0
##FIRSTX=209.65
##LASTX=308.96
##FIRSTY=4.248
##MAXX=308.96
##MINX=209.65
##MAXY=4.248
##MINY=1.351
##NPOINTS=165
##$REF AUTHOR=Ossorio, R.P.
##$REF JOURNAL=UV atlas of organic compounds
##$REF VOLUME=1
##$REF PAGE=D9/10
##$REF DATE=1966
##$REF PUBLISHER=Plenum Press
##$REF LOCATION=New York
##XYPOINTS=(XY..XY)
209.65,4.248
209.75,4.245
209.84,4.243
209.94,4.241
210.03,4.239
210.12,4.237
210.22,4.235
210.31,4.233
210.41,4.228
210.88,4.209
211.36,4.188
211.84,4.169
212.32,4.150
212.80,4.128
213.28,4.111
213.77,4.096
214.26,4.075
214.75,4.056
215.24,4.043
215.74,4.026
216.24,4.013
216.74,4.000
217.24,3.985
217.75,3.973
218.25,3.960
218.76,3.947
219.27,3.934
219.79,3.922
220.31,3.911
220.83,3.900
221.35,3.890
221.87,3.881
222.40,3.872
222.93,3.864
223.46,3.855
223.99,3.847
224.53,3.838
225.07,3.832
225.61,3.826
226.16,3.817
226.70,3.813
227.25,3.809
227.81,3.806
228.36,3.806
228.92,3.809
229.48,3.809
230.05,3.806
230.61,3.804
231.18,3.802
231.75,3.796
232.33,3.794
232.91,3.789
233.49,3.785
234.07,3.779
234.66,3.770
235.24,3.762
235.84,3.753
236.43,3.747
237.03,3.738
237.63,3.723
238.24,3.710
238.84,3.696
239.45,3.679
240.07,3.657
240.69,3.630
241.31,3.600
241.93,3.568
242.56,3.538
243.18,3.502
243.82,3.457
244.45,3.418
245.09,3.380
245.74,3.340
246.38,3.299
247.03,3.261
247.69,3.220
248.34,3.178
249.00,3.141
249.67,3.097
250.33,3.065
251.00,3.035
251.68,3.003
252.36,2.971
253.04,2.943
253.72,2.918
254.41,2.894
255.11,2.871
255.80,2.849
256.50,2.837
257.21,2.820
257.92,2.805
258.63,2.792
259.34,2.785
260.06,2.781
260.79,2.777
261.52,2.775
262.25,2.775
262.99,2.779
263.73,2.785
264.47,2.794
265.22,2.809
265.97,2.824
266.73,2.839
267.59,2.857
268.35,2.877
269.13,2.896
269.91,2.916
270.58,2.933
271.36,2.949
272.22,2.965
272.95,2.977
273.75,2.990
274.55,3.007
275.36,3.022
276.17,3.039
276.98,3.056
277.81,3.071
278.63,3.084
279.46,3.099
280.30,3.114
281.14,3.126
281.99,3.141
282.84,3.152
283.70,3.165
284.56,3.171
285.42,3.173
286.30,3.169
287.17,3.163
288.06,3.154
288.95,3.144
289.84,3.131
290.74,3.116
291.65,3.101
292.56,3.077
293.47,3.050
294.39,3.016
295.32,2.975
296.26,2.933
297.20,2.881
298.11,2.829
298.74,2.793
299.22,2.761
299.88,2.721
300.33,2.693
300.66,2.671
301.35,2.616
301.75,2.579
302.18,2.525
302.57,2.476
302.96,2.419
303.36,2.353
303.66,2.282
304.15,2.184
304.54,2.120
304.94,2.052
305.34,1.986
305.73,1.918
306.13,1.856
306.53,1.792
306.94,1.730
307.34,1.658
307.74,1.551
308.15,1.490
308.55,1.417
308.96,1.351
##END=
