##TITLE=ortho-Hydroxypropiophenone
##JCAMP-DX=4.24
##DATA TYPE=UV/VIS SPECTRUM
##ORIGIN=INSTITUTE OF ENERGY PROBLEMS OF CHEMICAL PHYSICS, RAS
##OWNER=INEP CP RAS, NIST OSRD
Collection (C) 2007 copyright by the U.S. Secretary of Commerce
on behalf of the United States of America. All rights reserved.
##CAS REGISTRY NO=610-99-1
##MOLFORM=C9H10O2
##BP=116/ 17 mm
##SOURCE REFERENCE=RAS UV No. 19629
##$NIST SQUIB=1965LAN49
##$NIST SOURCE=TYUGLMTE
##SPECTROMETER/DATA SYSTEM=Beckman DU
##XUNITS=Wavelength (nm)
##YUNITS=Logarithm epsilon
##XFACTOR=1.0
##YFACTOR=1.0
##FIRSTX=211.74
##LASTX=378.71
##FIRSTY=4.186
##MAXX=378.71
##MINX=211.74
##MAXY=4.19
##MINY=1.484
##NPOINTS=178
##$REF AUTHOR=Lang (editor), L.
##$REF JOURNAL=Absorption Spectra in the Ultraviolet and Visible Region
##$REF VOLUME=5
##$REF PAGE=49
##$REF DATE=1965
##XYPOINTS=(XY..XY)
211.74,4.186
212.15,4.188
212.53,4.190
213.02,4.190
213.54,4.187
213.97,4.184
214.75,4.176
215.76,4.163
216.76,4.146
217.77,4.129
218.78,4.098
219.78,4.068
220.79,4.020
221.79,3.959
222.80,3.891
223.81,3.810
224.81,3.742
225.82,3.654
226.82,3.579
227.83,3.518
228.83,3.437
229.84,3.383
230.85,3.325
231.85,3.284
232.86,3.271
233.86,3.288
234.87,3.308
235.88,3.342
236.88,3.389
237.89,3.440
238.89,3.484
239.90,3.542
240.91,3.583
241.91,3.610
242.92,3.647
243.92,3.678
244.93,3.708
245.93,3.739
246.94,3.762
247.95,3.783
248.81,3.799
249.96,3.817
250.85,3.833
251.97,3.847
252.98,3.854
253.98,3.854
254.99,3.847
256.20,3.826
257.00,3.807
258.01,3.783
258.77,3.754
260.02,3.688
261.02,3.613
262.03,3.549
263.03,3.484
264.04,3.400
265.05,3.325
266.05,3.244
267.06,3.142
268.06,3.054
269.07,2.959
270.08,2.840
271.08,2.732
271.85,2.651
272.62,2.573
273.20,2.515
273.70,2.468
274.31,2.422
274.69,2.399
275.16,2.383
275.58,2.376
276.09,2.370
276.76,2.377
277.44,2.392
278.25,2.416
279.13,2.447
280.13,2.484
281.14,2.518
281.59,2.526
282.15,2.528
283.15,2.522
283.62,2.520
284.22,2.521
284.71,2.526
285.16,2.535
286.17,2.572
287.18,2.616
288.18,2.667
289.19,2.711
290.19,2.759
291.20,2.810
292.20,2.847
293.21,2.878
294.22,2.915
295.22,2.949
296.23,2.986
297.23,3.017
298.21,3.049
299.22,3.078
300.25,3.105
301.26,3.132
302.26,3.156
303.19,3.180
304.27,3.206
305.28,3.223
306.29,3.237
307.29,3.257
308.30,3.278
309.30,3.295
310.31,3.308
311.32,3.325
312.32,3.339
313.25,3.353
314.33,3.366
315.45,3.379
316.35,3.386
317.35,3.393
318.36,3.400
319.31,3.406
320.35,3.411
321.40,3.415
322.38,3.417
323.39,3.420
324.32,3.423
325.26,3.423
326.40,3.423
327.41,3.423
328.28,3.422
329.42,3.420
330.43,3.417
331.52,3.412
332.46,3.407
333.45,3.400
334.45,3.393
335.46,3.383
336.46,3.373
337.47,3.362
338.47,3.349
339.48,3.335
340.49,3.322
341.49,3.305
342.50,3.288
343.50,3.267
344.51,3.247
345.52,3.227
346.65,3.200
347.53,3.176
348.53,3.152
349.54,3.122
350.54,3.091
351.55,3.071
352.56,3.037
353.56,3.006
354.57,2.969
355.57,2.945
356.58,2.901
357.59,2.874
358.59,2.830
359.60,2.793
360.60,2.745
361.61,2.701
362.62,2.650
363.62,2.596
364.63,2.522
365.63,2.450
366.64,2.379
367.64,2.288
368.65,2.220
369.66,2.152
370.66,2.081
371.67,1.996
372.67,1.925
373.68,1.843
374.69,1.796
375.69,1.738
376.70,1.647
377.70,1.565
378.71,1.484
##END=
