##TITLE=1-Benzylnaphthalene
##JCAMP-DX=4.24
##DATA TYPE=UV/VIS SPECTRUM
##ORIGIN=INSTITUTE OF ENERGY PROBLEMS OF CHEMICAL PHYSICS, RAS
##OWNER=INEP CP RAS, NIST OSRD
Collection (C) 2007 copyright by the U.S. Secretary of Commerce
on behalf of the United States of America. All rights reserved.
##CAS REGISTRY NO=611-45-0
##MOLFORM=C17H14
##MP=59.5
##BP=350
##SOURCE REFERENCE=RAS UV No. 3925
##$NIST SQUIB=1955VEJ/KAK571-585
##$NIST SOURCE=TSGMTE
##SPECTROMETER/DATA SYSTEM=n.i.g.
##XUNITS=Wavelength (nm)
##YUNITS=Logarithm epsilon
##XFACTOR=1.000000
##YFACTOR=1.000000
##FIRSTX=238.1271
##LASTX=320.1045
##FIRSTY=3.36396
##MAXX=320.104
##MINX=238.127
##MAXY=3.9324
##MINY=2.223
##NPOINTS=228
##$REF AUTHOR=Vejdelek, Z.J.; Kakac, B.
##$REF TITLE=Uber die cyclisierung der 1-benzyl-1,2,3,4-tetrahydro-naphthalin-1-carbonsaure
##$REF JOURNAL=Collect. Czech. Chem. Commun.
##$REF VOLUME=20
##$REF PAGE=571-585
##$REF DATE=1955
##XYPOINTS=(XY..XY)
238.1271,3.363963
238.4744,3.350282
238.8523,3.336747
239.2545,3.323321
239.6750,3.309966
240.1077,3.296643
240.5464,3.283316
240.9851,3.269945
241.4176,3.256495
241.8378,3.242925
242.2396,3.229200
242.6168,3.215280
242.9634,3.201128
242.9634,3.201128
243.5055,3.196303
243.8770,3.191093
244.1494,3.182428
244.1494,3.182428
244.3336,3.182058
244.5176,3.181569
244.7015,3.181022
244.7015,3.181022
244.7209,3.175649
244.7459,3.170158
244.7825,3.164606
244.7825,3.164606
245.1324,3.163946
245.4939,3.163166
245.8544,3.157830
245.8568,3.159407
245.8590,3.160926
245.8611,3.162327
245.8611,3.162327
246.2041,3.162275
246.9885,3.174338
247.6394,3.187362
247.7919,3.200402
247.7919,3.200402
248.5007,3.206386
249.1702,3.219460
249.7986,3.236348
250.3837,3.253772
250.9237,3.268454
251.4166,3.277116
251.4166,3.277116
251.5057,3.283717
252.8969,3.329664
253.5132,3.348901
255.9661,3.440721
256.3621,3.456060
256.7186,3.471339
257.0176,3.486480
257.2415,3.501404
257.2415,3.501404
257.3812,3.501383
257.5327,3.501360
257.6900,3.501336
257.6900,3.501336
258.0192,3.517915
258.3517,3.534221
258.6621,3.550308
258.9253,3.566231
259.1157,3.582044
262.8651,3.643425
262.9006,3.644939
262.9476,3.646333
263.1883,3.648413
263.1883,3.648413
263.6379,3.665377
264.4495,3.681287
266.8938,3.734120
267.3560,3.748341
267.8505,3.762791
268.3886,3.777180
268.9816,3.791219
269.6408,3.804620
270.3774,3.817093
271.2028,3.828350
272.1283,3.838101
272.1283,3.838101
272.8647,3.834433
273.3887,3.829915
273.7656,3.821186
273.7656,3.821186
277.2661,3.835113
277.6219,3.844252
277.7696,3.851540
277.7696,3.851540
277.9025,3.851520
278.0413,3.851499
278.1918,3.851477
278.1918,3.851477
278.5336,3.865344
278.9391,3.880606
279.4462,3.896102
280.0926,3.910674
280.9162,3.923161
281.9548,3.932403
281.9548,3.932403
282.7465,3.925836
283.1191,3.917509
283.3369,3.903620
283.3594,3.900363
283.3875,3.896988
283.4274,3.893552
283.4456,3.905721
283.4456,3.905721
283.5776,3.905093
283.7152,3.904347
283.8646,3.903541
283.8646,3.903541
283.8836,3.889519
283.9776,3.875128
284.1400,3.860458
284.3639,3.845595
284.6429,3.830629
284.9700,3.815648
285.3388,3.800740
285.7425,3.785993
286.1745,3.771496
289.3308,3.729414
289.3308,3.729414
290.4970,3.735344
292.4362,3.758845
292.4362,3.758845
292.9895,3.739977
293.5487,3.721107
294.7360,3.652025
294.8850,3.635215
295.0340,3.618380
295.7619,3.572180
295.9120,3.556108
296.0621,3.540011
296.5492,3.454517
296.6586,3.442104
296.7771,3.428350
296.9034,3.413456
297.0364,3.397618
297.1750,3.381036
297.3180,3.363907
297.4643,3.346431
297.6127,3.328805
297.7620,3.311227
297.9111,3.293897
298.0588,3.277012
298.2040,3.260771
298.3456,3.245371
298.4822,3.231013
298.6130,3.217893
299.4701,3.097907
299.4701,3.097907
299.4723,3.099416
299.4744,3.100807
299.4764,3.102140
299.4764,3.102140
299.6249,3.163931
299.6543,3.097605
299.6885,3.102108
299.7592,3.150046
299.8385,3.097244
299.9064,3.102075
299.9286,3.130246
300.0226,3.096766
300.0226,3.096766
300.0243,3.168469
300.1360,3.102040
300.1360,3.102040
300.1978,3.081505
300.3737,3.066207
300.5510,3.050880
301.2258,2.972359
301.5239,2.953937
301.9222,2.935255
302.4058,2.917745
302.9598,2.902840
303.5692,2.891971
303.5692,2.891971
303.8243,2.878316
304.0708,2.864645
304.3094,2.850957
304.5407,2.837252
304.7653,2.823531
304.9838,2.809794
305.1967,2.796041
305.4048,2.782271
305.6085,2.768487
305.8084,2.754686
306.0053,2.740870
306.1996,2.727038
306.3920,2.713191
306.5831,2.699328
306.7734,2.685451
306.9637,2.671558
307.1543,2.657651
307.3461,2.643730
307.5395,2.629793
307.7352,2.615842
307.9337,2.601877
308.1357,2.587897
308.3418,2.573904
308.5525,2.559897
308.7685,2.545876
308.9904,2.531841
309.2187,2.517792
311.1755,2.472515
311.1755,2.472515
312.5469,2.511596
312.7730,2.527185
313.0742,2.540740
313.5646,2.550273
314.3585,2.553793
314.3585,2.553793
314.8828,2.535791
315.2983,2.515571
316.3369,2.472056
316.6449,2.455658
316.9528,2.439260
317.2608,2.422863
318.5314,2.350035
318.6991,2.336006
318.8721,2.321965
319.0488,2.307908
319.2279,2.293832
319.4077,2.279731
319.5868,2.265601
319.7636,2.251438
319.9367,2.237238
320.1045,2.222995
##END=
