##TITLE=Benzamide, N,N-dimethyl-
##JCAMP-DX=4.24
##DATA TYPE=UV/VIS SPECTRUM
##ORIGIN=INSTITUTE OF ENERGY PROBLEMS OF CHEMICAL PHYSICS, RAS
##OWNER=INEP CP RAS, NIST OSRD
Collection (C) 2007 copyright by the U.S. Secretary of Commerce
on behalf of the United States of America. All rights reserved.
##CAS REGISTRY NO=611-74-5
##MOLFORM=C9H11NO
##MP=43.5
##SOURCE REFERENCE=RAS UV No. 3702
##$NIST SQUIB=1955GRO/FIS1794-1802
##$NIST SOURCE=TSGMTE
##SPECTROMETER/DATA SYSTEM=n.i.g.
##XUNITS=Wavelength (nm)
##YUNITS=Logarithm epsilon
##XFACTOR=1.000000
##YFACTOR=1.000000
##FIRSTX=219.3361
##LASTX=285.2074
##FIRSTY=3.85903
##MAXX=285.207
##MINX=219.336
##MAXY=3.86314
##MINY=1.05387
##NPOINTS=237
##$REF AUTHOR=Grob, C.A.; Fischer, B.
##$REF TITLE=Die amid-iminol-tautomerie
##$REF JOURNAL=Helv. Chim. Acta
##$REF VOLUME=38
##$REF PAGE=1794-1802
##$REF DATE=1955
##XYPOINTS=(XY..XY)
219.3361,3.859029
219.5358,3.859029
219.7356,3.863143
219.9603,3.859029
220.5846,3.859029
222.2326,3.842059
222.6571,3.842059
224.1054,3.829203
224.5299,3.829203
224.7296,3.824575
225.9781,3.816347
226.4026,3.811719
226.4026,3.816347
226.6024,3.811719
227.0269,3.811719
228.4752,3.794749
228.6749,3.794749
228.8996,3.790635
229.0994,3.790635
229.2992,3.786007
232.6202,3.752068
233.0447,3.752068
234.4930,3.726356
234.4930,3.730470
234.7177,3.721728
234.9175,3.721728
235.1172,3.717614
235.3420,3.717614
235.5417,3.713500
236.7902,3.687274
236.7902,3.696016
236.9900,3.687274
237.2147,3.683160
238.4383,3.657448
238.4383,3.661562
238.8628,3.648706
239.0625,3.644592
239.0625,3.648706
239.2872,3.635850
239.2872,3.644592
240.5358,3.610139
240.7355,3.601911
240.7355,3.606025
241.5595,3.576199
241.5595,3.580313
242.4085,3.554601
242.4085,3.558715
243.6570,3.511919
243.6570,3.520147
244.8806,3.472838
244.8806,3.481580
245.1053,3.468724
245.9293,3.434270
245.9293,3.438898
246.1291,3.426042
246.1291,3.430156
246.3538,3.417300
246.3538,3.421414
246.9781,3.387474
246.9781,3.395702
247.1778,3.378732
247.1778,3.387474
247.3776,3.374618
247.3776,3.378732
247.6023,3.369990
248.8508,3.314453
248.8508,3.323195
249.0506,3.296969
249.0506,3.314453
249.2504,3.288741
249.2504,3.292855
249.6748,3.275885
249.6748,3.279999
249.8746,3.275885
250.0993,3.263029
250.0993,3.271257
250.9234,3.228575
251.1231,3.215720
251.1231,3.224462
251.3478,3.211606
251.7474,3.185894
251.9471,3.173038
251.9471,3.181266
252.3716,3.164296
252.9959,3.129842
253.4204,3.112872
253.4204,3.121100
254.0446,3.087161
254.4442,3.074305
254.4442,3.078419
255.6927,3.035737
255.9174,3.026995
255.9174,3.031109
256.7414,3.001283
257.1659,2.992541
257.3657,2.988427
257.3657,2.992541
257.5654,2.984313
258.6142,2.953973
258.8139,2.949860
259.0137,2.941118
259.0137,2.949860
259.2384,2.941118
259.6380,2.932376
261.9352,2.872724
262.1350,2.863982
262.1350,2.868096
262.3597,2.855240
262.3597,2.863982
263.3835,2.825414
263.8080,2.808445
263.8080,2.816672
264.0077,2.808445
264.2325,2.803817
266.5048,2.705083
266.5048,2.713825
266.7045,2.700969
267.5535,2.653660
267.5535,2.662402
267.7533,2.640804
267.7533,2.649546
267.9530,2.632576
267.9530,2.640804
268.5773,2.594008
268.5773,2.606864
268.8020,2.585266
268.8020,2.589380
269.0018,2.572410
269.0018,2.580638
269.6260,2.537957
269.6260,2.542070
269.8258,2.525101
269.8258,2.533843
270.0505,2.516359
270.0505,2.520987
270.6748,2.473677
270.6748,2.482419
270.8745,2.460821
270.8745,2.469563
271.2990,2.430995
271.4988,2.413511
271.4988,2.426367
271.6986,2.400656
271.6986,2.413511
272.1231,2.366202
272.1231,2.370830
272.3228,2.349232
272.3228,2.362088
272.9471,2.306550
272.9471,2.314778
273.1468,2.293694
273.1468,2.306550
273.3716,2.289066
273.7711,2.246385
273.7711,2.259241
273.9958,2.233529
273.9958,2.246385
274.6201,2.182105
274.6201,2.190333
274.8198,2.173363
274.8198,2.182105
275.2443,2.138909
275.2443,2.147652
275.4441,2.130682
275.4441,2.134796
275.6439,2.109084
275.6439,2.126053
275.8686,2.079258
276.0683,2.061774
276.0683,2.074630
276.2681,2.044804
276.2681,2.057660
276.6926,2.001608
276.6926,2.010350
276.8924,1.984638
276.8924,1.997495
277.5166,1.929101
277.5166,1.950185
277.7413,1.911617
277.7413,1.929101
278.1409,1.873050
278.1409,1.885905
278.3656,1.851965
278.3656,1.873050
278.7651,1.800028
278.7651,1.817512
278.9899,1.783058
278.9899,1.795914
279.3894,1.722893
279.3894,1.744490
279.5891,1.680211
279.5891,1.693067
279.8139,1.662727
279.8139,1.680211
280.2134,1.611304
280.2134,1.624159
280.4381,1.590220
280.4381,1.611304
280.8377,1.542910
280.8377,1.559880
281.0624,1.525940
281.0624,1.538796
281.2621,1.491486
281.2621,1.495600
281.4619,1.469888
281.4619,1.487373
281.6866,1.448290
281.6866,1.465774
281.8864,1.409724
281.8864,1.418465
282.0862,1.396867
282.0862,1.405609
282.3109,1.384011
282.3109,1.396867
282.5107,1.345444
282.5107,1.358299
282.7104,1.315618
282.7104,1.337216
282.9351,1.272422
282.9351,1.281163
283.1349,1.246710
283.1349,1.268309
283.3347,1.242596
283.5594,1.208143
283.7592,1.182432
283.7592,1.204028
283.9589,1.178318
284.1837,1.139750
284.1837,1.148492
284.3834,1.118152
284.3834,1.135635
284.5832,1.105296
284.5832,1.114037
284.8079,1.075470
285.0077,1.057985
285.0077,1.070843
285.2074,1.053873
##END=
