##TITLE=4-Chloroquinoline
##JCAMP-DX=4.24
##DATA TYPE=UV/VIS SPECTRUM
##ORIGIN=INSTITUTE OF ENERGY PROBLEMS OF CHEMICAL PHYSICS, RAS
##OWNER=INEP CP RAS, NIST OSRD
Collection (C) 2007 copyright by the U.S. Secretary of Commerce
on behalf of the United States of America. All rights reserved.
##CAS REGISTRY NO=611-35-8
##MOLFORM=C9H6ClN
##MP=34.5
##BP=262; 130(15)
##SOURCE REFERENCE=RAS UV No. 1314
##$NIST SQUIB=1958BLI/SOL1295-1300
##$NIST SOURCE=TSGMTE
##SPECTROMETER/DATA SYSTEM=n.i.g.
##XUNITS=Wavelength (nm)
##YUNITS=Logarithm epsilon
##XFACTOR=1.000000
##YFACTOR=1.000000
##FIRSTX=220.0000
##LASTX=319.0000
##FIRSTY=4.4
##MAXX=319
##MINX=220
##MAXY=4.53
##MINY=3.2
##NPOINTS=100
##$REF AUTHOR=Blizniukov, V.I.; Solonskaia, N.T.
##$REF TITLE=The absorption spectra and structure of substituted quinolines serving as starting substances for antimalarials. V. Structure and Tautomerism of the 2- and 4-aminoquinolines
##$REF JOURNAL=Zh. Obshch. Khim.
##$REF VOLUME=28
##$REF PAGE=1295-1300
##$REF DATE=1958
##XYPOINTS=(XY..XY)
220.0000,4.400000
221.0000,4.450000
222.0000,4.490000
223.0000,4.530000
224.0000,4.530000
225.0000,4.520000
226.0000,4.520000
227.0000,4.520000
228.0000,4.520000
229.0000,4.510000
230.0000,4.470000
231.0000,4.430000
232.0000,4.380000
233.0000,4.290000
234.0000,4.210000
235.0000,4.130000
236.0000,4.050000
237.0000,3.970000
238.0000,3.890000
239.0000,3.810000
240.0000,3.730000
241.0000,3.650000
242.0000,3.570000
243.0000,3.490000
244.0000,3.430000
245.0000,3.370000
246.0000,3.300000
247.0000,3.240000
248.0000,3.200000
249.0000,3.200000
250.0000,3.200000
251.0000,3.200000
252.0000,3.200000
253.0000,3.200000
254.0000,3.200000
255.0000,3.200000
256.0000,3.210000
257.0000,3.210000
258.0000,3.210000
259.0000,3.210000
260.0000,3.210000
261.0000,3.210000
262.0000,3.210000
263.0000,3.210000
264.0000,3.220000
265.0000,3.240000
266.0000,3.250000
267.0000,3.270000
268.0000,3.290000
269.0000,3.300000
270.0000,3.320000
271.0000,3.340000
272.0000,3.350000
273.0000,3.380000
274.0000,3.390000
275.0000,3.400000
276.0000,3.410000
277.0000,3.430000
278.0000,3.440000
279.0000,3.450000
280.0000,3.470000
281.0000,3.480000
282.0000,3.490000
283.0000,3.500000
284.0000,3.510000
285.0000,3.500000
286.0000,3.510000
287.0000,3.510000
288.0000,3.510000
289.0000,3.510000
290.0000,3.520000
291.0000,3.520000
292.0000,3.520000
293.0000,3.530000
294.0000,3.530000
295.0000,3.530000
296.0000,3.540000
297.0000,3.540000
298.0000,3.540000
299.0000,3.550000
300.0000,3.550000
301.0000,3.550000
302.0000,3.560000
303.0000,3.560000
304.0000,3.560000
305.0000,3.560000
306.0000,3.570000
307.0000,3.570000
308.0000,3.570000
309.0000,3.580000
310.0000,3.580000
311.0000,3.580000
312.0000,3.590000
313.0000,3.590000
314.0000,3.590000
315.0000,3.600000
316.0000,3.600000
317.0000,3.570000
318.0000,3.540000
319.0000,3.510000
##END=
