##TITLE=N-Methyl-O-toluidine
##JCAMP-DX=4.24
##DATA TYPE=UV/VIS SPECTRUM
##ORIGIN=INSTITUTE OF ENERGY PROBLEMS OF CHEMICAL PHYSICS, RAS
##OWNER=INEP CP RAS, NIST OSRD
Collection (C) 2007 copyright by the U.S. Secretary of Commerce
on behalf of the United States of America. All rights reserved.
##CAS REGISTRY NO=611-21-2
##MOLFORM=C8H11N
##BP=207.5
##SOURCE REFERENCE=RAS UV No. 464
##$NIST SQUIB=1949RAM/KLE454-457
##$NIST SOURCE=TSGMTE
##SPECTROMETER/DATA SYSTEM=n.i.g.
##XUNITS=Wavelength (nm)
##YUNITS=Logarithm epsilon
##XFACTOR=1.000000
##YFACTOR=1.000000
##FIRSTX=319.2783
##LASTX=233.5964
##FIRSTY=1.08417
##MAXX=319.278
##MINX=233.596
##MAXY=4.10511
##MINY=1.08417
##NPOINTS=445
##$REF AUTHOR=Ramart-Lucas, M.; Klein, M.J.
##$REF TITLE=Deformation des orbites electroniques de l'azote dans les corps organiques (series des phenylhydrazones)
##$REF JOURNAL=Bull. Soc. Chim. Fr.
##$REF VOLUME=16
##$REF PAGE=454-457
##$REF DATE=1949
##XYPOINTS=(XY..XY)
319.2783,1.084165
319.1798,1.107122
319.0743,1.130183
318.9545,1.153455
318.9545,1.153455
318.8479,1.155029
318.7270,1.156816
318.5990,1.158709
318.5990,1.158709
318.4377,1.189294
318.2766,1.219875
318.1156,1.250457
318.1156,1.250457
318.0096,1.258599
317.8894,1.266845
317.7621,1.275304
317.7621,1.275304
317.6646,1.306843
317.5601,1.338381
317.4413,1.369919
317.4413,1.369919
317.2172,1.381404
316.9934,1.392996
316.7699,1.404801
316.7699,1.404801
316.4500,1.448975
316.1236,1.503025
315.7839,1.553889
315.7839,1.553889
315.5621,1.563923
315.3406,1.573958
315.1194,1.583993
315.1194,1.583993
314.8915,1.616823
314.7690,1.639246
314.6465,1.670483
314.6465,1.670483
314.5428,1.672058
314.4251,1.673846
314.3006,1.675740
314.3006,1.675740
314.2599,1.691509
314.2052,1.707277
314.1436,1.723047
314.1436,1.723047
313.8168,1.759756
313.4941,1.799307
313.1739,1.840477
312.8543,1.882045
312.5336,1.922790
312.2101,1.961491
312.2101,1.961491
312.1160,1.987914
312.0151,2.014550
311.9005,2.041292
311.9005,2.041292
311.7985,2.044636
311.6829,2.047981
311.5606,2.051326
311.5606,2.051326
311.5206,2.066759
311.4669,2.082404
311.4063,2.098155
311.4063,2.098155
311.3047,2.099730
311.1895,2.101517
311.0675,2.103411
311.0675,2.103411
310.7985,2.157692
310.6450,2.191813
310.5492,2.220200
310.4534,2.257278
310.4534,2.257278
310.3524,2.258853
310.2379,2.260640
310.1166,2.262534
310.1166,2.262534
309.8711,2.304602
309.6191,2.346776
309.3540,2.389163
309.3540,2.389163
309.2537,2.395853
309.1400,2.402543
309.0196,2.409232
309.0196,2.409232
308.9803,2.423108
308.9275,2.437089
308.8679,2.451283
308.8679,2.451283
308.7680,2.452858
308.6546,2.454645
308.5346,2.456539
308.5346,2.456539
308.4954,2.472308
308.4427,2.488077
308.3833,2.503846
308.3833,2.503846
308.0266,2.545262
307.7948,2.575344
307.5859,2.608741
307.2985,2.660101
307.2985,2.660101
307.1996,2.661676
307.0874,2.663464
306.9686,2.665358
306.9686,2.665358
306.7801,2.699904
306.5785,2.734663
306.3705,2.769528
306.3705,2.769528
306.2722,2.771103
306.1607,2.772891
306.0426,2.774784
306.0426,2.774784
305.7054,2.828126
305.4283,2.864796
304.9742,2.916227
304.9742,2.916227
304.5269,2.953003
304.2900,2.976294
304.0601,3.006062
304.0601,3.006062
303.9121,3.010026
303.7578,3.014203
303.5905,3.018486
303.5905,3.018486
303.3779,3.031848
302.9644,3.054023
302.2484,3.095419
302.2484,3.095419
301.7328,3.113754
301.3538,3.128691
301.0333,3.140336
301.0333,3.140336
300.8136,3.154689
300.6198,3.163733
300.2860,3.175219
300.2860,3.175219
300.0854,3.179059
299.8851,3.183006
299.6850,3.187165
299.6850,3.187165
299.6480,3.190510
299.5983,3.193855
299.5423,3.197200
299.5423,3.197200
298.5859,3.224083
298.1310,3.238330
297.7839,3.252152
297.7839,3.252152
297.3251,3.260311
296.8739,3.270594
296.0459,3.291813
296.0459,3.291813
295.6563,3.296609
295.2677,3.301512
294.8801,3.306626
294.8801,3.306626
294.6509,3.311423
294.4098,3.316325
294.1629,3.321440
294.1629,3.321440
293.2324,3.327192
292.6100,3.331776
291.7614,3.339120
291.7614,3.339120
290.7365,3.339120
289.7187,3.339120
288.7081,3.339120
288.7081,3.339120
288.2709,3.335563
287.8059,3.332961
286.9170,3.329085
286.9170,3.329085
286.7339,3.325121
286.5510,3.320944
286.3684,3.316661
286.3684,3.316661
286.2043,3.316042
286.0288,3.315210
285.8478,3.314272
285.8478,3.314272
284.6472,3.299317
283.8546,3.288292
282.7892,3.271744
282.7892,3.271744
282.7383,3.268735
282.6875,3.265514
282.6367,3.262187
282.6367,3.262187
282.4590,3.262187
282.2815,3.262187
282.1043,3.262187
282.1043,3.262187
281.9011,3.256435
281.6925,3.250577
281.4731,3.244507
281.4731,3.244507
281.2465,3.243055
281.0204,3.241498
280.7945,3.239728
280.7945,3.239728
279.5944,3.216845
278.7885,3.201925
278.3589,3.192421
278.3589,3.192421
277.7198,3.179997
277.0837,3.167573
276.4504,3.155149
276.4504,3.155149
276.2067,3.148460
275.9581,3.141770
275.6991,3.135080
275.6991,3.135080
275.1194,3.123612
274.5368,3.112143
273.9460,3.100675
273.9460,3.100675
273.7641,3.093331
273.6035,3.088747
273.3270,3.082995
273.3270,3.082995
273.2962,3.079650
273.2549,3.076305
273.2083,3.072960
273.2083,3.072960
272.2412,3.051545
271.7655,3.039900
271.3695,3.028043
271.3695,3.028043
271.2984,3.024202
271.2221,3.020256
271.1355,3.016096
271.1355,3.016096
270.9011,3.013690
270.6619,3.011176
270.4128,3.008451
270.4128,3.008451
270.3362,3.005106
270.2493,3.001761
270.1573,2.998416
270.1573,2.998416
270.0113,2.996965
269.8551,2.995408
269.6939,2.993638
269.6939,2.993638
268.8282,2.975869
268.3643,2.967445
267.9020,2.961144
267.9020,2.961144
267.7423,2.960525
267.5829,2.959693
267.4236,2.958755
267.4236,2.958755
267.2645,2.955410
267.1056,2.952065
266.9469,2.948720
266.9469,2.948720
266.5614,2.949339
266.1721,2.950171
265.7738,2.951109
265.7738,2.951109
265.4257,2.956578
265.1879,2.959180
264.8562,2.961144
264.8562,2.961144
264.4882,2.968843
264.0967,2.975904
263.3480,2.988381
263.3480,2.988381
263.3195,2.991726
263.2811,2.995071
263.2378,2.998416
263.2378,2.998416
263.0169,3.003212
262.7914,3.008114
262.5566,3.013229
262.5566,3.013229
262.5282,3.017194
262.4900,3.021370
262.4470,3.025653
262.4470,3.025653
262.3367,3.027228
262.2217,3.029016
262.0971,3.030910
262.0971,3.030910
261.8538,3.044112
261.6787,3.056253
261.4217,3.077738
261.4217,3.077738
261.2697,3.077738
261.1178,3.077738
260.9661,3.077738
260.9661,3.077738
260.7129,3.098711
260.4554,3.116178
259.9738,3.145115
259.9738,3.145115
259.7186,3.158583
259.3212,3.183094
258.6269,3.224915
258.6269,3.224915
258.5623,3.233056
258.4931,3.241303
258.4144,3.249763
258.4144,3.249763
257.9356,3.271726
257.6507,3.287212
257.3150,3.309494
257.3150,3.309494
257.1295,3.323085
256.7719,3.345279
256.2249,3.384037
256.2249,3.384037
255.7664,3.409027
255.5724,3.421168
255.4756,3.430866
255.4756,3.430866
255.4072,3.432441
255.3296,3.434229
255.2475,3.436123
255.2475,3.436123
255.0811,3.448547
254.9103,3.460971
254.7306,3.473395
254.7306,3.473395
254.6894,3.480704
254.6481,3.488226
254.6069,3.495853
254.6069,3.495853
254.4627,3.499818
254.3186,3.503994
254.1748,3.508277
254.1748,3.508277
253.4222,3.552947
252.7193,3.596130
252.1774,3.627739
252.1774,3.627739
252.0150,3.640127
251.7811,3.653896
251.5521,3.669789
251.5521,3.669789
251.3816,3.676178
251.2202,3.685222
250.9299,3.704672
250.9299,3.704672
250.7603,3.724759
250.5996,3.738262
250.3108,3.756757
250.3108,3.756757
250.2452,3.757376
250.1707,3.758208
250.0919,3.759146
250.0919,3.759146
249.9527,3.769181
249.8137,3.779216
249.6749,3.789251
249.6749,3.789251
249.6147,3.790702
249.5502,3.792259
249.4769,3.794029
249.4769,3.794029
249.3384,3.808860
249.2001,3.823797
249.0620,3.838946
249.0620,3.838946
248.8641,3.841955
248.6623,3.845176
248.4520,3.848503
248.4520,3.848503
248.3924,3.859157
248.3285,3.870024
248.2559,3.880997
248.2559,3.880997
247.2813,3.942267
246.7223,3.975822
246.4274,3.995680
246.4274,3.995680
246.1324,4.007148
245.8295,4.018616
245.5232,4.030085
245.5232,4.030085
245.3692,4.033430
245.2112,4.036775
245.0449,4.040119
245.0449,4.040119
244.4003,4.061676
244.0659,4.072082
243.7534,4.080258
243.7534,4.080258
243.3204,4.087444
243.0181,4.093143
242.5877,4.102239
242.5877,4.102239
242.1594,4.104257
241.4317,4.105000
239.7947,4.105106
239.7947,4.105106
239.6431,4.104151
239.4836,4.103195
239.3202,4.102239
239.3202,4.102239
238.9774,4.092081
238.7241,4.085320
238.5759,4.080258
238.5759,4.080258
238.2994,4.077852
238.0155,4.075339
237.7283,4.072613
237.7283,4.072613
237.6737,4.069268
237.6152,4.065923
237.5487,4.062578
237.5487,4.062578
237.4232,4.061127
237.2978,4.059570
237.1725,4.057800
237.1725,4.057800
237.1182,4.055393
237.0600,4.052880
236.9938,4.050154
236.9938,4.050154
236.8689,4.048703
236.7440,4.047146
236.6194,4.045376
236.6194,4.045376
236.3836,4.036757
236.0616,4.025483
235.6972,4.010493
235.6972,4.010493
235.5508,4.009537
235.3967,4.008582
235.2389,4.007626
235.2389,4.007626
235.0930,4.004617
234.9395,4.001396
234.7823,3.998069
234.7823,3.998069
234.7595,3.993149
234.7290,3.988017
234.6947,3.982778
234.6947,3.982778
233.9904,3.959965
233.7064,3.949683
233.5964,3.943117
##END=
