##TITLE=3,3'-Dimethylbiphenyl
##JCAMP-DX=4.24
##DATA TYPE=UV/VIS SPECTRUM
##ORIGIN=INSTITUTE OF ENERGY PROBLEMS OF CHEMICAL PHYSICS, RAS
##OWNER=INEP CP RAS, NIST OSRD
Collection (C) 2007 copyright by the U.S. Secretary of Commerce
on behalf of the United States of America. All rights reserved.
##CAS REGISTRY NO=612-75-9
##MOLFORM=C14H14
##MP=9
##BP=280
##SOURCE REFERENCE=RAS UV No. 692
##$NIST SQUIB=1950WOO/ART3221-3226
##$NIST SOURCE=TSGMTE
##SPECTROMETER/DATA SYSTEM=Beckman spectrophotometer
##XUNITS=Wavelength (nm)
##YUNITS=Logarithm epsilon
##XFACTOR=1.000000
##YFACTOR=1.000000
##FIRSTX=221.2222
##LASTX=275.5006
##FIRSTY=4.0706
##MAXX=275.501
##MINX=221.222
##MAXY=4.20517
##MINY=3.61609
##NPOINTS=163
##$REF AUTHOR=Woods, G.F.; van Artsdale, A.L.; Reed, F.T.
##$REF TITLE=Synthesis and ultraviolet absorption spectra of m-di-substituted benzenes
##$REF JOURNAL=J. Am. Chem. Soc.
##$REF VOLUME=72
##$REF PAGE=3221-3226
##$REF DATE=1950
##XYPOINTS=(XY..XY)
221.2222,4.070596
221.4023,4.056426
221.5489,4.044644
221.6730,4.034635
221.7858,4.025688
221.8981,4.017011
222.0211,4.007747
222.1659,3.996958
222.3434,3.983603
222.5648,3.966480
222.5648,3.966480
222.9559,3.941948
223.2442,3.923890
223.4647,3.909629
223.6521,3.895892
223.8415,3.878923
223.8415,3.878923
224.3322,3.857891
224.6761,3.843964
225.1680,3.825389
225.1680,3.825389
226.1076,3.801380
226.6765,3.785089
227.3624,3.762720
227.3624,3.762720
227.6518,3.762655
227.9412,3.762589
228.2306,3.762523
228.2306,3.762523
228.4391,3.764910
228.6451,3.767207
228.8458,3.769340
228.8458,3.769340
229.2529,3.778369
229.6573,3.787067
230.0565,3.795523
230.0565,3.795523
230.4689,3.807857
230.6327,3.813921
230.6881,3.819103
230.6881,3.819103
230.8711,3.824325
231.1241,3.831400
231.5286,3.843221
232.1660,3.862268
233.1178,3.890298
233.1178,3.890298
233.6079,3.907499
234.0947,3.924046
234.5793,3.939985
235.0628,3.955360
235.0628,3.955360
235.7472,3.974111
236.1614,3.985599
236.6193,3.996922
236.6193,3.996922
237.1244,4.011068
237.6188,4.024328
238.1009,4.036744
238.5689,4.048354
239.0211,4.059191
239.4557,4.069283
239.8709,4.078655
240.2652,4.087326
240.6366,4.095315
240.9835,4.102636
241.3041,4.109300
241.5967,4.115318
241.8596,4.120695
242.0910,4.125435
242.2891,4.129540
242.4523,4.133009
242.4523,4.133009
243.1026,4.142397
243.7478,4.151555
244.3904,4.160462
244.3904,4.160462
245.0282,4.167732
245.6608,4.174823
246.2909,4.181770
246.2909,4.181770
246.6628,4.184758
247.0322,4.187668
247.3964,4.190530
247.3964,4.190530
248.2327,4.194847
249.0691,4.199064
249.9054,4.203213
249.9054,4.203213
250.2150,4.203911
250.5194,4.204553
250.8212,4.205166
250.8212,4.205166
251.2577,4.205130
251.6890,4.205095
252.1177,4.205060
252.1177,4.205060
252.4407,4.203930
252.7611,4.202855
253.0763,4.201806
253.0763,4.201806
253.6330,4.197480
254.0800,4.193830
254.5734,4.189505
255.2687,4.183091
256.3219,4.173074
256.3219,4.173074
256.8723,4.165007
257.4216,4.156827
257.9688,4.148517
258.5127,4.140060
258.5127,4.140060
258.6132,4.139609
258.7086,4.139159
258.8013,4.138708
258.8013,4.138708
258.8562,4.136980
258.9357,4.134957
259.0784,4.131881
259.3227,4.126966
259.7071,4.119374
260.2703,4.108166
261.0505,4.092231
262.0864,4.070169
262.0864,4.070169
262.1360,4.067348
262.2293,4.064464
262.2789,4.061606
262.2789,4.061606
263.1549,4.038245
263.9350,4.016459
264.6246,3.996373
265.2294,3.978085
265.7549,3.961668
266.2065,3.947156
266.5899,3.934547
266.9105,3.923801
267.1740,3.914839
267.3857,3.907544
267.5514,3.901769
267.6764,3.897338
267.7663,3.894052
267.8267,3.891695
267.8631,3.890041
267.8810,3.888854
267.8810,3.888854
268.8897,3.858711
269.6291,3.834946
270.1488,3.817232
270.4985,3.804804
270.7276,3.796537
270.8859,3.791052
271.0228,3.786814
271.0228,3.786814
271.2195,3.779247
271.5430,3.767737
271.9712,3.752714
272.4819,3.734593
273.0532,3.713812
273.6628,3.690877
274.2886,3.666398
274.9086,3.641145
275.5006,3.616092
##END=
