##TITLE=1,4-Dihydronaphthalene
##JCAMP-DX=4.24
##DATA TYPE=UV/VIS SPECTRUM
##ORIGIN=INSTITUTE OF ENERGY PROBLEMS OF CHEMICAL PHYSICS, RAS
##OWNER=INEP CP RAS, NIST OSRD
Collection (C) 2007 copyright by the U.S. Secretary of Commerce
on behalf of the United States of America. All rights reserved.
##CAS REGISTRY NO=612-17-9
##MOLFORM=C10H10
##MP=25
##BP=211.5
##SOURCE REFERENCE=RAS UV No. 6149
##$NIST SQUIB=1958WIT/KNA895-907
##$NIST SOURCE=TSGMTE
##SPECTROMETER/DATA SYSTEM=n.i.g.
##XUNITS=Wavelength (nm)
##YUNITS=Logarithm epsilon
##XFACTOR=1.000000
##YFACTOR=1.000000
##FIRSTX=224.6217
##LASTX=278.2586
##FIRSTY=3.09409
##MAXX=278.259
##MINX=224.622
##MAXY=3.09409
##MINY=2.3918
##NPOINTS=162
##$REF AUTHOR=Wittig, G.; Knauss, E.
##$REF TITLE=Dehydrobenzol und Cyclopentadien
##$REF JOURNAL=Chem. Ber.
##$REF VOLUME=91
##$REF NUMBER=5
##$REF PAGE=895-907
##$REF DATE=1958
##XYPOINTS=(XY..XY)
224.6217,3.094088
224.7652,3.054865
224.8593,3.030924
224.9247,3.018272
224.9822,3.012912
225.0524,3.010849
225.1566,2.992232
225.3103,2.971774
225.4639,2.951259
225.6173,2.930629
225.9865,2.906196
226.4173,2.873739
226.5733,2.859820
226.5882,2.852508
226.9653,2.833742
227.1782,2.818160
227.4598,2.799961
227.8453,2.783769
228.2241,2.766291
228.5437,2.749791
228.9150,2.733091
229.3640,2.716176
229.8819,2.695787
230.0708,2.691703
230.1531,2.687848
230.1993,2.680920
230.1993,2.680920
230.6518,2.669255
231.1069,2.657474
231.5678,2.645632
232.3456,2.625101
232.8488,2.612893
233.3519,2.600569
233.8549,2.588189
235.2323,2.559340
235.8055,2.550702
236.3785,2.541950
236.9515,2.533140
238.0096,2.517870
238.7976,2.509544
239.6152,2.501776
240.1370,2.495314
241.2044,2.486741
241.2694,2.486372
241.3371,2.485886
241.4106,2.485340
241.6037,2.483946
242.3222,2.483554
243.0465,2.483159
243.7737,2.482762
244.6443,2.482288
245.5626,2.489052
246.2906,2.496207
247.4525,2.509885
248.1397,2.517760
248.6875,2.528994
249.4069,2.543171
250.0717,2.551249
250.0717,2.551249
250.0742,2.553052
250.0767,2.554855
250.0792,2.556658
250.7696,2.566850
251.5926,2.578259
252.2027,2.588238
252.7075,2.595181
253.3220,2.606961
254.0775,2.616851
254.8357,2.626682
255.5996,2.636395
256.4238,2.649350
256.9636,2.652769
257.8051,2.659061
259.4292,2.669107
260.3852,2.673999
261.6023,2.677794
262.3732,2.680744
263.2327,2.683015
264.0569,2.695970
264.4838,2.712741
264.9134,2.729454
265.3488,2.746048
265.9073,2.764304
266.0594,2.772928
266.1446,2.783307
266.2359,2.804338
266.2359,2.804338
266.5017,2.811612
266.5420,2.828145
266.5517,2.819518
266.6959,2.845332
266.9000,2.859745
267.1243,2.872939
267.5182,2.881786
268.2309,2.883162
268.7473,2.861742
268.9390,2.840242
269.1336,2.818741
269.3340,2.797236
269.4418,2.781195
269.5568,2.753368
269.6420,2.739421
269.7703,2.727397
269.8875,2.708773
270.0676,2.692798
270.3451,2.678259
270.7584,2.661641
270.8992,2.660017
271.0303,2.660461
271.1643,2.660904
271.3041,2.661343
271.3041,2.661343
271.4936,2.678253
271.6843,2.695162
271.8774,2.712071
272.0742,2.728977
272.2895,2.743553
272.5136,2.761723
272.7434,2.779833
272.9760,2.797828
273.0021,2.816631
273.1940,2.844185
273.3167,2.857284
273.4753,2.867156
273.9911,2.892137
274.3786,2.908958
274.7274,2.916635
275.5097,2.918118
275.5097,2.918118
275.7031,2.913859
275.8191,2.909986
275.9571,2.903180
276.0703,2.881723
276.1773,2.862675
276.2896,2.845342
276.3842,2.817365
276.4919,2.801324
276.6675,2.762647
276.7832,2.745313
276.8188,2.736959
276.9230,2.718342
276.9819,2.703259
277.0497,2.690919
277.1231,2.677697
277.1990,2.659970
277.2742,2.634114
277.4468,2.608500
277.4853,2.589394
277.5237,2.570230
277.5620,2.550952
277.7349,2.525596
277.7759,2.508293
277.8168,2.490933
277.8576,2.473458
277.9001,2.447914
277.9055,2.436817
277.9576,2.426153
278.2254,2.391799
278.2365,2.399784
278.2476,2.407769
278.2586,2.415754
278.2586,2.415754
##END=
