##TITLE=2,2'-Binaphthyl
##JCAMP-DX=4.24
##DATA TYPE=UV/VIS SPECTRUM
##ORIGIN=INSTITUTE OF ENERGY PROBLEMS OF CHEMICAL PHYSICS, RAS
##OWNER=INEP CP RAS, NIST OSRD
Collection (C) 2007 copyright by the U.S. Secretary of Commerce
on behalf of the United States of America. All rights reserved.
##CAS REGISTRY NO=612-78-2
##MOLFORM=C20H14
##MP=188.3
##BP=452
##SOURCE REFERENCE=RAS UV No. 744
##$NIST SQUIB=1948FRI/ORC199-204
##$NIST SOURCE=TSGMTE
##SPECTROMETER/DATA SYSTEM=Beckman spectrophotometer
##XUNITS=Wavelength (nm)
##YUNITS=Logarithm epsilon
##XFACTOR=1.000000
##YFACTOR=1.000000
##FIRSTX=206.3122
##LASTX=336.1683
##FIRSTY=4.6008
##MAXX=336.168
##MINX=206.312
##MAXY=4.97299
##MINY=3.06915
##NPOINTS=357
##$REF AUTHOR=Friedel, R.A.; Orchin, M.; Reggel, L.
##$REF TITLE=Steric hindrance and short wave length bands in the ultraviolet spectra of some naphthalene and diphenyl derivatives
##$REF JOURNAL=J. Am. Chem. Soc.
##$REF VOLUME=70
##$REF PAGE=199-204
##$REF DATE=1948
##XYPOINTS=(XY..XY)
206.3122,4.600804
206.6185,4.600929
206.9288,4.601054
207.2471,4.601184
208.4495,4.603862
208.7238,4.604689
209.0062,4.605439
209.2927,4.606029
210.2916,4.632712
210.3807,4.634195
210.4739,4.635598
210.5753,4.636842
211.2020,4.657900
211.4763,4.658728
211.7587,4.659478
212.0452,4.660068
213.1635,4.656872
213.2923,4.653896
213.4213,4.650758
213.5504,4.647539
214.3080,4.627043
214.3734,4.620852
214.4469,4.614582
214.5245,4.608152
215.1081,4.581746
215.2400,4.575595
215.3720,4.569444
215.5039,4.563293
216.0800,4.544548
216.1754,4.539004
216.2709,4.533298
216.3666,4.527510
217.4485,4.488167
217.5092,4.481987
217.5739,4.475809
217.6466,4.469634
218.4204,4.450969
218.4812,4.444776
218.5460,4.438503
218.6189,4.432071
219.5837,4.402169
219.6426,4.397814
219.7055,4.393459
219.7764,4.389109
220.5559,4.364607
220.8297,4.356485
220.9324,4.351701
220.9518,4.346153
221.9054,4.327562
222.0216,4.324581
222.1459,4.321441
222.2743,4.318222
223.9884,4.294464
224.1155,4.293313
224.2427,4.291999
224.3699,4.290605
226.0419,4.291283
226.4068,4.291431
226.7797,4.291583
227.1566,4.291736
228.4579,4.303578
228.7071,4.306234
228.9563,4.308890
229.2054,4.311546
230.7613,4.338821
230.9091,4.340233
231.0651,4.341486
231.2251,4.342659
234.8885,4.421521
235.0111,4.424842
235.1338,4.428082
235.2567,4.431160
235.9693,4.456267
236.1429,4.463272
236.3205,4.470279
236.5062,4.477289
237.4205,4.498464
237.7099,4.509057
237.9785,4.516317
238.1515,4.523214
238.8739,4.538471
239.0480,4.545003
239.2262,4.551375
239.4126,4.557668
240.3194,4.586505
240.4409,4.590934
240.5625,4.595363
240.6840,4.599792
241.5009,4.628592
241.5876,4.631898
241.6744,4.635124
241.7613,4.638187
242.3067,4.668701
242.3927,4.676144
242.5583,4.683781
242.6440,4.691467
243.7375,4.731693
243.9136,4.736144
244.0937,4.740597
244.2818,4.745053
244.8169,4.767899
245.1168,4.774482
245.4209,4.780904
245.7331,4.787249
246.6439,4.812072
246.8200,4.816524
247.0001,4.820976
247.1883,4.825432
249.7498,4.890708
249.7521,4.888411
249.7545,4.885952
249.7570,4.883411
250.8436,4.912321
251.0198,4.916772
251.1999,4.921225
251.3880,4.925681
253.3930,4.971752
253.7149,4.972991
253.9765,4.970394
254.2473,4.962609
254.9151,4.942076
255.1865,4.936374
255.2892,4.931495
255.3113,4.923258
255.8945,4.897217
255.9881,4.894227
256.0858,4.891076
256.1915,4.887848
257.0646,4.859734
257.1235,4.855379
257.1864,4.851024
257.2573,4.846673
257.8388,4.822456
257.9336,4.818115
258.0325,4.813775
258.1394,4.809439
258.6313,4.784820
258.6895,4.781181
258.7517,4.777461
258.8222,4.773583
259.6071,4.743609
259.7039,4.736714
259.8006,4.729818
259.8973,4.722923
260.5942,4.691088
260.7128,4.685648
260.8394,4.680130
260.9703,4.674452
261.5700,4.649877
261.6905,4.642518
261.8192,4.635000
261.9519,4.627403
262.7257,4.608739
262.8577,4.602574
262.9897,4.596329
263.1220,4.589921
263.8850,4.563952
263.9046,4.558215
264.0069,4.553809
264.2794,4.546958
265.0586,4.522821
265.1183,4.517736
265.1819,4.512652
265.2535,4.507571
266.2182,4.477670
266.3495,4.472235
266.4808,4.466719
266.6123,4.461041
267.7475,4.440698
267.8745,4.439547
268.0017,4.438233
268.1290,4.436838
269.4307,4.430067
269.6489,4.428317
269.8712,4.426488
270.1016,4.424500
271.5280,4.400625
271.6575,4.397015
271.7870,4.393323
271.9167,4.389469
273.0613,4.359640
273.0638,4.357087
273.0663,4.354533
273.0688,4.351979
274.4111,4.322231
274.4362,4.320416
274.4693,4.318605
274.5064,4.316795
275.7426,4.285179
275.9267,4.281590
276.1148,4.277922
276.3111,4.274095
277.2571,4.263165
277.5125,4.259511
277.7681,4.255694
278.0237,4.251797
279.3473,4.241020
279.4377,4.240584
279.5282,4.239985
279.6188,4.239305
281.0376,4.223092
281.3477,4.219460
281.6618,4.215668
281.9840,4.211797
282.5673,4.185756
282.7495,4.184005
282.9358,4.182255
283.1300,4.180509
285.0091,4.171783
285.4413,4.171958
285.8774,4.172135
286.3216,4.172315
287.8026,4.184231
288.0530,4.185684
288.3035,4.186975
288.5541,4.188186
290.1251,4.200138
290.3395,4.201576
290.5541,4.202853
290.7687,4.204049
292.4436,4.220057
292.5695,4.220108
292.6953,4.220160
292.8212,4.220211
294.3939,4.230338
294.6079,4.232250
294.8218,4.234162
295.0358,4.236074
296.5168,4.247989
296.8206,4.250667
297.1284,4.253347
297.4442,4.256030
298.8371,4.266085
299.0528,4.266889
299.2726,4.267613
299.5005,4.268179
301.4365,4.274804
301.5263,4.275557
301.6203,4.276231
301.7223,4.276745
303.4159,4.273783
303.5968,4.273383
303.7819,4.272823
303.9750,4.272185
305.6528,4.267026
305.9045,4.267129
306.1562,4.267231
306.4079,4.267333
307.5301,4.260124
307.6212,4.259688
307.7163,4.259091
307.8196,4.258416
309.8073,4.230755
309.8977,4.230319
309.9882,4.229720
310.0788,4.229040
311.3254,4.205093
311.5102,4.200788
311.6989,4.196485
311.8957,4.192185
313.2362,4.164261
313.2613,4.162433
313.2945,4.160527
313.3318,4.158461
314.5860,4.126852
314.7053,4.120682
314.8327,4.114435
314.9643,4.108027
315.9251,4.082138
316.0199,4.077797
316.1188,4.073457
316.2257,4.069121
317.2896,4.029771
317.3472,4.026766
317.4090,4.023601
317.4788,4.020358
318.2619,3.992208
318.3939,3.986043
318.5260,3.979798
318.6582,3.973390
319.4251,3.943408
319.4905,3.937230
319.5639,3.931055
319.6413,3.924882
320.4122,3.890887
320.4775,3.884709
320.5509,3.878534
320.6283,3.872361
321.2083,3.849603
321.2690,3.843423
321.3337,3.837245
321.4064,3.831070
321.9864,3.808312
322.0511,3.802850
322.1238,3.797310
322.2007,3.791610
322.4161,3.755564
322.4773,3.748912
322.5426,3.742098
322.6160,3.735207
323.0216,3.706903
323.0822,3.697506
323.1851,3.689748
323.2456,3.680351
323.8289,3.654309
323.8908,3.646927
323.9568,3.639384
324.0309,3.631763
324.4311,3.608932
324.4930,3.601550
324.5591,3.594006
324.6332,3.586385
325.2384,3.556338
325.3028,3.546402
325.3714,3.536305
325.4480,3.526130
325.8551,3.496367
325.9165,3.489458
325.9819,3.482550
326.0553,3.475645
326.2707,3.439600
326.2983,3.435231
326.3340,3.430866
326.3736,3.426502
326.8906,3.394594
326.9507,3.389036
327.0150,3.383317
327.0873,3.377520
327.6727,3.349290
327.7374,3.343828
327.8101,3.338288
327.8870,3.332588
328.6597,3.296769
328.7219,3.293861
328.7921,3.290875
328.8665,3.287728
330.3943,3.252216
330.4194,3.250401
330.4525,3.248590
330.4896,3.246780
331.7186,3.222460
331.8135,3.218119
331.9124,3.213780
332.0192,3.209443
333.2479,3.185489
333.2504,3.182935
333.2529,3.180381
333.2554,3.177827
334.4104,3.155667
334.5424,3.149503
334.6744,3.143257
334.8066,3.136849
335.3902,3.110443
335.4164,3.107520
335.4507,3.104520
335.4891,3.101359
336.1683,3.069152
##END=
