##TITLE=6-Hydroxyanthra[9,1-bc]pyran-2,7-dione
##JCAMP-DX=4.24
##DATA TYPE=UV/VIS SPECTRUM
##ORIGIN=INSTITUTE OF ENERGY PROBLEMS OF CHEMICAL PHYSICS, RAS
##OWNER=INEP CP RAS, NIST OSRD
Collection (C) 2007 copyright by the U.S. Secretary of Commerce
on behalf of the United States of America. All rights reserved.
##CAS REGISTRY NO=61381-85-9
##MOLFORM=C16H8O4
##MP=260
##SOURCE REFERENCE=RAS UV No. 22369
##$NIST SQUIB=1978GOR/1535
##$NIST SOURCE=TYUGLMTE
##SPECTROMETER/DATA SYSTEM=Specord UV-Vis
##XUNITS=Wavelength (nm)
##YUNITS=Logarithm epsilon
##XFACTOR=1.0
##YFACTOR=1.0
##FIRSTX=305.973
##LASTX=581.814
##FIRSTY=4.029
##MAXX=581.814
##MINX=305.973
##MAXY=4.046
##MINY=2.84
##NPOINTS=187
##$REF AUTHOR=Gorelik, M.V.; et al.
##$REF JOURNAL=Zhur. Organ. Khim.
##$REF VOLUME=14
##$REF PAGE=1535
##$REF DATE=1978
##XYPOINTS=(XY..XY)
305.973,4.029
307.473,4.034
308.973,4.039
310.473,4.042
311.973,4.045
313.473,4.046
314.973,4.046
316.473,4.045
317.973,4.042
319.473,4.037
320.973,4.030
322.473,4.020
323.973,4.009
325.473,3.997
327.062,3.984
328.736,3.971
329.937,3.960
331.437,3.947
332.937,3.932
334.437,3.916
335.937,3.898
337.437,3.879
338.937,3.858
340.437,3.837
341.937,3.814
343.437,3.790
344.937,3.765
346.437,3.739
347.937,3.712
349.437,3.684
350.937,3.655
352.437,3.626
353.937,3.596
355.437,3.566
356.937,3.535
358.437,3.504
359.937,3.472
361.437,3.440
362.937,3.408
364.437,3.376
365.937,3.344
367.437,3.312
368.937,3.280
370.437,3.248
371.937,3.216
373.437,3.185
374.937,3.154
376.437,3.123
377.937,3.093
379.437,3.064
380.937,3.035
382.437,3.007
383.937,2.980
385.437,2.953
386.886,2.932
388.386,2.900
389.886,2.875
391.386,2.857
392.886,2.845
394.386,2.840
395.886,2.842
397.386,2.849
398.886,2.862
400.386,2.880
401.886,2.904
403.386,2.932
404.886,2.965
407.482,3.005
408.982,3.030
410.482,3.055
411.982,3.080
413.482,3.104
414.982,3.128
416.482,3.152
417.982,3.175
419.482,3.198
420.982,3.221
422.482,3.244
423.982,3.266
425.482,3.288
426.982,3.310
428.482,3.331
429.982,3.352
431.482,3.373
432.982,3.394
434.482,3.414
435.982,3.434
437.482,3.454
438.982,3.473
440.482,3.492
441.982,3.511
443.482,3.529
444.982,3.547
446.482,3.565
447.982,3.583
449.482,3.600
450.982,3.616
452.482,3.633
453.982,3.649
455.482,3.665
456.982,3.680
458.482,3.695
459.982,3.710
461.482,3.724
462.982,3.738
464.482,3.752
465.982,3.765
467.482,3.778
468.982,3.790
470.482,3.802
471.982,3.814
473.482,3.825
474.982,3.836
476.684,3.851
478.184,3.862
479.684,3.870
481.184,3.876
482.684,3.881
484.184,3.885
485.684,3.888
487.184,3.891
488.684,3.896
490.184,3.901
491.676,3.907
492.399,3.911
493.254,3.915
494.019,3.920
495.519,3.930
497.019,3.943
498.519,3.956
500.019,3.968
501.519,3.979
503.019,3.986
504.519,3.991
506.019,3.992
507.519,3.989
509.019,3.983
510.519,3.973
512.019,3.961
513.519,3.948
515.019,3.934
516.505,3.921
518.005,3.904
519.505,3.891
521.005,3.881
522.505,3.873
524.005,3.867
525.505,3.861
527.005,3.857
528.505,3.853
530.005,3.849
531.505,3.847
533.005,3.846
534.505,3.846
536.005,3.850
536.043,3.850
537.543,3.852
539.043,3.852
540.543,3.850
542.043,3.848
543.543,3.844
545.043,3.838
546.543,3.832
548.043,3.823
549.543,3.811
550.552,3.802
552.052,3.782
553.552,3.755
555.052,3.722
556.552,3.684
558.052,3.641
559.552,3.595
561.052,3.547
562.552,3.496
564.052,3.445
565.552,3.392
567.052,3.339
568.552,3.287
570.052,3.235
571.552,3.183
573.052,3.133
574.552,3.083
576.052,3.034
577.552,2.986
579.052,2.939
580.552,2.892
581.814,2.863
##END=
