##TITLE=9,10-Dihydroanthracene
##JCAMP-DX=4.24
##DATA TYPE=UV/VIS SPECTRUM
##ORIGIN=INSTITUTE OF ENERGY PROBLEMS OF CHEMICAL PHYSICS, RAS
##OWNER=INEP CP RAS, NIST OSRD
Collection (C) 2007 copyright by the U.S. Secretary of Commerce
on behalf of the United States of America. All rights reserved.
##CAS REGISTRY NO=613-31-0
##MOLFORM=C14H12
##MP=111
##BP=305
##SOURCE REFERENCE=RAS UV No. 9004
##$NIST SQUIB=1966JOHd10/43C
##$NIST SOURCE=TSGMTE
##SPECTROMETER/DATA SYSTEM=Unicam SP 500
##XUNITS=Wavelength (nm)
##YUNITS=Logarithm epsilon
##XFACTOR=1.000000
##YFACTOR=1.000000
##FIRSTX=314.8841
##LASTX=192.6666
##FIRSTY=1.1047
##MAXX=314.884
##MINX=192.667
##MAXY=4.65122
##MINY=1.1047
##NPOINTS=248
##$REF AUTHOR=Johnson, E.A.
##$REF TITLE=9,10-Dihydrophenanthrene
##$REF BOOK TITLE=UV Atlas of Organic Compounds - Vol. 2
##$REF PAGE=D10/43
##$REF DATE=1966
##$REF PUBLISHER=Plenum Press
##$REF LOCATION=New York
##XYPOINTS=(XY..XY)
314.8841,1.104695
314.7848,1.135854
314.6848,1.167013
314.5840,1.198170
314.4825,1.229329
314.3802,1.260482
314.2772,1.291637
314.1735,1.322790
314.0690,1.353941
313.9638,1.385091
313.8579,1.416239
313.7513,1.447388
313.6440,1.478533
313.5360,1.509678
313.4273,1.540821
313.3180,1.571964
313.2080,1.603104
313.0974,1.634243
312.9861,1.665382
312.8741,1.696519
312.7616,1.727653
312.6484,1.758788
312.5346,1.789920
312.4202,1.821051
312.3051,1.852181
312.1895,1.883309
312.0733,1.914435
311.9565,1.945560
311.8392,1.976684
311.7212,2.007806
311.6028,2.038927
311.4837,2.070046
311.3642,2.101163
311.2441,2.132279
311.1235,2.163393
311.0023,2.194506
310.8807,2.225617
310.7585,2.256727
310.6359,2.287835
310.5127,2.318941
310.3891,2.350046
310.2650,2.381149
310.1404,2.412250
310.0154,2.443350
309.8899,2.474447
309.7640,2.505544
309.6376,2.536638
309.5108,2.567731
309.3836,2.598822
309.2560,2.629912
309.1279,2.660999
308.9995,2.692085
308.8706,2.723169
308.7414,2.754251
308.6118,2.785332
308.4818,2.816410
308.3515,2.847487
308.2208,2.878562
308.0897,2.909635
307.9583,2.940706
307.8266,2.971775
307.6945,3.002843
307.5621,3.033908
307.4294,3.064972
307.2964,3.096034
307.1631,3.127094
307.0295,3.158151
306.8956,3.189207
306.7614,3.220261
306.6269,3.251313
306.4922,3.282363
306.4922,3.282363
306.1740,3.319362
305.8565,3.356361
305.5396,3.393360
305.2234,3.430359
304.9078,3.467358
304.9078,3.467358
304.6423,3.493363
304.3507,3.527267
303.8607,3.563677
303.0022,3.597200
301.6115,3.622440
299.5354,3.634006
299.5354,3.634006
298.0524,3.619661
296.9459,3.610638
294.9064,3.607505
294.9064,3.607505
292.2383,3.631779
289.6373,3.656448
287.2892,3.684969
287.2892,3.684969
286.3691,3.717809
285.5363,3.751182
284.7775,3.784959
284.0800,3.819014
283.4315,3.853217
282.8197,3.887442
282.2328,3.921559
281.6590,3.955442
281.0869,3.988962
281.0869,3.988962
280.6501,4.025230
279.6511,4.065915
278.3138,4.095219
278.3138,4.095219
278.1849,4.100079
277.9458,4.105393
277.8172,4.110253
277.8172,4.110253
276.3789,4.133148
274.9899,4.157686
273.3500,4.178033
273.3500,4.178033
271.0171,4.210017
267.9182,4.228185
264.6892,4.228232
264.6892,4.228232
263.7646,4.220427
262.8228,4.211659
262.0169,4.199438
262.0169,4.199438
261.5644,4.193634
260.3761,4.173220
257.4765,4.120700
257.4765,4.120700
255.2562,4.068143
253.5280,4.024022
252.6802,3.999664
252.6802,3.999664
251.8489,3.978156
251.1455,3.953816
250.4531,3.929590
250.4531,3.929590
249.5119,3.902863
248.7932,3.869680
247.7908,3.842444
247.7908,3.842444
247.4845,3.826645
246.9177,3.810507
246.6135,3.793519
246.6135,3.793519
246.3271,3.782778
245.7024,3.756378
244.8419,3.718727
243.8470,3.674230
242.8168,3.627294
241.8471,3.582326
241.0310,3.543731
240.4592,3.515916
240.2221,3.503286
240.2221,3.503286
239.8887,3.495510
239.3828,3.480825
238.6903,3.463026
238.6903,3.463026
236.9117,3.467188
235.8622,3.502267
234.9733,3.534119
234.9733,3.534119
233.5827,3.604721
232.9248,3.636535
232.6284,3.653117
232.6284,3.653117
231.7953,3.681118
231.1662,3.715235
230.3435,3.742557
230.3435,3.742557
229.7919,3.777725
229.2630,3.812104
228.7288,3.845810
228.1617,3.878958
227.5349,3.911666
226.8220,3.944048
225.9975,3.976221
225.9975,3.976221
225.6477,3.985168
225.3657,3.993775
224.9658,4.000683
224.9658,4.000683
224.5400,4.018850
223.8295,4.037131
223.3652,4.056997
223.3652,4.056997
223.1613,4.062386
222.9720,4.068681
222.7773,4.074069
222.7773,4.074069
222.1096,4.108711
221.5053,4.143614
220.9542,4.178725
220.4466,4.213994
219.9727,4.249371
219.5232,4.284804
219.0888,4.320244
218.6605,4.355639
218.6605,4.355639
217.4803,4.437529
216.8744,4.480434
216.6396,4.498398
216.5803,4.505469
216.5803,4.505469
216.4001,4.511113
216.0390,4.530403
215.1915,4.579875
215.1915,4.579875
214.1059,4.613371
213.0390,4.633683
211.8542,4.644381
210.4213,4.649037
208.6184,4.651223
208.6184,4.651223
206.8953,4.634565
205.5858,4.605450
204.3261,4.571466
204.3261,4.571466
203.7743,4.549599
202.9406,4.521050
202.7406,4.499099
202.6722,4.500014
202.6366,4.501666
202.6034,4.505469
202.3402,4.505469
202.3402,4.505469
201.9937,4.489161
201.5232,4.473702
200.9925,4.456545
200.9925,4.456545
200.9510,4.454506
200.9199,4.459527
200.8474,4.462396
200.8232,4.450297
200.7748,4.465208
200.5783,4.440029
200.0526,4.420361
200.0526,4.420361
199.3212,4.391021
198.4994,4.362617
197.5845,4.336117
196.5741,4.312487
195.4663,4.292694
194.2596,4.277707
192.9531,4.268492
192.8288,4.267473
192.7783,4.267473
192.7235,4.267473
192.6666,4.267473
##END=
