##TITLE=4-Methoxybiphenyl
##JCAMP-DX=4.24
##DATA TYPE=UV/VIS SPECTRUM
##ORIGIN=INSTITUTE OF ENERGY PROBLEMS OF CHEMICAL PHYSICS, RAS
##OWNER=INEP CP RAS, NIST OSRD
Collection (C) 2007 copyright by the U.S. Secretary of Commerce
on behalf of the United States of America. All rights reserved.
##CAS REGISTRY NO=613-37-6
##MOLFORM=C13H12O
##MP=90
##BP=157/ 10 mm
##SOURCE REFERENCE=RAS UV No. 20229
##$NIST SQUIB=1969BOL/306
##$NIST SOURCE=TYUGLMTE
##SPECTROMETER/DATA SYSTEM=unknown
##XUNITS=Wavelength (nm)
##YUNITS=Logarithm epsilon
##XFACTOR=1.0
##YFACTOR=1.0
##FIRSTX=216.12
##LASTX=310.36
##FIRSTY=4.147
##MAXX=310.36
##MINX=216.12
##MAXY=4.301
##MINY=2.45
##NPOINTS=107
##$REF AUTHOR=Bolshakov, G.F.; et al.
##$REF JOURNAL=Ultraviolet Spectra of Heteroorganic Compounds
##$REF PAGE=306
##$REF DATE=1969
##XYPOINTS=(XY..XY)
216.12,4.147
216.79,4.114
217.62,4.085
218.12,4.052
218.95,4.023
219.61,3.990
220.44,3.961
221.27,3.927
222.11,3.894
222.77,3.861
223.60,3.828
224.27,3.795
224.91,3.762
225.60,3.732
226.59,3.703
228.09,3.691
229.58,3.695
231.08,3.707
232.41,3.728
233.41,3.757
234.24,3.790
234.90,3.824
235.73,3.853
236.57,3.882
237.56,3.911
238.56,3.940
239.39,3.969
240.39,3.998
241.39,4.027
242.38,4.056
243.38,4.081
244.54,4.106
245.71,4.131
246.70,4.156
247.87,4.176
249.03,4.197
250.19,4.218
251.36,4.239
252.85,4.251
254.18,4.268
255.51,4.284
257.01,4.293
258.50,4.297
260.00,4.301
261.50,4.297
262.99,4.288
264.49,4.284
265.98,4.276
267.31,4.259
268.64,4.239
269.97,4.218
271.30,4.201
272.47,4.180
273.63,4.160
274.79,4.135
275.96,4.110
277.12,4.085
277.95,4.056
279.11,4.031
280.11,4.006
281.11,3.977
282.11,3.948
282.94,3.919
283.79,3.888
284.60,3.857
285.43,3.824
286.26,3.790
287.09,3.757
287.92,3.724
288.59,3.691
289.25,3.658
290.08,3.624
290.75,3.591
291.25,3.554
291.91,3.521
292.58,3.487
293.07,3.450
293.74,3.417
294.40,3.384
294.90,3.351
295.57,3.317
296.07,3.284
296.57,3.251
297.40,3.222
297.89,3.189
298.56,3.156
299.22,3.122
299.89,3.089
300.55,3.056
301.08,3.023
301.72,2.990
302.38,2.956
303.05,2.923
303.71,2.890
304.38,2.857
304.88,2.824
305.37,2.790
305.87,2.757
306.37,2.724
307.04,2.691
307.53,2.658
308.03,2.624
308.53,2.591
309.03,2.554
309.36,2.516
309.86,2.483
310.36,2.450
##END=
