##TITLE=4,4'-Dimethylbiphenyl
##JCAMP-DX=4.24
##DATA TYPE=UV/VIS SPECTRUM
##ORIGIN=INSTITUTE OF ENERGY PROBLEMS OF CHEMICAL PHYSICS, RAS
##OWNER=INEP CP RAS, NIST OSRD
Collection (C) 2007 copyright by the U.S. Secretary of Commerce
on behalf of the United States of America. All rights reserved.
##CAS REGISTRY NO=613-33-2
##MOLFORM=C14H14
##MP=129
##BP=295
##SOURCE REFERENCE=RAS UV No. 6248
##$NIST SQUIB=1958AND/TOK351-355
##$NIST SOURCE=TSGMTE
##SPECTROMETER/DATA SYSTEM=Beckman DU
##XUNITS=Wavelength (nm)
##YUNITS=Logarithm epsilon
##XFACTOR=1.000000
##YFACTOR=1.000000
##FIRSTX=214.7427
##LASTX=297.1154
##FIRSTY=4.33079
##MAXX=297.115
##MINX=214.743
##MAXY=4.33079
##MINY=2.1149
##NPOINTS=309
##$REF AUTHOR=Ando, T.; Tokura, N.
##$REF TITLE=Benzylation of acetylene. II. On the structure and oxidation of 3-benzyl-3,4-diphenyl-1-butyne
##$REF JOURNAL=Bull. Chem. Soc. Jpn.
##$REF VOLUME=31
##$REF PAGE=351-355
##$REF DATE=1958
##XYPOINTS=(XY..XY)
214.7427,4.330787
214.8240,4.326484
214.9549,4.325370
214.9549,4.325370
214.9859,4.321084
215.0408,4.316075
215.1143,4.310585
215.2016,4.304865
215.2975,4.299181
215.3970,4.293811
215.4950,4.289048
215.5867,4.285195
215.6668,4.282560
215.7304,4.281450
215.7304,4.281450
215.8108,4.277127
215.8916,4.272758
215.9728,4.268343
216.0543,4.263880
216.1362,4.259370
216.2185,4.254810
216.3010,4.250200
216.3839,4.245539
216.4669,4.240825
216.5503,4.236058
216.6338,4.231236
216.7176,4.226359
216.8015,4.221425
216.8856,4.216432
216.9698,4.211380
217.0541,4.206267
217.1385,4.201092
217.2230,4.195853
217.3076,4.190549
217.3921,4.185178
217.4767,4.179739
217.5612,4.174229
217.6457,4.168648
217.7301,4.162993
217.8145,4.157262
217.8988,4.151454
217.9829,4.145566
218.0669,4.139596
218.1507,4.133543
218.2343,4.127403
218.3177,4.121175
218.4009,4.114855
218.4838,4.108442
218.5664,4.101932
218.6487,4.095323
218.7308,4.088612
218.8124,4.081795
218.8938,4.074870
218.9747,4.067832
219.0552,4.060678
219.1353,4.053405
219.2150,4.046008
219.2941,4.038484
219.3728,4.030827
219.4510,4.023033
219.5286,4.015098
219.6057,4.007016
219.6822,3.998782
219.7581,3.990389
219.8334,3.981833
219.9080,3.973106
219.9820,3.964201
220.0552,3.955112
220.1278,3.945830
220.1996,3.936347
220.2707,3.926655
220.3410,3.916743
220.4105,3.906603
220.4105,3.906603
220.6184,3.898751
220.9205,3.882468
221.2375,3.864642
221.4896,3.853190
221.4896,3.853190
221.6629,3.843417
221.8517,3.832376
222.0588,3.820182
222.2870,3.806960
222.5388,3.792848
222.8172,3.778000
223.1247,3.762594
223.4643,3.746835
223.8385,3.730963
224.2501,3.715253
224.7019,3.700021
225.1966,3.685624
225.7369,3.672461
226.3256,3.660964
226.3256,3.660964
226.8015,3.661505
227.2811,3.661976
227.7680,3.662307
227.7680,3.662307
228.4232,3.677432
229.0358,3.692901
229.6091,3.708540
230.1465,3.724195
230.6514,3.739733
231.1270,3.755039
231.5768,3.770012
232.0040,3.784567
232.4122,3.798630
232.8046,3.812138
233.1846,3.825034
233.5555,3.837270
233.5555,3.837270
233.8444,3.849085
234.1314,3.860610
234.4165,3.871857
234.6998,3.882839
234.9813,3.893565
235.2609,3.904048
235.5388,3.914296
235.8150,3.924319
236.0893,3.934124
236.3619,3.943721
236.6328,3.953116
236.9019,3.962317
237.1693,3.971331
237.4350,3.980163
237.6990,3.988820
237.9613,3.997307
238.2220,4.005629
238.4810,4.013792
238.7383,4.021801
238.9941,4.029660
239.2482,4.037373
239.5007,4.044944
239.7516,4.052377
240.0009,4.059677
240.2487,4.066846
240.4949,4.073888
240.7396,4.080807
240.9827,4.087604
240.9827,4.087604
241.3361,4.096313
241.7476,4.108007
242.0443,4.114436
242.0443,4.114436
242.3954,4.124488
242.7185,4.133192
243.0167,4.140788
243.2931,4.147490
243.5506,4.153499
243.7924,4.158998
244.0214,4.164162
244.2408,4.169155
244.4535,4.174136
244.6627,4.179253
244.6627,4.179253
244.8450,4.181809
245.0440,4.185916
245.2822,4.189350
245.2822,4.189350
245.4586,4.194761
245.6425,4.200115
245.8342,4.205411
246.0341,4.210647
246.2423,4.215821
246.4591,4.220932
246.6847,4.225979
246.9195,4.230961
247.1636,4.235875
247.4173,4.240721
247.6809,4.245499
247.9547,4.250206
248.2388,4.254842
248.5336,4.259405
248.8392,4.263896
249.1560,4.268314
249.4842,4.272656
249.8241,4.276923
250.1758,4.281114
250.5397,4.285229
250.9161,4.289266
251.3051,4.293224
251.3051,4.293224
251.8451,4.296819
252.3715,4.300227
252.8991,4.303324
253.4430,4.305991
254.0179,4.308109
254.6389,4.309559
255.3208,4.310224
256.0786,4.309981
256.9272,4.308702
257.8815,4.306253
257.8815,4.306253
258.6588,4.300648
259.4397,4.294954
260.2279,4.289152
260.2279,4.289152
260.3982,4.286795
260.5968,4.284225
260.8261,4.281371
261.0886,4.278158
261.3868,4.274509
261.7231,4.270343
262.1001,4.265575
262.5201,4.260115
262.9857,4.253863
263.4993,4.246713
264.0634,4.238546
264.0634,4.238546
264.1709,4.235972
264.2708,4.233616
264.3705,4.231345
264.4776,4.229024
264.5996,4.226517
264.7440,4.223682
264.9184,4.220372
265.1302,4.216439
265.3869,4.211722
265.6962,4.206052
266.0654,4.199247
266.5022,4.191105
267.0140,4.181399
267.6084,4.169869
268.2929,4.156212
268.2929,4.156212
268.4968,4.150529
268.7147,4.144736
268.9454,4.138834
269.1881,4.132824
269.4416,4.126707
269.7051,4.120482
269.9775,4.114152
270.2579,4.107716
270.5452,4.101176
270.8385,4.094534
271.1367,4.087789
271.4389,4.080945
271.7440,4.074001
272.0511,4.066960
272.3593,4.059824
272.6674,4.052595
272.9745,4.045275
273.2796,4.037866
273.5818,4.030371
273.8799,4.022793
274.1731,4.015135
274.1731,4.015135
274.4316,4.006735
274.7080,3.998124
274.9976,3.989297
275.2962,3.980245
275.5992,3.970962
275.9021,3.961439
276.2006,3.951667
276.4901,3.941636
276.7662,3.931338
277.0245,3.920761
277.2605,3.909894
277.4697,3.898724
277.6477,3.887239
277.7900,3.875423
277.8923,3.863262
277.8923,3.863262
278.0070,3.863252
278.1216,3.863242
278.2363,3.863231
278.2363,3.863231
278.4954,3.851969
278.7635,3.840436
279.0400,3.828616
279.3246,3.816492
279.6170,3.804045
279.9167,3.791256
280.2233,3.778103
280.5364,3.764561
280.8557,3.750603
281.1807,3.736201
281.5111,3.721324
281.8464,3.705934
282.1863,3.689994
282.5303,3.673458
282.8781,3.656278
283.2293,3.638398
283.5834,3.619756
283.9402,3.600280
284.2991,3.579890
284.6598,3.558491
285.0219,3.535976
285.3850,3.512219
285.7487,3.487071
286.1126,3.460356
286.4763,3.431863
286.8394,3.401336
287.2016,3.368459
287.5624,3.332839
287.5624,3.332839
288.0787,3.293982
288.6088,3.250874
289.1606,3.202972
289.7420,3.149582
290.3608,3.089800
291.0250,3.022418
291.7425,2.945777
292.5210,2.857503
293.3686,2.754024
293.3686,2.754024
294.5873,2.621761
295.8885,2.429681
297.1154,2.114903
##END=
