##TITLE=2-Aminoanthracene
##JCAMP-DX=4.24
##DATA TYPE=UV/VIS SPECTRUM
##ORIGIN=INSTITUTE OF ENERGY PROBLEMS OF CHEMICAL PHYSICS, RAS
##OWNER=INEP CP RAS, NIST OSRD
Collection (C) 2007 copyright by the U.S. Secretary of Commerce
on behalf of the United States of America. All rights reserved.
##CAS REGISTRY NO=613-13-8
##MOLFORM=C14H11N
##MP=238.8
##BP=sub
##SOURCE REFERENCE=RAS UV No. 363
##$NIST SQUIB=1960PER872-874
##$NIST SOURCE=TSGMTE
##SPECTROMETER/DATA SYSTEM=n.i.g.
##XUNITS=Wavelength (nm)
##YUNITS=Logarithm epsilon
##XFACTOR=1.000000
##YFACTOR=1.000000
##FIRSTX=242.0663
##LASTX=450.5243
##FIRSTY=4.62695
##MAXX=450.524
##MINX=242.066
##MAXY=4.83442
##MINY=2.90034
##NPOINTS=412
##$REF AUTHOR=Perronnet, J.
##$REF TITLE=Obtention de derives nitres du mesodiphenyl-anthracene a partir du produit d'addition des vapeurs nitreuses. Les amines correspondantes
##$REF JOURNAL=Compt. Rend.
##$REF VOLUME=250
##$REF PAGE=872-874
##$REF DATE=1960
##XYPOINTS=(XY..XY)
242.0663,4.626952
242.2236,4.624184
242.3879,4.621269
242.5663,4.618277
244.3509,4.588900
244.5705,4.585546
244.7900,4.582119
245.0092,4.578545
246.6691,4.567986
248.3151,4.571155
249.2944,4.578563
250.0824,4.594654
250.0824,4.594654
250.3085,4.594608
250.5347,4.594562
250.7608,4.594516
250.7608,4.594516
250.9810,4.604875
251.4232,4.611232
252.1318,4.617974
253.7070,4.646666
253.7526,4.648537
253.8122,4.650259
253.8789,4.651906
255.2926,4.680630
255.3965,4.683564
255.5074,4.686423
255.6324,4.689133
256.6875,4.716282
256.7100,4.721052
256.8073,4.723682
257.0629,4.726426
257.7555,4.750022
257.7624,4.753550
257.7690,4.756931
257.7755,4.760239
258.8345,4.789365
258.9487,4.793298
259.0773,4.797228
259.2131,4.801157
260.9395,4.824543
260.9440,4.826850
260.9485,4.829157
260.9531,4.831463
262.6394,4.834416
262.8623,4.832722
263.0852,4.831028
263.3081,4.829334
264.8988,4.799997
264.9353,4.797254
264.9859,4.794362
265.0435,4.791395
267.2662,4.773041
267.3226,4.776192
267.3546,4.766856
267.5723,4.779010
269.4880,4.734111
269.5807,4.731357
269.6804,4.728455
269.7942,4.725476
271.1006,4.699494
271.3589,4.694483
271.6315,4.689397
271.9109,4.684163
273.6883,4.651160
273.7778,4.646758
273.8742,4.642208
273.9848,4.637582
275.6039,4.606261
275.6426,4.604604
275.6956,4.602945
275.7558,4.601284
276.8942,4.572039
277.0503,4.569272
277.2062,4.566358
277.3620,4.563372
280.4231,4.492852
280.5135,4.488877
280.6110,4.484901
280.7229,4.480922
282.6877,4.444584
282.9251,4.436868
283.1761,4.432372
283.6556,4.427243
284.2803,4.399751
284.5384,4.394655
284.8107,4.389410
285.0899,4.384090
286.1760,4.344635
286.3321,4.341868
286.4880,4.338954
286.6437,4.335968
287.7757,4.303427
287.9273,4.298353
288.0787,4.293132
288.2299,4.287838
289.0117,4.241522
289.0186,4.245049
289.0252,4.248430
289.0317,4.251738
289.9595,4.213964
290.1532,4.208967
290.3611,4.203894
290.5759,4.198672
291.8558,4.159178
291.8899,4.155214
291.9384,4.151248
291.9940,4.147280
292.7700,4.114483
292.8674,4.109847
292.9792,4.105208
293.0982,4.100568
293.6842,4.069787
293.7855,4.067117
293.9010,4.064370
294.0234,4.061476
294.9273,4.011508
294.9363,4.016122
294.9454,4.020735
294.9544,4.025349
295.8415,3.966813
295.8486,3.970426
295.8555,3.973965
295.8622,3.977359
296.6827,3.884877
296.7493,3.918822
296.7583,3.923436
296.7673,3.928050
296.7764,3.932663
296.9011,3.880876
297.1195,3.876875
297.3378,3.872874
298.8465,3.785198
298.8534,3.788726
298.8600,3.792107
298.8665,3.795414
299.4447,3.744194
299.5364,3.740866
299.6350,3.737464
299.7477,3.733912
300.3525,3.696203
300.4416,3.691569
300.5378,3.686934
300.6484,3.682296
301.2538,3.644917
301.4709,3.640257
301.6880,3.635597
301.9050,3.630937
302.8328,3.593163
302.9199,3.587528
303.0141,3.581818
303.1223,3.575959
304.0694,3.531587
304.0739,3.533882
304.0783,3.536104
304.0824,3.538179
304.6348,3.490260
304.8532,3.486259
305.0715,3.482259
305.2899,3.478258
306.8593,3.421560
306.8662,3.425088
306.8728,3.428469
306.8793,3.431776
307.7871,3.383786
307.9990,3.376477
308.2107,3.369095
308.4222,3.361567
308.6884,3.332499
308.7838,3.326863
308.8935,3.321150
309.0101,3.315290
309.6284,3.284502
309.7155,3.278867
309.8096,3.273158
309.9179,3.267299
310.1937,3.243175
310.4509,3.234526
310.7012,3.229688
311.1590,3.224515
313.5502,3.240842
313.6625,3.243774
313.7890,3.246630
313.9224,3.249338
315.6694,3.283269
315.6804,3.288872
315.6914,3.294474
315.7024,3.300077
316.9229,3.329171
317.0991,3.336620
317.2750,3.343923
317.4507,3.351152
319.1642,3.367947
319.6545,3.367712
319.9206,3.366718
320.1908,3.364111
323.3845,3.295212
323.3935,3.299826
323.4026,3.304440
323.4116,3.309054
325.1012,3.313655
325.2113,3.315513
325.3356,3.317221
325.4669,3.318855
326.3637,3.347685
326.4133,3.351631
326.4773,3.355574
326.5485,3.359516
327.6339,3.402155
328.2754,3.427740
329.0570,3.451538
329.7803,3.474909
331.1939,3.503633
331.3003,3.507800
331.4135,3.511819
331.5409,3.515761
332.9714,3.553054
333.1975,3.553008
333.4236,3.552962
333.6498,3.552916
335.3089,3.542027
335.3961,3.536404
335.4904,3.530780
335.5990,3.525153
336.4430,3.500779
336.5228,3.495097
336.5669,3.507812
336.8350,3.463249
336.8589,3.475442
336.8814,3.465547
336.9085,3.479389
336.9422,3.467843
336.9725,3.483332
337.0101,3.470136
337.0101,3.470136
337.0437,3.487274
337.0437,3.487274
337.6506,3.463497
337.9437,3.455464
338.1194,3.442546
338.7378,3.411758
338.8268,3.407124
338.9231,3.402489
339.0337,3.397850
340.3439,3.373845
340.4289,3.367136
340.5208,3.360280
340.6269,3.353346
341.9301,3.325716
341.9452,3.320584
342.1140,3.316960
342.5814,3.311736
343.5363,3.287803
343.7343,3.285028
343.9464,3.282103
344.1656,3.279103
346.3488,3.271734
346.5238,3.277962
346.7059,3.284189
346.9025,3.290413
347.4510,3.322941
347.5076,3.330415
347.5782,3.337739
347.6558,3.344989
348.7561,3.378722
348.7697,3.385643
348.7833,3.392564
348.7969,3.399485
349.8720,3.436850
350.3062,3.474579
350.6022,3.493067
351.0137,3.508161
354.4270,3.534829
354.5444,3.523876
354.7509,3.518107
355.1114,3.491939
355.2236,3.512577
355.2236,3.512577
355.2404,3.521145
355.2913,3.525739
355.2958,3.468823
355.3564,3.530256
355.4284,3.534625
356.2289,3.431927
356.2404,3.437761
356.2515,3.443449
356.2625,3.449064
356.2625,3.449064
356.8408,3.397843
356.9290,3.392782
357.0241,3.387573
357.1335,3.382288
357.7485,3.349853
357.7760,3.342496
357.8175,3.334990
357.8661,3.327410
358.6563,3.301862
358.8091,3.296788
358.9688,3.291566
359.1428,3.286267
359.9058,3.246878
359.9127,3.250406
359.9194,3.253787
359.9259,3.257094
361.1702,3.215958
361.1736,3.210951
361.2603,3.208199
361.5049,3.205340
363.6900,3.215444
363.9649,3.218917
364.2539,3.222241
364.5500,3.225489
366.7777,3.257345
366.9482,3.261266
367.1259,3.265186
367.3179,3.269103
370.2311,3.304445
370.2994,3.306312
370.3674,3.308032
370.4353,3.309679
373.5062,3.343011
373.8440,3.349853
374.1888,3.356621
374.5477,3.363239
377.9682,3.393532
377.9727,3.395827
377.9771,3.398048
377.9811,3.400123
380.7232,3.430555
381.2102,3.435352
381.3929,3.438819
381.4281,3.443929
385.7014,3.480642
385.8665,3.481829
386.0385,3.482868
386.2247,3.483832
390.1065,3.502162
390.4974,3.503730
390.8883,3.505299
391.2791,3.506868
394.1879,3.523418
394.5800,3.525634
394.9721,3.527776
395.3638,3.529772
398.7442,3.539633
399.3998,3.539499
400.0699,3.539362
400.7471,3.539224
404.1197,3.545130
404.4440,3.545063
404.7754,3.544996
405.1212,3.544925
407.8096,3.548003
408.1095,3.545329
408.5843,3.543864
409.6406,3.542355
412.8220,3.533133
413.1462,3.533067
413.4777,3.533000
413.8235,3.532929
416.4647,3.511949
418.5092,3.500408
419.5422,3.493103
420.4492,3.483771
422.4120,3.462930
422.9118,3.461412
423.2592,3.459118
423.7520,3.454084
428.0092,3.400135
428.3248,3.395687
428.6473,3.391091
428.9841,3.386419
431.2823,3.355288
431.5966,3.350181
431.9179,3.344926
432.2534,3.339595
433.8628,3.303330
434.1190,3.297245
434.3892,3.291011
434.6665,3.284703
436.1144,3.248471
436.3725,3.243375
436.6447,3.238130
436.9240,3.232810
438.3596,3.206801
438.4575,3.202398
438.5695,3.197844
438.6885,3.193217
440.3011,3.158600
440.3882,3.152965
440.4823,3.147255
440.5906,3.141396
442.2039,3.107109
442.4201,3.102022
442.6361,3.096788
442.8519,3.091481
444.4613,3.055216
444.5508,3.050814
444.6472,3.046264
444.7579,3.041638
446.7330,3.010574
446.8201,3.004939
446.9142,2.999229
447.0224,2.993371
448.6351,2.958753
448.8481,2.952018
449.0608,2.945137
449.2734,2.938182
450.2348,2.917545
450.3219,2.911910
450.4160,2.906201
450.5243,2.900342
##END=
