##TITLE=Anthracene, 2-methyl-
##JCAMP-DX=4.24
##DATA TYPE=UV/VIS SPECTRUM
##ORIGIN=INSTITUTE OF ENERGY PROBLEMS OF CHEMICAL PHYSICS, RAS
##OWNER=INEP CP RAS, NIST OSRD
Collection (C) 2007 copyright by the U.S. Secretary of Commerce
on behalf of the United States of America. All rights reserved.
##CAS REGISTRY NO=613-12-7
##MOLFORM=C15H12
##MP=209
##BP=sub
##SOURCE REFERENCE=RAS UV No. 3221
##$NIST SQUIB=1963SHU/AIS1284-1289
##$NIST SOURCE=TSGMTE
##SPECTROMETER/DATA SYSTEM=n.i.g.
##XUNITS=Wavelength (nm)
##YUNITS=Logarithm epsilon
##XFACTOR=1.000000
##YFACTOR=1.000000
##FIRSTX=230.0000
##LASTX=379.0000
##FIRSTY=4.13
##MAXX=379
##MINX=230
##MAXY=5.21
##MINY=2.83
##NPOINTS=150
##$REF AUTHOR=Shuikiu, N.I.; Ai-Si, Y.; Erivanskaya, L.A.
##$REF TITLE=Dehydrocyclization of 2-amylnaphthalenes in the presence of chromo-alumina catalyst and platinized coal
##$REF JOURNAL=Izv. Akad. Nauk SSSR, Ser. Khim.
##$REF PAGE=1284-1289
##$REF DATE=1963
##XYPOINTS=(XY..XY)
230.0000,4.130000
231.0000,4.180000
232.0000,4.290000
233.0000,4.350000
234.0000,4.430000
235.0000,4.480000
236.0000,4.560000
237.0000,4.600000
238.0000,4.650000
239.0000,4.690000
240.0000,4.760000
241.0000,4.800000
242.0000,4.860000
243.0000,4.900000
244.0000,4.950000
245.0000,4.970000
246.0000,5.040000
247.0000,5.070000
248.0000,5.140000
249.0000,5.170000
250.0000,5.200000
251.0000,5.190000
252.0000,5.200000
253.0000,5.200000
254.0000,5.210000
255.0000,5.190000
256.0000,4.920000
257.0000,4.740000
258.0000,4.660000
259.0000,4.560000
260.0000,4.430000
261.0000,4.350000
262.0000,4.250000
263.0000,4.110000
264.0000,3.780000
265.0000,3.690000
266.0000,3.610000
267.0000,3.560000
268.0000,3.520000
269.0000,3.480000
270.0000,3.450000
271.0000,3.410000
272.0000,3.390000
273.0000,3.360000
274.0000,3.320000
275.0000,3.290000
276.0000,3.250000
277.0000,3.160000
278.0000,3.120000
279.0000,3.060000
280.0000,3.040000
281.0000,3.000000
282.0000,2.940000
283.0000,2.920000
284.0000,2.860000
285.0000,2.840000
286.0000,2.830000
287.0000,2.830000
288.0000,2.830000
289.0000,2.830000
290.0000,2.850000
291.0000,2.860000
292.0000,2.880000
293.0000,2.890000
294.0000,2.890000
295.0000,2.890000
296.0000,2.880000
297.0000,2.880000
298.0000,2.880000
299.0000,2.880000
300.0000,2.880000
301.0000,2.920000
302.0000,2.940000
303.0000,2.950000
304.0000,2.960000
305.0000,2.990000
306.0000,3.000000
307.0000,3.030000
308.0000,3.060000
309.0000,3.080000
310.0000,3.100000
311.0000,3.120000
312.0000,3.150000
313.0000,3.160000
314.0000,3.190000
315.0000,3.210000
316.0000,3.240000
317.0000,3.260000
318.0000,3.290000
319.0000,3.310000
320.0000,3.340000
321.0000,3.350000
322.0000,3.380000
323.0000,3.410000
324.0000,3.430000
325.0000,3.460000
326.0000,3.470000
327.0000,3.490000
328.0000,3.500000
329.0000,3.510000
330.0000,3.520000
331.0000,3.530000
332.0000,3.540000
333.0000,3.560000
334.0000,3.580000
335.0000,3.600000
336.0000,3.620000
337.0000,3.630000
338.0000,3.650000
339.0000,3.650000
340.0000,3.660000
341.0000,3.650000
342.0000,3.630000
343.0000,3.630000
344.0000,3.640000
345.0000,3.640000
346.0000,3.660000
347.0000,3.680000
348.0000,3.700000
349.0000,3.710000
350.0000,3.730000
351.0000,3.770000
352.0000,3.770000
353.0000,3.780000
354.0000,3.770000
355.0000,3.750000
356.0000,3.710000
357.0000,3.650000
358.0000,3.620000
359.0000,3.570000
360.0000,3.540000
361.0000,3.510000
362.0000,3.480000
363.0000,3.460000
364.0000,3.450000
365.0000,3.450000
366.0000,3.460000
367.0000,3.460000
368.0000,3.460000
369.0000,3.490000
370.0000,3.520000
371.0000,3.550000
372.0000,3.600000
373.0000,3.620000
374.0000,3.670000
375.0000,3.680000
376.0000,3.690000
377.0000,3.690000
378.0000,3.680000
379.0000,3.600000
##END=
