##TITLE=3-[(4-amino-2-pyrimidinyl)thio]propanamide
##JCAMP-DX=4.24
##DATA TYPE=UV/VIS SPECTRUM
##ORIGIN=INSTITUTE OF ENERGY PROBLEMS OF CHEMICAL PHYSICS, RAS
##OWNER=INEP CP RAS, NIST OSRD
Collection (C) 2007 copyright by the U.S. Secretary of Commerce
on behalf of the United States of America. All rights reserved.
##CAS REGISTRY NO=61445-76-9
##MOLFORM=C7H10N4OS
##MP=170
##SOURCE REFERENCE=RAS UV No. 22754
##$NIST SQUIB=1976KRO/3615
##$NIST SOURCE=TYUGLMTE
##SPECTROMETER/DATA SYSTEM=Zeiss PMQ II
##XUNITS=Wavelength (nm)
##YUNITS=Logarithm epsilon
##XFACTOR=1.0
##YFACTOR=1.0
##FIRSTX=201.053
##LASTX=312.801
##FIRSTY=4.098
##MAXX=312.801
##MINX=201.053
##MAXY=4.178
##MINY=2.901
##NPOINTS=115
##$REF AUTHOR=Kroger, M.; et al.
##$REF JOURNAL=Chem. Ber.
##$REF VOLUME=109
##$REF PAGE=3615
##$REF DATE=1976
##XYPOINTS=(XY..XY)
201.053,4.098
202.053,4.075
203.053,4.056
204.053,4.041
205.053,4.031
206.053,4.024
207.053,4.020
208.053,4.020
209.053,4.023
210.053,4.028
211.053,4.036
212.053,4.046
213.053,4.057
214.053,4.069
215.053,4.082
216.053,4.095
217.053,4.108
218.053,4.121
219.053,4.133
220.053,4.145
221.053,4.155
222.053,4.163
223.053,4.170
224.053,4.175
225.053,4.177
226.053,4.178
227.053,4.177
228.053,4.173
229.053,4.168
230.053,4.161
231.053,4.151
232.053,4.141
233.053,4.129
234.053,4.116
235.053,4.102
236.053,4.089
237.053,4.075
238.053,4.063
239.053,4.052
239.466,4.048
240.466,4.039
241.466,4.034
242.466,4.031
243.466,4.030
244.466,4.029
245.466,4.029
246.466,4.027
247.466,4.024
248.466,4.019
249.466,4.012
250.466,4.003
251.466,3.992
252.466,3.979
253.466,3.965
254.466,3.948
255.466,3.931
256.466,3.912
257.466,3.893
258.466,3.875
259.466,3.856
260.466,3.838
261.466,3.822
262.466,3.807
263.466,3.794
264.466,3.783
265.466,3.775
266.466,3.770
267.466,3.767
268.466,3.766
269.466,3.768
270.466,3.772
271.466,3.777
272.466,3.782
272.508,3.784
273.508,3.787
274.508,3.790
275.508,3.793
276.508,3.796
277.508,3.798
278.508,3.799
279.508,3.800
280.508,3.799
281.508,3.797
282.508,3.793
283.508,3.788
284.508,3.781
285.508,3.772
286.508,3.762
287.508,3.750
288.508,3.736
289.508,3.719
290.508,3.701
291.508,3.680
292.508,3.657
293.508,3.632
294.508,3.603
295.508,3.572
296.508,3.538
297.350,3.505
298.350,3.470
299.350,3.428
300.350,3.378
301.350,3.322
302.350,3.261
303.350,3.199
304.350,3.139
304.801,3.116
305.801,3.068
306.801,3.026
307.801,2.992
308.801,2.964
309.801,2.943
310.801,2.926
311.801,2.913
312.801,2.901
##END=
