##TITLE=1-nitroso-1-phenylhydrazine
##JCAMP-DX=4.24
##DATA TYPE=UV/VIS SPECTRUM
##ORIGIN=INSTITUTE OF ENERGY PROBLEMS OF CHEMICAL PHYSICS, RAS
##OWNER=INEP CP RAS, NIST OSRD
Collection (C) 2007 copyright by the U.S. Secretary of Commerce
on behalf of the United States of America. All rights reserved.
##CAS REGISTRY NO=614-01-7
##MOLFORM=C6H7N3O
##MP=51
##SOURCE REFERENCE=RAS UV No. 23335
##$NIST SQUIB=1976BEL/412
##$NIST SOURCE=TYUGLMTE
##SPECTROMETER/DATA SYSTEM=unknown
##XUNITS=Wavelength (nm)
##YUNITS=Logarithm epsilon
##XFACTOR=1.0
##YFACTOR=1.0
##FIRSTX=218.094
##LASTX=332.795
##FIRSTY=3.891
##MAXX=332.795
##MINX=218.094
##MAXY=3.891
##MINY=3.106
##NPOINTS=117
##$REF AUTHOR=Belyaev, E.Yu.; et al.
##$REF JOURNAL=Zhur. Organ. Khim.
##$REF VOLUME=12
##$REF PAGE=412
##$REF DATE=1976
##XYPOINTS=(XY..XY)
218.094,3.891
219.094,3.886
220.094,3.879
221.094,3.870
222.094,3.857
223.094,3.838
224.094,3.814
225.094,3.784
226.094,3.749
227.094,3.709
228.094,3.665
229.094,3.619
230.081,3.572
231.081,3.528
232.081,3.482
233.081,3.439
234.081,3.402
235.138,3.376
236.138,3.363
237.138,3.353
238.138,3.347
239.138,3.345
240.138,3.346
241.138,3.351
242.138,3.358
243.138,3.369
244.138,3.382
245.138,3.399
246.138,3.417
247.138,3.438
248.138,3.461
249.138,3.486
250.138,3.512
250.919,3.531
251.919,3.565
252.919,3.595
253.919,3.620
254.919,3.642
255.919,3.663
256.919,3.681
257.919,3.698
258.919,3.714
259.919,3.729
260.919,3.743
261.919,3.756
262.919,3.769
263.919,3.782
264.919,3.793
265.919,3.804
266.919,3.815
267.919,3.825
268.806,3.833
269.806,3.843
270.806,3.852
271.806,3.860
272.806,3.866
273.806,3.872
274.806,3.878
275.806,3.882
276.806,3.885
277.806,3.887
278.806,3.889
279.806,3.889
280.806,3.889
281.806,3.887
282.806,3.885
283.806,3.882
284.806,3.878
285.806,3.873
286.806,3.868
287.806,3.862
288.806,3.854
289.806,3.847
290.806,3.838
291.806,3.829
292.806,3.819
293.806,3.809
294.806,3.798
295.806,3.787
296.806,3.775
296.836,3.773
297.836,3.763
298.836,3.751
299.836,3.737
300.836,3.723
301.836,3.708
302.836,3.691
303.836,3.674
304.836,3.656
305.836,3.638
306.836,3.619
307.836,3.599
308.836,3.579
309.836,3.559
310.836,3.539
311.836,3.518
312.836,3.498
313.836,3.477
314.836,3.457
315.836,3.436
316.836,3.416
317.836,3.397
318.780,3.378
319.780,3.361
320.780,3.338
321.780,3.314
322.780,3.292
323.780,3.271
324.780,3.253
325.780,3.236
326.780,3.220
327.780,3.203
328.780,3.184
329.780,3.163
330.780,3.141
331.780,3.120
332.795,3.106
##END=
