##TITLE=2-acetyl-6,8-diethoxy-1-hydroxy-3-methylanthraquinone
##JCAMP-DX=4.24
##DATA TYPE=UV/VIS SPECTRUM
##ORIGIN=INSTITUTE OF ENERGY PROBLEMS OF CHEMICAL PHYSICS, RAS
##OWNER=INEP CP RAS, NIST OSRD
Collection (C) 2007 copyright by the U.S. Secretary of Commerce
on behalf of the United States of America. All rights reserved.
##CAS REGISTRY NO=61530-11-8
##MOLFORM=C21H20O6
##MP=202-203
##BP=sub. 190/ 0.1 Pa
##SOURCE REFERENCE=RAS UV No. 22214
##$NIST SQUIB=1978CAM/1363
##$NIST SOURCE=TYUGLMTE
##SPECTROMETER/DATA SYSTEM=unknown
##XUNITS=Wavelength (nm)
##YUNITS=Logarithm epsilon
##XFACTOR=1.0
##YFACTOR=1.0
##FIRSTX=215.72
##LASTX=475.652
##FIRSTY=4.34
##MAXX=475.652
##MINX=215.72
##MAXY=4.432
##MINY=3.486
##NPOINTS=108
##$REF AUTHOR=Cameron, D.W.; et al.
##$REF JOURNAL=Austral. J. Chem.
##$REF VOLUME=31
##$REF PAGE=1363
##$REF DATE=1978
##XYPOINTS=(XY..XY)
215.720,4.340
218.094,4.366
220.863,4.389
223.633,4.409
226.244,4.423
229.963,4.432
233.524,4.424
236.689,4.409
238.667,4.382
240.645,4.355
242.623,4.328
244.602,4.301
246.975,4.275
250.140,4.255
253.305,4.240
256.866,4.240
260.427,4.252
263.196,4.271
265.966,4.290
269.131,4.305
272.692,4.317
276.252,4.324
279.022,4.344
282.187,4.355
285.748,4.355
288.913,4.340
291.682,4.317
294.056,4.290
295.638,4.259
297.617,4.229
299.199,4.198
300.386,4.167
301.969,4.137
303.156,4.106
304.738,4.076
305.925,4.045
306.716,4.010
307.507,3.976
308.694,3.942
309.486,3.907
310.673,3.873
311.464,3.838
312.651,3.804
313.442,3.769
314.629,3.735
315.420,3.700
316.607,3.670
317.003,3.635
318.190,3.605
319.377,3.574
320.959,3.543
323.333,3.517
326.498,3.501
330.059,3.490
333.619,3.490
337.180,3.494
340.741,3.501
344.302,3.509
347.862,3.517
351.423,3.524
354.588,3.536
357.753,3.547
360.918,3.559
364.083,3.574
367.248,3.589
370.413,3.605
373.183,3.624
376.348,3.643
379.117,3.662
381.887,3.685
384.656,3.704
387.426,3.723
390.195,3.746
392.965,3.766
395.734,3.788
398.504,3.811
401.273,3.831
404.042,3.854
406.812,3.873
409.581,3.896
412.351,3.915
415.120,3.934
418.285,3.953
421.450,3.968
424.615,3.984
428.176,3.995
431.737,4.003
435.298,4.003
438.858,3.999
442.023,3.988
445.188,3.972
447.958,3.953
450.727,3.930
453.101,3.903
455.079,3.877
457.058,3.850
459.036,3.823
461.014,3.792
462.992,3.762
464.575,3.731
466.157,3.700
468.135,3.670
469.322,3.639
470.509,3.609
472.092,3.578
473.279,3.547
474.465,3.517
475.652,3.486
##END=
