##TITLE=2-methylbenzimidazole
##JCAMP-DX=4.24
##DATA TYPE=UV/VIS SPECTRUM
##ORIGIN=INSTITUTE OF ENERGY PROBLEMS OF CHEMICAL PHYSICS, RAS
##OWNER=INEP CP RAS, NIST OSRD
Collection (C) 2007 copyright by the U.S. Secretary of Commerce
on behalf of the United States of America. All rights reserved.
##CAS REGISTRY NO=615-15-6
##MOLFORM=C8H8N2
##SOURCE REFERENCE=RAS UV No. 16881
##$NIST SQUIB=1986KRI/1917
##$NIST SOURCE=TYUGLMTE
##XUNITS=Wavelength (nm)
##YUNITS=Logarithm epsilon
##XFACTOR=1.0
##YFACTOR=1.0
##FIRSTX=190.17
##LASTX=286.13
##FIRSTY=3.616
##MAXX=286.13
##MINX=190.17
##MAXY=4.548
##MINY=2.629
##NPOINTS=448
##$REF AUTHOR=Krishnamurthy, M.; et al.
##$REF JOURNAL=J. Chem. Soc., Perkin II
##$REF VOLUME=II
##$REF PAGE=1917
##$REF DATE=1986
##XYPOINTS=(XY..XY)
190.17,3.616
190.26,3.618
190.34,3.621
190.43,3.632
190.68,3.655
190.94,3.672
191.19,3.700
191.45,3.732
191.70,3.754
191.96,3.783
192.21,3.809
192.47,3.845
192.72,3.867
192.98,3.901
193.23,3.924
193.49,3.959
193.74,3.989
194.00,4.005
194.25,4.037
194.51,4.080
194.76,4.104
195.02,4.135
195.27,4.155
195.53,4.176
195.79,4.214
196.04,4.246
196.30,4.275
196.55,4.304
197.06,4.359
197.15,4.376
197.23,4.379
197.32,4.388
197.40,4.392
197.49,4.404
197.57,4.419
197.66,4.422
197.74,4.429
197.83,4.431
197.91,4.433
198.00,4.438
198.08,4.449
198.17,4.455
198.25,4.457
198.34,4.457
198.42,4.467
198.51,4.479
198.59,4.480
198.68,4.481
198.76,4.486
198.85,4.487
198.93,4.495
199.02,4.498
199.10,4.501
199.19,4.508
199.27,4.510
199.36,4.514
199.44,4.517
199.53,4.520
199.61,4.522
199.70,4.527
199.78,4.530
199.87,4.532
199.95,4.538
200.04,4.540
200.12,4.541
200.21,4.543
200.29,4.544
200.38,4.545
200.46,4.545
200.55,4.546
200.63,4.546
200.72,4.547
200.80,4.547
200.89,4.547
200.97,4.547
201.06,4.548
201.14,4.548
201.23,4.548
201.31,4.548
201.40,4.548
201.49,4.547
201.57,4.547
201.66,4.547
201.74,4.546
201.83,4.546
201.91,4.545
202.00,4.543
202.08,4.543
202.17,4.542
202.25,4.540
202.34,4.538
202.42,4.538
202.51,4.538
202.59,4.535
202.68,4.533
202.76,4.531
202.85,4.529
202.93,4.527
203.02,4.525
203.10,4.522
203.19,4.519
203.27,4.514
203.36,4.510
203.44,4.508
203.53,4.506
203.61,4.502
203.70,4.497
203.78,4.494
203.87,4.490
203.95,4.485
204.04,4.483
204.12,4.479
204.21,4.474
204.29,4.471
204.38,4.471
204.46,4.471
204.55,4.466
204.63,4.460
204.72,4.455
204.80,4.449
204.89,4.444
204.97,4.439
205.06,4.436
205.14,4.436
205.23,4.432
205.31,4.424
205.40,4.418
205.48,4.412
205.57,4.410
205.65,4.402
205.74,4.399
205.82,4.398
205.91,4.397
205.99,4.391
206.08,4.389
206.16,4.383
206.25,4.371
206.33,4.368
206.42,4.360
206.50,4.349
206.59,4.343
207.78,4.264
208.04,4.241
208.29,4.206
208.55,4.180
208.80,4.163
209.06,4.148
209.31,4.134
209.57,4.115
209.82,4.100
210.08,4.074
210.33,4.063
210.59,4.048
210.84,4.037
211.10,4.024
211.35,4.009
211.61,3.995
211.86,3.978
212.12,3.965
212.37,3.950
212.63,3.935
212.89,3.927
213.14,3.915
213.40,3.900
213.65,3.889
213.91,3.877
214.16,3.867
214.42,3.854
214.67,3.842
214.93,3.830
215.18,3.817
215.44,3.806
215.69,3.794
215.95,3.779
216.20,3.766
216.46,3.752
216.71,3.742
216.97,3.727
217.22,3.716
217.48,3.696
217.73,3.686
217.99,3.668
218.24,3.655
218.50,3.641
218.76,3.623
219.01,3.611
219.27,3.599
219.52,3.589
219.78,3.581
220.03,3.571
220.29,3.560
220.54,3.549
220.80,3.540
221.05,3.532
221.31,3.526
221.56,3.517
221.82,3.511
222.07,3.508
222.33,3.499
222.58,3.499
222.84,3.495
223.09,3.489
223.35,3.483
223.60,3.479
223.86,3.479
224.11,3.476
224.37,3.476
224.63,3.476
224.88,3.473
225.14,3.473
225.39,3.473
225.90,3.476
226.16,3.479
226.41,3.479
226.67,3.483
226.92,3.486
227.18,3.492
227.43,3.495
227.69,3.499
227.94,3.505
228.20,3.511
228.45,3.517
228.71,3.526
228.96,3.529
229.22,3.535
229.47,3.543
229.73,3.546
229.99,3.554
230.24,3.560
230.50,3.568
230.75,3.573
231.01,3.581
231.26,3.586
231.52,3.594
231.77,3.601
232.03,3.614
232.28,3.618
232.54,3.628
232.79,3.635
233.05,3.646
233.30,3.652
233.56,3.661
233.81,3.666
234.07,3.672
234.32,3.676
234.58,3.682
234.83,3.688
235.09,3.692
235.34,3.696
235.60,3.702
235.86,3.708
236.11,3.710
236.37,3.714
236.62,3.720
236.88,3.723
237.13,3.727
237.39,3.731
237.64,3.734
237.90,3.738
238.15,3.742
238.41,3.743
238.66,3.747
238.92,3.747
239.17,3.750
239.43,3.750
239.68,3.750
239.94,3.750
240.19,3.752
240.45,3.754
240.70,3.754
240.96,3.752
241.21,3.750
241.47,3.750
241.73,3.750
241.98,3.750
242.24,3.749
242.49,3.749
242.75,3.749
243.00,3.747
243.26,3.745
243.51,3.745
243.77,3.742
244.02,3.742
244.28,3.740
244.53,3.740
244.79,3.732
245.04,3.732
245.30,3.731
245.55,3.727
245.81,3.725
246.06,3.721
246.32,3.720
246.57,3.716
246.83,3.712
247.09,3.710
247.34,3.704
247.60,3.700
247.85,3.692
248.11,3.686
248.36,3.682
248.62,3.674
248.87,3.668
249.13,3.657
249.38,3.644
249.64,3.635
249.89,3.628
250.15,3.611
250.40,3.599
250.66,3.589
250.91,3.573
251.17,3.562
251.42,3.549
251.68,3.535
251.93,3.523
252.19,3.514
252.44,3.505
252.70,3.499
252.96,3.486
253.21,3.479
253.47,3.470
253.72,3.466
253.98,3.459
254.23,3.452
254.49,3.452
254.74,3.449
255.00,3.449
255.25,3.445
255.51,3.438
255.76,3.438
256.02,3.438
256.27,3.438
256.53,3.442
256.78,3.445
257.04,3.449
257.29,3.452
257.55,3.459
257.80,3.466
258.06,3.470
258.31,3.476
258.57,3.486
258.83,3.495
259.08,3.502
259.34,3.511
259.59,3.520
259.85,3.526
260.10,3.535
260.36,3.540
260.61,3.549
260.87,3.557
261.12,3.565
261.38,3.573
261.63,3.581
261.89,3.591
262.14,3.601
262.40,3.606
262.65,3.614
262.91,3.621
263.16,3.630
263.42,3.639
263.67,3.648
263.93,3.655
264.19,3.666
264.44,3.676
264.70,3.684
264.95,3.690
265.21,3.694
265.46,3.702
265.72,3.708
265.97,3.716
266.23,3.727
266.48,3.734
266.74,3.743
266.99,3.750
267.25,3.759
267.50,3.768
267.76,3.774
268.01,3.786
268.27,3.792
268.52,3.800
268.78,3.809
269.03,3.817
269.29,3.824
269.54,3.829
269.80,3.833
270.06,3.836
270.31,3.837
270.57,3.836
270.82,3.830
271.08,3.821
271.33,3.809
271.59,3.792
271.84,3.778
272.10,3.768
272.35,3.757
272.61,3.742
272.86,3.731
273.12,3.721
273.37,3.710
273.63,3.702
273.88,3.696
274.14,3.690
274.39,3.688
274.65,3.690
274.90,3.692
275.16,3.698
275.41,3.710
275.67,3.727
275.93,3.745
276.18,3.756
276.44,3.771
276.69,3.781
276.95,3.794
277.20,3.800
277.46,3.812
277.71,3.817
277.97,3.821
278.22,3.821
278.48,3.820
278.73,3.814
278.99,3.802
279.24,3.779
279.50,3.738
279.75,3.700
280.01,3.666
280.26,3.625
280.52,3.579
280.77,3.529
281.03,3.466
281.29,3.401
281.54,3.368
281.80,3.333
282.05,3.290
282.31,3.253
282.56,3.218
282.82,3.181
283.07,3.154
283.33,3.110
283.58,3.070
283.84,3.035
284.09,2.997
284.35,2.944
284.60,2.897
284.86,2.871
285.11,2.815
285.37,2.749
285.62,2.713
285.88,2.629
286.13,2.629
##END=
