##TITLE=9,10-dihydro-2-acridinamine
##JCAMP-DX=4.24
##DATA TYPE=UV/VIS SPECTRUM
##ORIGIN=INSTITUTE OF ENERGY PROBLEMS OF CHEMICAL PHYSICS, RAS
##OWNER=INEP CP RAS, NIST OSRD
Collection (C) 2007 copyright by the U.S. Secretary of Commerce
on behalf of the United States of America. All rights reserved.
##CAS REGISTRY NO=61639-26-7
##MOLFORM=C13H12N2
##MP=184-185
##SOURCE REFERENCE=RAS UV No. 22911
##$NIST SQUIB=1976KOV/2349
##$NIST SOURCE=TYUGLMTE
##SPECTROMETER/DATA SYSTEM=Perkin-Elmer 402
##XUNITS=Wavelength (nm)
##YUNITS=Logarithm epsilon
##XFACTOR=1.0
##YFACTOR=1.0
##FIRSTX=209.713
##LASTX=391.968
##FIRSTY=4.603
##MAXX=391.968
##MINX=209.713
##MAXY=4.603
##MINY=1.574
##NPOINTS=123
##$REF AUTHOR=Kovalev, B.A.; et al.
##$REF JOURNAL=Zhur. Obshchei Khim.
##$REF VOLUME=46
##$REF PAGE=2349
##$REF DATE=1976
##XYPOINTS=(XY..XY)
209.713,4.603
211.213,4.574
212.713,4.537
214.213,4.492
215.713,4.438
217.213,4.375
218.713,4.305
220.213,4.230
221.713,4.153
223.213,4.076
224.713,4.000
226.213,3.929
227.713,3.863
229.213,3.803
230.713,3.752
232.213,3.709
233.713,3.674
235.213,3.647
236.418,3.627
237.918,3.616
239.418,3.607
240.918,3.599
242.418,3.590
243.918,3.582
245.418,3.573
246.918,3.565
248.418,3.557
249.918,3.552
251.418,3.549
252.918,3.550
254.418,3.553
255.918,3.561
257.418,3.571
258.918,3.585
260.418,3.602
261.918,3.620
263.418,3.639
264.918,3.658
266.414,3.685
267.914,3.712
269.414,3.740
270.914,3.770
272.414,3.800
273.914,3.831
275.414,3.861
276.914,3.890
278.414,3.918
279.914,3.943
281.414,3.966
282.914,3.987
284.414,4.004
285.914,4.018
287.244,4.024
288.744,4.038
290.244,4.047
291.744,4.053
293.244,4.056
294.744,4.057
296.244,4.058
297.744,4.056
299.244,4.053
300.744,4.047
302.244,4.038
303.744,4.026
305.244,4.009
306.744,3.988
308.244,3.962
309.744,3.931
311.244,3.894
312.744,3.853
314.244,3.807
315.744,3.758
317.244,3.707
318.744,3.654
320.244,3.601
321.744,3.550
323.244,3.501
324.744,3.457
326.244,3.417
327.732,3.383
329.232,3.355
330.732,3.335
332.232,3.320
333.732,3.305
335.232,3.291
336.732,3.275
338.232,3.259
339.732,3.241
341.232,3.221
342.732,3.202
344.232,3.182
345.732,3.162
347.232,3.141
348.732,3.121
350.232,3.100
351.732,3.077
353.232,3.053
354.732,3.025
356.232,2.994
357.732,2.958
359.232,2.917
360.468,2.876
361.968,2.832
363.468,2.785
364.968,2.735
366.468,2.681
367.968,2.625
369.468,2.565
370.968,2.504
372.468,2.441
373.968,2.376
375.468,2.311
376.968,2.244
378.468,2.178
379.968,2.112
381.468,2.046
382.968,1.980
384.468,1.915
385.968,1.850
387.468,1.785
388.968,1.718
390.468,1.649
391.968,1.574
##END=
