##TITLE=N,N-bis(phenylmethyl)benzenecarbothiamide, S-oxide
##JCAMP-DX=4.24
##DATA TYPE=UV/VIS SPECTRUM
##ORIGIN=INSTITUTE OF ENERGY PROBLEMS OF CHEMICAL PHYSICS, RAS
##OWNER=INEP CP RAS, NIST OSRD
Collection (C) 2007 copyright by the U.S. Secretary of Commerce
on behalf of the United States of America. All rights reserved.
##CAS REGISTRY NO=61821-39-4
##MOLFORM=C21H19NOS
##MP=102-105
##SOURCE REFERENCE=RAS UV No. 22663
##$NIST SQUIB=1977WAL/BAU407
##$NIST SOURCE=TYUGLMTE
##SPECTROMETER/DATA SYSTEM=unknown
##XUNITS=Wavelength (nm)
##YUNITS=Logarithm epsilon
##XFACTOR=1.0
##YFACTOR=1.0
##FIRSTX=291.528
##LASTX=392.361
##FIRSTY=3.622
##MAXX=392.361
##MINX=291.528
##MAXY=3.833
##MINY=3.041
##NPOINTS=103
##$REF AUTHOR=Walter, W.; Bauer, O.H.
##$REF JOURNAL=Liebigs Ann. Chem.
##$REF PAGE=407
##$REF DATE=1977
##XYPOINTS=(XY..XY)
291.528,3.622
292.528,3.613
293.528,3.606
294.528,3.601
295.528,3.599
296.528,3.597
297.528,3.597
298.528,3.599
299.528,3.601
300.528,3.604
301.528,3.609
302.528,3.614
303.528,3.620
304.528,3.626
305.528,3.633
306.528,3.641
307.528,3.649
308.528,3.657
309.528,3.666
310.528,3.675
311.528,3.684
312.528,3.693
313.528,3.702
314.528,3.712
315.528,3.721
316.528,3.731
317.528,3.740
318.528,3.750
319.528,3.759
320.528,3.768
321.528,3.777
321.874,3.779
322.874,3.788
323.874,3.796
324.874,3.802
325.874,3.808
326.874,3.813
327.874,3.818
328.874,3.822
329.874,3.825
330.874,3.829
331.874,3.831
332.874,3.833
333.874,3.833
334.457,3.833
335.457,3.832
336.457,3.830
337.457,3.828
338.457,3.825
339.457,3.822
340.457,3.819
341.457,3.815
342.457,3.811
343.457,3.807
344.457,3.802
345.457,3.797
346.457,3.792
347.457,3.785
348.457,3.779
349.457,3.772
350.457,3.764
351.457,3.756
352.457,3.747
353.457,3.737
354.457,3.727
355.457,3.716
356.457,3.704
357.457,3.692
358.457,3.678
359.457,3.665
360.457,3.650
361.457,3.636
362.457,3.621
363.457,3.606
364.457,3.590
365.457,3.575
366.350,3.564
367.350,3.545
368.350,3.528
369.350,3.511
370.350,3.495
371.350,3.479
372.350,3.463
373.350,3.447
374.350,3.429
375.350,3.412
376.350,3.393
377.350,3.374
378.350,3.354
379.350,3.333
380.350,3.312
381.350,3.290
382.350,3.268
383.350,3.246
384.350,3.224
385.350,3.201
386.350,3.179
387.350,3.156
388.350,3.134
389.350,3.112
390.350,3.090
391.350,3.068
392.361,3.041
##END=
