##TITLE=N-methyl-N-phenylbenzenecarbothioamine, S-oxide
##JCAMP-DX=4.24
##DATA TYPE=UV/VIS SPECTRUM
##ORIGIN=INSTITUTE OF ENERGY PROBLEMS OF CHEMICAL PHYSICS, RAS
##OWNER=INEP CP RAS, NIST OSRD
Collection (C) 2007 copyright by the U.S. Secretary of Commerce
on behalf of the United States of America. All rights reserved.
##CAS REGISTRY NO=61821-30-5
##MOLFORM=C14H13NOS
##MP=95-97
##SOURCE REFERENCE=RAS UV No. 22661
##$NIST SQUIB=1977WAL/BAU407
##$NIST SOURCE=TYUGLMTE
##SPECTROMETER/DATA SYSTEM=unknown
##XUNITS=Wavelength (nm)
##YUNITS=Logarithm epsilon
##XFACTOR=1.0
##YFACTOR=1.0
##FIRSTX=301.326
##LASTX=427.099
##FIRSTY=3.804
##MAXX=427.099
##MINX=301.326
##MAXY=3.94
##MINY=3.015
##NPOINTS=127
##$REF AUTHOR=Walter, W.; Bauer, O.H.
##$REF JOURNAL=Liebigs Ann. Chem.
##$REF PAGE=407
##$REF DATE=1977
##XYPOINTS=(XY..XY)
301.326,3.804
302.326,3.790
303.326,3.775
304.326,3.759
305.326,3.744
306.326,3.729
307.326,3.714
308.326,3.700
309.326,3.686
310.326,3.673
311.326,3.660
312.326,3.648
313.326,3.637
314.326,3.627
315.326,3.618
316.326,3.610
317.326,3.602
318.326,3.596
319.326,3.591
320.326,3.587
321.326,3.584
322.326,3.582
323.326,3.581
324.326,3.581
325.326,3.583
326.326,3.585
327.326,3.589
328.326,3.594
329.326,3.600
330.326,3.607
331.326,3.615
332.326,3.624
333.326,3.635
334.326,3.646
335.326,3.658
336.326,3.671
337.326,3.684
338.326,3.698
339.326,3.713
340.326,3.727
341.326,3.742
342.326,3.756
343.326,3.769
344.326,3.781
345.099,3.788
346.099,3.803
347.099,3.816
348.099,3.828
349.099,3.839
350.099,3.849
351.099,3.859
352.099,3.867
353.099,3.875
354.099,3.883
355.099,3.890
356.099,3.896
357.099,3.902
358.099,3.907
359.099,3.913
360.099,3.917
361.099,3.921
362.099,3.925
363.099,3.928
364.099,3.931
365.099,3.934
366.099,3.936
367.099,3.938
368.099,3.939
369.099,3.940
370.099,3.940
371.099,3.939
372.099,3.939
373.099,3.937
374.099,3.935
375.099,3.932
376.099,3.929
377.099,3.925
378.099,3.921
379.099,3.916
380.099,3.910
381.099,3.903
382.099,3.896
383.099,3.888
384.099,3.880
385.099,3.870
386.099,3.860
387.099,3.850
388.099,3.839
389.099,3.827
390.099,3.814
391.099,3.801
392.099,3.787
393.099,3.772
394.099,3.757
395.099,3.742
396.099,3.726
397.099,3.709
398.099,3.692
399.099,3.675
400.099,3.657
401.099,3.638
402.099,3.619
403.099,3.600
404.099,3.581
405.099,3.561
406.099,3.541
407.099,3.521
408.099,3.500
409.099,3.479
410.099,3.458
411.099,3.437
412.099,3.415
413.099,3.393
414.099,3.370
415.099,3.348
416.099,3.324
417.099,3.301
418.099,3.276
419.099,3.252
420.099,3.226
421.099,3.200
422.099,3.172
423.099,3.144
424.099,3.114
425.099,3.083
426.099,3.050
427.099,3.015
##END=
