##TITLE=3,5-Dichloronitrobenzene
##JCAMP-DX=4.24
##DATA TYPE=UV/VIS SPECTRUM
##ORIGIN=INSTITUTE OF ENERGY PROBLEMS OF CHEMICAL PHYSICS, RAS
##OWNER=INEP CP RAS, NIST OSRD
Collection (C) 2007 copyright by the U.S. Secretary of Commerce
on behalf of the United States of America. All rights reserved.
##CAS REGISTRY NO=618-62-2
##MOLFORM=C6H3Cl2NO2
##MP=65.4
##SOURCE REFERENCE=RAS UV No. 5869
##$NIST SQUIB=1958SHO/EGO869-872
##$NIST SOURCE=TSGMTE
##SPECTROMETER/DATA SYSTEM=n.i.g.
##XUNITS=Wavelength (nm)
##YUNITS=Logarithm epsilon
##XFACTOR=1.000000
##YFACTOR=1.000000
##FIRSTX=222.5324
##LASTX=304.2975
##FIRSTY=4.17487
##MAXX=304.298
##MINX=222.532
##MAXY=4.17487
##MINY=2.92013
##NPOINTS=84
##$REF AUTHOR=Shorygin, P.P.; Egorova, Z.S.
##$REF TITLE=Dependence of indications of conjugation on the angle of rotation of metoxyl and dimethylamin groups relative to the plane of a benzene ring
##$REF JOURNAL=Dokl. Akad. Nauk SSSR
##$REF VOLUME=121
##$REF NUMBER=5
##$REF PAGE=869-872
##$REF DATE=1958
##XYPOINTS=(XY..XY)
222.5324,4.174873
222.8476,4.174800
223.1628,4.174711
223.4777,4.174594
223.6743,4.120619
223.6770,4.121067
223.6796,4.121498
223.6820,4.121895
224.0803,4.120612
224.3074,4.120608
224.5446,4.120604
224.5912,4.083972
224.6064,4.086721
224.6214,4.089417
224.6363,4.092079
224.6440,4.093442
224.6479,4.094139
224.6517,4.094798
224.6553,4.095440
224.8019,4.120600
225.3092,4.075028
225.3902,4.070829
225.4913,4.066588
225.6024,4.062306
225.9591,4.052819
226.0352,4.047420
226.1313,4.041953
226.2185,4.032564
226.2374,4.036416
226.3121,4.030528
226.4257,4.028460
226.4440,4.004002
226.4465,4.004563
226.4489,4.005080
226.4512,4.005574
226.5491,4.026341
226.7971,3.992327
226.7998,3.992930
226.8024,3.993509
226.8048,3.994042
229.0517,3.902669
229.0930,3.901169
229.1443,3.899637
229.2154,3.898042
241.3335,3.569936
241.3361,3.571458
241.3385,3.572856
241.3407,3.574192
241.3407,3.574192
241.5796,3.574178
241.8385,3.574163
242.1075,3.574147
246.8624,3.698115
247.2249,3.698099
247.5974,3.698082
247.9900,3.698065
251.8610,3.750872
251.8736,3.755778
251.8862,3.760629
251.8989,3.765427
262.7190,3.746015
262.9579,3.746005
263.2168,3.745995
263.4857,3.745984
276.3800,3.369426
276.3864,3.375324
276.3927,3.381142
276.3990,3.386884
277.4476,3.308882
277.6747,3.308857
277.9119,3.308832
278.1692,3.308804
284.6975,2.920328
284.9364,2.920265
285.1953,2.920196
285.4642,2.920125
300.5541,3.073947
300.7813,3.073904
301.0184,3.073860
301.2757,3.073813
303.5307,3.073393
303.7696,3.073349
304.0285,3.073301
304.2975,3.073251
##END=
