##TITLE=4-Nitrobenzoic acid methyl ester
##JCAMP-DX=4.24
##DATA TYPE=UV/VIS SPECTRUM
##ORIGIN=INSTITUTE OF ENERGY PROBLEMS OF CHEMICAL PHYSICS, RAS
##OWNER=INEP CP RAS, NIST OSRD
Collection (C) 2007 copyright by the U.S. Secretary of Commerce
on behalf of the United States of America. All rights reserved.
##CAS REGISTRY NO=619-50-1
##MOLFORM=C8H7NO4
##MP=94-96
##SOURCE REFERENCE=RAS UV No. 19061
##$NIST SQUIB=1969LAN53
##$NIST SOURCE=TYUGLMTE
##SPECTROMETER/DATA SYSTEM=Unicam SP 500
##XUNITS=Wavelength (nm)
##YUNITS=Logarithm epsilon
##XFACTOR=1.0
##YFACTOR=1.0
##FIRSTX=212.85
##LASTX=397.09
##FIRSTY=3.834
##MAXX=397.09
##MINX=212.85
##MAXY=4.128
##MINY=1.425
##NPOINTS=169
##$REF AUTHOR=Lang (editor), L.
##$REF JOURNAL=Absorption Spectra in the Ultraviolet and Visible Region
##$REF VOLUME=12
##$REF PAGE=53
##$REF DATE=1969
##XYPOINTS=(XY..XY)
212.85,3.834
213.86,3.813
214.87,3.789
216.06,3.769
217.24,3.751
218.42,3.731
219.78,3.714
221.13,3.700
222.48,3.686
224.00,3.680
225.52,3.669
227.05,3.673
228.57,3.680
229.73,3.690
230.99,3.707
232.29,3.728
233.47,3.745
234.65,3.765
235.84,3.782
236.88,3.802
238.03,3.823
239.05,3.847
240.23,3.868
241.24,3.892
242.43,3.912
243.34,3.935
244.46,3.957
245.64,3.977
246.82,3.994
248.01,4.015
249.04,4.033
250.37,4.056
251.56,4.076
252.91,4.094
254.26,4.107
255.61,4.117
257.13,4.124
258.65,4.128
260.18,4.128
261.70,4.123
263.22,4.114
264.57,4.100
265.75,4.083
266.94,4.066
268.12,4.046
269.30,4.025
270.49,4.005
271.50,3.984
272.52,3.960
273.70,3.940
274.71,3.919
275.56,3.892
276.57,3.871
277.42,3.847
278.26,3.820
279.11,3.796
279.95,3.769
280.80,3.745
281.81,3.721
282.83,3.697
283.67,3.673
284.69,3.652
285.53,3.628
286.54,3.604
287.56,3.584
288.40,3.560
289.42,3.539
290.60,3.519
291.62,3.495
292.63,3.474
293.81,3.454
294.83,3.430
295.84,3.409
297.03,3.389
298.21,3.368
299.24,3.350
300.41,3.331
301.25,3.307
302.27,3.283
303.19,3.263
304.29,3.242
305.14,3.218
306.15,3.194
307.17,3.173
308.01,3.146
309.03,3.125
309.74,3.102
310.86,3.069
311.72,3.042
312.24,3.023
312.91,2.999
313.61,2.977
314.44,2.948
315.03,2.926
315.76,2.898
316.31,2.871
316.97,2.842
317.65,2.814
318.49,2.790
319.34,2.766
320.18,2.739
321.03,2.712
322.04,2.688
322.89,2.660
323.73,2.636
324.48,2.616
325.42,2.592
326.61,2.571
327.86,2.557
329.14,2.544
330.49,2.527
331.85,2.513
333.20,2.496
334.55,2.482
335.94,2.469
337.32,2.457
338.78,2.445
340.30,2.438
341.65,2.428
343.00,2.417
344.35,2.404
345.71,2.390
347.23,2.383
348.58,2.366
349.93,2.352
351.28,2.339
352.64,2.328
353.99,2.311
355.34,2.294
356.69,2.277
358.05,2.260
359.40,2.243
360.58,2.222
361.76,2.205
362.95,2.188
364.13,2.168
365.31,2.151
366.33,2.130
367.34,2.110
368.36,2.089
369.54,2.068
370.55,2.048
371.74,2.027
372.58,2.003
373.77,1.983
374.95,1.962
375.96,1.942
376.81,1.918
377.82,1.894
379.01,1.873
380.02,1.850
381.03,1.826
382.05,1.805
383.06,1.781
384.08,1.757
385.09,1.733
385.94,1.709
386.95,1.685
387.96,1.665
388.81,1.637
389.82,1.614
390.67,1.590
391.68,1.569
392.53,1.545
393.37,1.521
394.22,1.497
395.06,1.473
396.08,1.449
397.09,1.425
##END=
