##TITLE=Phenol, 2-chloro-4-nitro-
##JCAMP-DX=4.24
##DATA TYPE=UV/VIS SPECTRUM
##ORIGIN=INSTITUTE OF ENERGY PROBLEMS OF CHEMICAL PHYSICS, RAS
##OWNER=INEP CP RAS, NIST OSRD
Collection (C) 2007 copyright by the U.S. Secretary of Commerce
on behalf of the United States of America. All rights reserved.
##CAS REGISTRY NO=619-08-9
##MOLFORM=C6H4ClNO3
##MP=111
##SOURCE REFERENCE=RAS UV No. 22375
##$NIST SQUIB=1978EPS/1798
##$NIST SOURCE=TYUGLMTE
##SPECTROMETER/DATA SYSTEM=Specord UV-Vis
##XUNITS=Wavelength (nm)
##YUNITS=Logarithm epsilon
##XFACTOR=1.0
##YFACTOR=1.0
##FIRSTX=278.042
##LASTX=386.111
##FIRSTY=3.755
##MAXX=386.111
##MINX=278.042
##MAXY=3.935
##MINY=2.835
##NPOINTS=110
##$REF AUTHOR=Epstein, L.M.; et al.
##$REF JOURNAL=Izvest. Akad. Nauk SSSR
##$REF PAGE=1798
##$REF DATE=1978
##XYPOINTS=(XY..XY)
278.042,3.755
279.042,3.780
280.042,3.802
281.042,3.823
282.042,3.841
283.042,3.857
284.042,3.871
285.042,3.884
286.042,3.895
287.042,3.904
288.042,3.911
289.042,3.918
290.042,3.923
291.042,3.927
292.042,3.930
293.042,3.932
294.042,3.933
294.909,3.933
295.683,3.934
296.212,3.935
297.111,3.935
298.111,3.935
299.111,3.932
300.111,3.929
301.111,3.925
302.111,3.921
303.111,3.917
304.111,3.913
305.111,3.909
306.111,3.905
307.111,3.900
308.111,3.895
309.111,3.889
310.111,3.882
311.111,3.874
312.111,3.865
313.111,3.855
314.111,3.844
315.111,3.830
316.111,3.816
317.111,3.799
318.111,3.782
319.111,3.762
320.111,3.742
321.111,3.720
322.111,3.696
323.111,3.672
324.111,3.647
325.111,3.621
326.111,3.594
327.111,3.567
328.111,3.540
329.111,3.513
330.111,3.486
331.111,3.460
332.111,3.434
333.111,3.409
334.111,3.385
335.111,3.361
336.111,3.339
337.111,3.318
338.111,3.297
339.111,3.278
340.111,3.260
341.111,3.243
342.111,3.228
343.111,3.213
344.111,3.199
345.111,3.186
346.111,3.173
347.111,3.161
348.111,3.150
349.111,3.139
350.111,3.128
351.111,3.117
352.111,3.107
353.111,3.096
354.111,3.085
355.111,3.075
356.111,3.064
357.111,3.053
358.111,3.041
359.111,3.030
360.111,3.019
361.111,3.008
362.111,2.997
363.111,2.986
364.111,2.976
365.111,2.966
366.111,2.957
367.111,2.948
368.111,2.940
369.111,2.933
370.111,2.926
371.111,2.920
372.111,2.915
373.111,2.910
374.111,2.905
375.111,2.901
376.111,2.896
377.111,2.891
378.111,2.885
379.111,2.878
380.111,2.871
381.111,2.863
382.111,2.854
383.111,2.846
384.111,2.839
385.111,2.835
386.111,2.836
##END=
