##TITLE=Benzonitrile, 3-methyl-
##JCAMP-DX=4.24
##DATA TYPE=UV/VIS SPECTRUM
##ORIGIN=INSTITUTE OF ENERGY PROBLEMS OF CHEMICAL PHYSICS, RAS
##OWNER=INEP CP RAS, NIST OSRD
Collection (C) 2007 copyright by the U.S. Secretary of Commerce
on behalf of the United States of America. All rights reserved.
##CAS REGISTRY NO=620-22-4
##MOLFORM=C8H7N
##MP=- 23
##BP=213
##SOURCE REFERENCE=RAS UV No. 20184
##$NIST SQUIB=1969BOL/175
##$NIST SOURCE=TYUGLMTE
##SPECTROMETER/DATA SYSTEM=unknown
##XUNITS=Wavelength (nm)
##YUNITS=Logarithm epsilon
##XFACTOR=1.0
##YFACTOR=1.0
##FIRSTX=222.56
##LASTX=295.9
##FIRSTY=3.952
##MAXX=295.9
##MINX=222.56
##MAXY=4.032
##MINY=0.619
##NPOINTS=412
##$REF AUTHOR=Bol'shakov, G.F.; et al.
##$REF JOURNAL=Ultraviolet spectra of heterogrnic compounds
##$REF PAGE=175
##$REF DATE=1969
##XYPOINTS=(XY..XY)
222.56,3.952
222.74,3.952
222.91,3.956
223.08,3.956
223.25,3.960
223.42,3.960
223.59,3.964
223.76,3.964
223.93,3.968
224.10,3.968
224.27,3.968
224.44,3.973
224.62,3.973
224.79,3.977
224.96,3.977
225.13,3.973
225.30,3.977
225.47,3.977
225.64,3.981
225.81,3.981
225.98,3.981
226.15,3.981
226.32,3.981
226.50,3.981
226.67,3.977
226.84,3.973
227.01,3.968
227.18,3.968
227.35,3.964
227.52,3.952
227.69,3.952
227.86,3.947
228.03,3.939
228.21,3.935
228.38,3.931
228.55,3.931
228.72,3.931
228.89,3.926
229.06,3.926
229.23,3.926
229.40,3.926
229.57,3.926
229.74,3.931
229.91,3.931
230.09,3.935
230.26,3.935
230.43,3.939
230.60,3.939
230.77,3.943
230.94,3.947
231.11,3.952
231.28,3.956
231.45,3.960
231.62,3.964
231.80,3.964
231.97,3.964
232.14,3.960
232.31,3.956
232.48,3.947
232.65,3.943
232.82,3.906
232.99,3.801
233.16,3.763
233.33,3.726
233.50,3.684
233.68,3.649
233.85,3.617
234.02,3.592
234.19,3.562
234.34,3.538
234.50,3.515
234.67,3.490
234.87,3.469
235.05,3.448
235.21,3.433
235.39,3.416
235.56,3.399
235.73,3.382
235.90,3.374
236.07,3.357
236.24,3.340
236.41,3.328
236.58,3.319
236.75,3.311
236.92,3.303
237.09,3.294
237.27,3.286
237.44,3.273
237.62,3.260
237.77,3.245
237.95,3.232
238.12,3.215
238.28,3.201
238.46,3.186
238.63,3.169
238.80,3.152
238.97,3.139
239.15,3.127
239.32,3.110
239.46,3.099
239.62,3.086
239.77,3.073
239.93,3.057
240.09,3.042
240.22,3.029
240.38,3.017
240.56,3.006
240.71,2.994
240.95,2.979
241.20,2.964
241.37,2.951
241.52,2.941
241.71,2.926
241.87,2.914
242.05,2.897
242.20,2.887
242.38,2.877
242.56,2.872
242.74,2.867
242.89,2.864
243.09,2.860
243.25,2.859
243.42,2.859
243.59,2.859
243.76,2.859
243.97,2.860
244.15,2.860
244.34,2.862
244.54,2.864
244.66,2.865
244.79,2.867
244.96,2.872
245.13,2.880
245.30,2.888
245.47,2.892
245.64,2.897
245.81,2.901
245.98,2.905
246.15,2.913
246.33,2.913
246.50,2.922
246.67,2.926
246.84,2.930
247.01,2.943
247.18,2.947
247.35,2.955
247.53,2.962
247.69,2.968
247.86,2.974
248.07,2.983
248.21,2.989
248.37,2.995
248.55,3.003
248.72,3.010
248.91,3.017
249.07,3.024
249.23,3.031
249.38,3.036
249.57,3.044
249.75,3.049
249.91,3.055
250.06,3.062
250.25,3.071
250.42,3.078
250.60,3.085
250.77,3.092
250.94,3.098
251.11,3.103
251.27,3.109
251.46,3.115
251.62,3.123
251.79,3.130
251.97,3.135
252.13,3.142
252.31,3.148
252.48,3.156
252.65,3.165
252.83,3.172
252.99,3.181
253.16,3.186
253.32,3.193
253.51,3.202
253.67,3.208
253.86,3.215
254.03,3.221
254.18,3.229
254.36,3.236
254.53,3.244
254.67,3.251
254.87,3.261
255.04,3.265
255.21,3.273
255.39,3.282
255.51,3.287
255.74,3.294
255.86,3.300
256.06,3.307
256.22,3.314
256.40,3.323
256.58,3.330
256.75,3.336
256.92,3.345
257.08,3.352
257.27,3.361
257.41,3.367
257.56,3.375
257.78,3.382
257.95,3.386
258.12,3.399
258.29,3.403
258.46,3.407
258.63,3.420
258.80,3.428
258.98,3.433
259.15,3.445
259.32,3.449
259.49,3.462
259.66,3.466
259.83,3.470
260.00,3.470
260.17,3.479
260.34,3.487
260.51,3.491
260.69,3.504
260.86,3.512
261.03,3.525
261.20,3.529
261.37,3.541
261.54,3.541
261.71,3.546
261.88,3.562
262.05,3.566
262.22,3.579
262.39,3.583
262.57,3.592
262.74,3.604
262.91,3.608
263.08,3.621
263.25,3.625
263.42,3.638
263.59,3.646
263.76,3.650
263.93,3.650
264.10,3.663
264.27,3.667
264.45,3.684
264.62,3.688
264.79,3.700
264.96,3.705
265.13,3.717
265.30,3.726
265.47,3.734
265.64,3.742
265.81,3.746
265.98,3.763
266.16,3.767
266.33,3.780
266.50,3.788
266.67,3.797
266.84,3.801
267.01,3.801
267.18,3.801
267.35,3.797
267.52,3.788
267.69,3.780
267.86,3.767
268.04,3.763
268.21,3.763
268.38,3.755
268.55,3.751
268.72,3.751
268.89,3.751
269.06,3.746
269.23,3.751
269.40,3.759
269.57,3.767
269.75,3.776
269.92,3.784
270.09,3.793
270.26,3.797
270.43,3.793
270.60,3.793
270.77,3.788
270.94,3.788
271.11,3.784
271.28,3.784
271.45,3.784
271.63,3.788
271.80,3.788
271.97,3.793
272.14,3.801
272.31,3.801
272.48,3.809
272.65,3.822
272.82,3.830
272.99,3.834
273.16,3.843
273.33,3.860
273.51,3.868
273.68,3.880
273.85,3.893
274.02,3.906
274.19,3.918
274.36,3.926
274.53,3.943
274.70,3.956
274.87,3.964
275.04,3.977
275.22,3.989
275.39,3.993
275.56,3.989
275.73,3.985
275.90,3.977
276.07,3.968
276.24,3.964
276.41,3.964
276.58,3.947
276.75,3.939
276.92,3.935
277.10,3.922
277.27,3.918
277.44,3.914
277.61,3.901
277.78,3.897
277.95,3.880
278.12,3.876
278.29,3.860
278.46,3.851
278.63,3.830
278.81,3.818
278.98,3.801
279.15,3.793
279.32,3.776
279.49,3.772
279.66,3.759
279.83,3.746
280.00,3.738
280.17,3.730
280.34,3.726
280.51,3.726
280.69,3.726
280.86,3.730
281.03,3.738
281.20,3.757
281.31,3.778
281.39,3.807
281.52,3.852
281.63,3.899
281.75,3.950
281.90,3.998
282.05,4.019
282.21,4.027
282.39,4.032
282.56,4.032
282.72,4.032
282.91,4.023
283.08,4.006
283.25,3.977
283.42,3.939
283.59,3.914
283.76,3.876
283.91,3.840
284.10,3.793
284.28,3.767
284.45,3.746
284.62,3.726
284.79,3.709
284.96,3.679
285.08,3.652
285.30,3.608
285.47,3.583
285.64,3.550
285.79,3.519
285.92,3.490
286.09,3.445
286.33,3.378
286.43,3.312
286.58,3.221
286.68,3.081
286.75,2.917
286.83,2.777
286.90,2.595
286.94,2.461
286.98,2.340
287.05,2.225
287.18,2.101
287.35,2.051
287.69,1.913
288.04,1.829
288.36,1.742
288.72,1.649
289.04,1.583
289.40,1.507
289.75,1.448
290.09,1.369
290.43,1.310
290.73,1.258
291.04,1.207
291.46,1.143
291.80,1.084
292.07,1.037
292.41,0.986
292.70,0.945
293.07,0.901
293.50,0.860
293.85,0.820
294.16,0.790
294.53,0.762
294.87,0.724
295.22,0.699
295.56,0.657
295.90,0.619
##END=
