##TITLE=Benzyl sulfone
##JCAMP-DX=4.24
##DATA TYPE=UV/VIS SPECTRUM
##ORIGIN=INSTITUTE OF ENERGY PROBLEMS OF CHEMICAL PHYSICS, RAS
##OWNER=INEP CP RAS, NIST OSRD
Collection (C) 2007 copyright by the U.S. Secretary of Commerce
on behalf of the United States of America. All rights reserved.
##CAS REGISTRY NO=620-32-6
##MOLFORM=C14H14O2S
##MP=152
##BP=290 dec
##SOURCE REFERENCE=RAS UV No. 10018
##$NIST SQUIB=1949FEH/CAR231
##$NIST SOURCE=TYUGLMTE
##SPECTROMETER/DATA SYSTEM=n.i.g.
##XUNITS=Wavelength (nm)
##YUNITS=Logarithm epsilon
##XFACTOR=1.0
##YFACTOR=1.0
##FIRSTX=220.39
##LASTX=281.03
##FIRSTY=4.271
##MAXX=281.03
##MINX=220.39
##MAXY=4.332
##MINY=0.532
##NPOINTS=182
##$REF AUTHOR=Fehnel, E.A.; Carmack, M.
##$REF JOURNAL=J. Am. Chem. Soc.
##$REF VOLUME=71
##$REF PAGE=231
##$REF DATE=1949
##XYPOINTS=(XY..XY)
220.39,4.271
220.93,4.285
221.26,4.296
221.90,4.311
222.22,4.322
222.54,4.327
222.87,4.332
223.19,4.332
223.51,4.332
223.83,4.332
224.15,4.332
224.48,4.332
224.80,4.332
225.12,4.332
225.44,4.332
225.78,4.332
226.09,4.327
226.39,4.322
226.75,4.314
227.12,4.307
227.56,4.296
228.02,4.285
228.38,4.275
228.99,4.254
229.31,4.241
229.59,4.228
229.88,4.213
230.24,4.195
230.60,4.175
230.92,4.149
231.22,4.120
231.59,4.083
232.05,4.037
232.36,4.000
232.71,3.964
233.06,3.914
233.35,3.878
233.77,3.808
234.16,3.742
234.41,3.696
234.82,3.629
235.10,3.578
235.44,3.527
235.75,3.478
236.07,3.410
236.39,3.347
236.69,3.308
237.04,3.258
237.36,3.206
237.64,3.162
238.00,3.107
238.30,3.056
238.63,3.003
238.98,2.955
239.29,2.913
239.61,2.871
239.95,2.826
240.26,2.776
240.58,2.729
240.90,2.677
241.22,2.635
241.55,2.593
241.86,2.561
242.16,2.527
242.51,2.499
242.83,2.478
243.16,2.446
243.48,2.420
243.80,2.394
244.12,2.373
244.37,2.358
244.77,2.342
245.05,2.332
245.43,2.324
245.73,2.321
246.05,2.321
246.38,2.321
246.74,2.328
247.02,2.334
247.34,2.342
247.86,2.350
248.39,2.360
248.63,2.368
248.94,2.376
249.28,2.384
249.60,2.389
249.92,2.394
250.24,2.410
250.56,2.415
250.92,2.423
251.21,2.431
251.52,2.438
251.85,2.446
252.17,2.457
252.49,2.468
253.05,2.489
253.65,2.507
254.11,2.525
254.43,2.541
254.82,2.562
255.07,2.577
255.39,2.598
255.72,2.619
256.04,2.625
256.36,2.630
256.68,2.630
257.00,2.625
257.33,2.614
257.65,2.604
258.14,2.604
258.62,2.614
258.94,2.625
259.58,2.646
259.90,2.656
260.23,2.677
260.55,2.703
260.84,2.723
261.19,2.745
261.51,2.750
261.84,2.750
262.16,2.750
262.47,2.746
262.80,2.735
263.11,2.714
263.45,2.693
263.77,2.661
264.03,2.646
264.41,2.635
264.73,2.630
265.06,2.630
265.38,2.635
265.69,2.645
266.02,2.656
266.26,2.663
266.64,2.672
266.99,2.677
267.31,2.672
267.63,2.661
267.95,2.649
268.28,2.630
268.60,2.609
268.92,2.572
269.09,2.545
269.25,2.511
269.41,2.484
269.57,2.462
269.89,2.452
270.21,2.452
270.72,2.466
271.18,2.473
271.48,2.476
271.80,2.469
271.99,2.449
272.14,2.420
272.46,2.368
272.79,2.300
273.11,2.242
273.43,2.185
273.75,2.111
274.07,2.054
274.40,1.991
274.71,1.921
275.04,1.854
275.36,1.792
275.68,1.724
276.04,1.651
276.39,1.578
276.65,1.530
276.97,1.462
277.29,1.378
277.62,1.310
277.94,1.236
278.26,1.179
278.47,1.126
278.79,1.048
279.16,0.964
279.55,0.891
279.80,0.832
280.17,0.748
280.52,0.660
280.84,0.576
281.03,0.532
##END=
