##TITLE=p-Ethyldiphenylmethane
##JCAMP-DX=4.24
##DATA TYPE=UV/VIS SPECTRUM
##ORIGIN=INSTITUTE OF ENERGY PROBLEMS OF CHEMICAL PHYSICS, RAS
##OWNER=INEP CP RAS, NIST OSRD
Collection (C) 2007 copyright by the U.S. Secretary of Commerce
on behalf of the United States of America. All rights reserved.
##CAS REGISTRY NO=620-85-9
##MOLFORM=C15H16
##MP=- 24
##BP=297
##SOURCE REFERENCE=RAS UV No. 20076
##$NIST SQUIB=1963KUS/222
##$NIST SOURCE=TYUGLMTE
##SPECTROMETER/DATA SYSTEM=unknown
##XUNITS=Wavelength (nm)
##YUNITS=Logarithm epsilon
##XFACTOR=1.0
##YFACTOR=1.0
##FIRSTX=238.26
##LASTX=281.96
##FIRSTY=2.465
##MAXX=281.96
##MINX=238.26
##MAXY=2.797
##MINY=1.158
##NPOINTS=198
##$REF AUTHOR=Kusakov, M.M.; et al.
##$REF JOURNAL=Ultraviolet Absorption Spectra of Aromatic Hydrocarbons
##$REF PAGE=222
##$REF DATE=1963
##XYPOINTS=(XY..XY)
238.26,2.465
238.34,2.458
238.41,2.451
238.64,2.432
238.86,2.413
239.08,2.396
239.31,2.383
239.53,2.370
239.75,2.360
239.97,2.354
240.20,2.348
240.42,2.338
240.64,2.336
240.87,2.332
241.09,2.330
241.31,2.326
241.54,2.324
241.76,2.322
241.98,2.319
242.21,2.317
242.43,2.317
242.65,2.317
242.88,2.319
243.10,2.322
243.32,2.326
243.55,2.328
243.77,2.330
243.99,2.332
244.22,2.334
244.44,2.340
244.66,2.344
244.89,2.350
245.11,2.354
245.33,2.358
245.56,2.362
245.78,2.366
246.00,2.379
246.23,2.392
246.45,2.403
246.67,2.413
246.90,2.424
247.12,2.432
247.34,2.445
247.57,2.453
247.79,2.462
248.01,2.470
248.24,2.479
248.46,2.486
248.68,2.493
248.91,2.502
249.13,2.509
249.35,2.514
249.58,2.524
249.80,2.529
250.02,2.533
250.25,2.538
250.47,2.543
250.69,2.549
250.92,2.555
251.14,2.563
251.36,2.573
251.59,2.584
251.81,2.591
252.03,2.603
252.26,2.611
252.48,2.615
252.70,2.619
252.93,2.623
253.15,2.627
253.37,2.630
253.60,2.632
253.82,2.635
254.04,2.637
254.27,2.639
254.49,2.641
254.71,2.644
254.94,2.646
255.16,2.648
255.38,2.650
255.61,2.653
255.83,2.656
256.05,2.659
256.28,2.662
256.50,2.666
256.72,2.670
256.95,2.674
257.17,2.679
257.39,2.683
257.62,2.689
257.84,2.694
258.06,2.700
258.29,2.710
258.51,2.719
258.73,2.729
258.96,2.739
259.18,2.744
259.40,2.763
259.63,2.770
259.85,2.774
260.07,2.773
260.30,2.769
260.52,2.761
260.74,2.753
260.97,2.749
261.19,2.748
261.41,2.748
261.64,2.749
261.86,2.751
262.08,2.752
262.31,2.754
262.53,2.755
262.75,2.756
262.98,2.757
263.20,2.757
263.42,2.757
263.65,2.757
263.87,2.758
264.09,2.760
264.32,2.763
264.54,2.768
264.76,2.774
264.99,2.779
265.21,2.785
265.43,2.792
265.66,2.797
265.88,2.797
266.10,2.792
266.33,2.762
266.55,2.755
266.77,2.751
267.00,2.749
267.22,2.748
267.44,2.748
267.67,2.749
267.89,2.752
268.11,2.753
268.34,2.754
268.56,2.753
268.78,2.750
269.01,2.746
269.23,2.738
269.45,2.732
269.68,2.704
269.90,2.681
270.12,2.652
270.35,2.640
270.57,2.614
270.79,2.594
271.02,2.578
271.24,2.558
271.46,2.546
271.69,2.540
271.91,2.536
272.13,2.538
272.36,2.549
272.58,2.566
272.80,2.589
273.03,2.627
273.25,2.658
273.47,2.672
273.70,2.674
273.92,2.652
274.14,2.631
274.37,2.603
274.59,2.584
274.81,2.552
275.04,2.525
275.26,2.499
275.48,2.458
275.71,2.417
275.93,2.344
276.15,2.250
276.38,2.197
276.60,2.116
276.82,2.029
277.05,1.976
277.27,1.936
277.49,1.887
277.72,1.851
277.94,1.811
278.16,1.790
278.39,1.760
278.61,1.728
278.83,1.702
279.06,1.675
279.28,1.645
279.50,1.614
279.73,1.580
279.95,1.556
280.17,1.517
280.40,1.489
280.62,1.443
280.84,1.410
281.07,1.374
281.29,1.313
281.51,1.267
281.74,1.216
281.96,1.158
##END=
