##TITLE=2-Propenoic acid, 3-phenyl-
##JCAMP-DX=4.24
##DATA TYPE=UV/VIS SPECTRUM
##ORIGIN=INSTITUTE OF ENERGY PROBLEMS OF CHEMICAL PHYSICS, RAS
##OWNER=INEP CP RAS, NIST OSRD
Collection (C) 2007 copyright by the U.S. Secretary of Commerce
on behalf of the United States of America. All rights reserved.
##CAS REGISTRY NO=621-82-9
##MOLFORM=C9H8O2
##MP=133-134
##SOURCE REFERENCE=RAS UV No. 19040
##$NIST SQUIB=1970LAN31
##$NIST SOURCE=TYUGLMTE
##SPECTROMETER/DATA SYSTEM=Unicam SP 800
##XUNITS=Wavelength (nm)
##YUNITS=Logarithm epsilon
##XFACTOR=1.0
##YFACTOR=1.0
##FIRSTX=203.75
##LASTX=327.96
##FIRSTY=4.121
##MAXX=327.96
##MINX=203.75
##MAXY=4.288
##MINY=1.01
##NPOINTS=114
##$REF AUTHOR=Lang (editor), L.
##$REF JOURNAL=Absorption Spectra in the Ultraviolet and Visible Region
##$REF VOLUME=14
##$REF PAGE=31
##$REF DATE=1970
##XYPOINTS=(XY..XY)
203.75,4.121
203.92,4.124
204.09,4.124
204.27,4.124
204.44,4.124
204.61,4.124
204.78,4.124
204.95,4.124
205.12,4.124
205.29,4.128
205.46,4.128
206.14,4.114
207.34,4.111
208.53,4.107
209.72,4.107
210.92,4.107
212.11,4.107
213.31,4.114
214.50,4.124
215.70,4.148
216.89,4.169
218.08,4.158
219.28,4.128
220.47,4.087
221.67,4.080
222.86,4.090
224.06,4.070
225.25,3.961
226.44,3.828
227.64,3.681
228.83,3.511
230.03,3.392
231.22,3.344
232.42,3.341
233.61,3.344
234.80,3.361
236.00,3.388
237.19,3.423
238.39,3.457
239.58,3.491
240.78,3.528
241.97,3.569
243.16,3.606
244.36,3.654
245.55,3.695
246.75,3.736
247.94,3.787
249.13,3.838
250.33,3.879
251.52,3.920
252.72,3.954
253.91,3.988
255.11,4.019
256.30,4.053
257.49,4.080
258.69,4.104
259.88,4.135
261.08,4.155
262.27,4.182
263.47,4.199
264.66,4.216
265.85,4.230
267.05,4.244
268.24,4.257
269.44,4.271
270.63,4.288
271.83,4.288
273.02,4.285
274.21,4.285
275.41,4.285
276.60,4.281
277.80,4.278
278.99,4.274
280.19,4.267
281.38,4.257
282.57,4.244
283.77,4.233
284.96,4.223
286.16,4.203
287.35,4.179
288.55,4.158
289.74,4.135
290.93,4.107
292.13,4.080
293.32,4.053
294.52,4.019
295.71,3.985
296.90,3.951
298.10,3.906
299.29,3.855
300.49,3.814
301.68,3.767
302.88,3.702
304.07,3.637
305.26,3.569
306.46,3.477
307.65,3.331
308.85,3.215
310.04,3.078
311.24,2.949
312.43,2.823
313.62,2.727
314.82,2.659
316.01,2.550
317.21,2.428
318.40,2.302
319.60,2.186
320.79,2.053
321.98,1.910
323.18,1.763
324.37,1.603
325.57,1.423
326.76,1.225
327.96,1.010
##END=
