##TITLE=Benzoic acid, 4-nitro-
##JCAMP-DX=4.24
##DATA TYPE=UV/VIS SPECTRUM
##ORIGIN=INSTITUTE OF ENERGY PROBLEMS OF CHEMICAL PHYSICS, RAS
##OWNER=INEP CP RAS, NIST OSRD
Collection (C) 2007 copyright by the U.S. Secretary of Commerce
on behalf of the United States of America. All rights reserved.
##CAS REGISTRY NO=62-23-7
##MOLFORM=C7H5NO4
##MP=242
##BP=sub
##SOURCE REFERENCE=RAS UV No. 205
##$NIST SQUIB=1951GRA220-226
##$NIST SOURCE=TSGMTE
##SPECTROMETER/DATA SYSTEM=n.i.g.
##XUNITS=Wavelength (nm)
##YUNITS=Logarithm epsilon
##XFACTOR=1.000000
##YFACTOR=1.000000
##FIRSTX=412.1544
##LASTX=223.3059
##FIRSTY=0.813594
##MAXX=412.154
##MINX=223.306
##MAXY=4.09395
##MINY=0.813594
##NPOINTS=488
##$REF AUTHOR=Grammaticakis, P.
##$REF TITLE=Contribution a l'etude de l'absorption dans l'ultraviolet moyen et le visible des arylamines isomeres et de leurs derives N substitues (Premier memoire)
##$REF JOURNAL=Bull. Soc. Chim. Fr.
##$REF VOLUME=18
##$REF PAGE=220-226
##$REF DATE=1951
##XYPOINTS=(XY..XY)
412.1544,0.813594
412.0200,0.815564
411.8758,0.817612
411.7122,0.819840
411.7122,0.845978
411.5781,0.847943
411.4342,0.849996
411.2709,0.852224
411.2709,0.886553
411.2709,0.886553
410.9626,0.887741
410.9626,0.888000
410.6548,0.889010
410.6548,0.889274
410.3474,0.890455
409.4280,0.957171
409.3714,0.959904
409.2953,0.962634
409.2097,0.965366
409.2097,0.965366
408.9916,0.991505
408.9916,0.991505
408.9900,0.964080
408.7609,0.962620
408.6867,0.992792
408.6867,0.993048
408.5127,0.961074
408.3823,0.994251
408.3823,0.994511
408.0783,0.995797
407.8614,1.025838
407.6432,1.027121
407.4156,1.028583
407.1690,1.030130
407.0250,1.063405
407.0250,1.066035
406.7374,1.060169
406.7374,1.070315
406.2638,1.100746
406.1332,1.102694
405.9931,1.104648
405.8341,1.106595
405.4054,1.131176
405.3499,1.133632
405.2753,1.136264
405.1913,1.138978
405.1913,1.138978
404.9759,1.137794
404.7513,1.136524
404.5079,1.135079
404.0395,1.199843
404.0079,1.205491
403.7875,1.208627
403.4023,1.199843
403.1904,1.211937
403.1889,1.202298
402.9662,1.204928
402.7250,1.207645
402.7250,1.236126
402.7250,1.236126
402.6702,1.240042
402.6420,1.240302
402.5967,1.244044
402.5685,1.244304
402.5138,1.248221
402.0920,1.270458
401.9470,1.278754
401.1300,1.301958
400.5392,1.311033
400.4122,1.312985
400.2761,1.314935
400.1215,1.316886
399.7048,1.349268
399.0397,1.381649
398.9138,1.384380
398.7787,1.387112
398.6252,1.389843
398.6252,1.389843
398.5424,1.388558
398.4597,1.387098
398.3769,1.385551
394.5675,1.515080
394.5675,1.517536
394.5675,1.520166
394.5675,1.522884
389.5607,1.648510
389.4143,1.643048
389.2855,1.637586
389.1656,1.632124
388.9684,1.654362
388.6926,1.656327
388.4172,1.658380
388.1422,1.660605
388.1422,1.660605
388.0913,1.668523
388.0230,1.676615
387.9460,1.684793
387.9460,1.684793
387.6717,1.684793
387.5151,1.668407
387.3977,1.684793
387.3963,1.672425
387.2689,1.676615
387.1241,1.684793
387.1241,1.684793
387.1241,1.680892
386.6561,1.707538
386.1891,1.730455
385.7233,1.753460
385.7233,1.753460
385.1813,1.758647
384.6408,1.764008
384.1018,1.769456
384.1018,1.769456
383.4876,1.773747
383.3713,1.778934
383.2465,1.784296
383.1048,1.789743
382.5218,1.809842
380.9512,1.850264
379.3865,1.890761
378.6069,1.900935
378.2972,1.909634
377.9715,1.918506
377.8240,1.931366
377.8240,1.931366
377.6381,1.927465
377.0445,1.935267
376.2298,1.945917
375.7645,1.958618
375.4106,1.956740
374.8225,1.969138
374.5786,1.967650
374.1768,1.971941
373.4122,1.991839
373.1836,1.995754
372.9391,1.999757
372.6869,2.003933
361.2155,2.147507
361.2155,2.147507
361.1475,2.149472
361.1475,2.149733
361.0796,2.151524
361.0796,2.151784
361.0116,2.153749
356.8488,2.198226
356.8488,2.200683
356.8488,2.203313
356.8488,2.206029
354.4428,2.230608
354.3131,2.228383
354.1907,2.226331
354.0830,2.224366
353.7566,2.246604
353.5285,2.246604
353.3006,2.246604
353.0731,2.238411
353.0731,2.241142
353.0731,2.243873
353.0731,2.246604
353.0731,2.246604
352.5865,2.246604
351.7271,2.251358
351.2930,2.255505
351.0704,2.250506
351.0074,2.254682
350.9515,2.258684
350.9099,2.262600
350.9099,2.262600
347.1011,2.301225
347.1011,2.301225
346.8815,2.301225
346.8815,2.301225
346.6621,2.301225
346.6621,2.301225
346.4430,2.301225
344.4574,2.325847
344.4173,2.324330
344.3601,2.327364
344.3200,2.325414
344.2663,2.323463
344.2056,2.321512
344.2056,2.321512
341.9665,2.343751
341.9665,2.346207
341.9665,2.348837
341.9665,2.351554
337.2778,2.388227
337.2778,2.388227
337.2394,2.390684
337.2196,2.390944
337.1878,2.393314
337.1680,2.393574
337.1296,2.396030
326.2662,2.543896
325.9337,2.559227
325.8230,2.543896
325.7871,2.545846
325.7390,2.547797
325.6847,2.549748
325.6018,2.574732
325.2706,2.590323
325.2706,2.590323
325.1053,2.582130
325.0421,2.591508
324.9136,2.586306
324.8016,2.592779
324.7283,2.590308
324.5554,2.594224
324.5554,2.594224
323.6794,2.650796
323.5965,2.654712
323.5076,2.658714
323.4066,2.662890
322.8352,2.691371
322.5177,2.715271
322.1947,2.731455
321.5907,2.753794
321.5907,2.753794
321.3772,2.756222
321.2656,2.764111
321.1601,2.784226
320.0351,2.796320
320.0351,2.796320
320.0006,2.799051
319.9828,2.799051
319.9541,2.801782
319.9363,2.801782
319.9017,2.804513
319.2099,2.834945
319.1293,2.836895
319.0428,2.838846
318.9446,2.840797
317.2346,2.907945
317.2007,2.906428
317.1521,2.909463
317.1181,2.907512
317.0725,2.905561
317.0211,2.903610
317.0211,2.903610
316.7594,2.937943
316.7594,2.937943
316.6558,2.936397
316.5581,2.934938
316.4721,2.933652
316.3532,2.943434
316.0695,2.945457
315.6651,2.945746
315.6651,2.945746
315.5862,2.955124
315.5017,2.964589
315.4056,2.974227
315.4056,2.974227
315.1456,2.974227
314.8803,2.974227
314.6040,2.974227
313.7808,3.008560
313.7808,3.008560
313.6194,3.009846
313.6023,3.010106
313.4467,3.011305
313.4296,3.011565
313.2685,3.012851
312.6050,3.042893
312.4768,3.044077
312.3430,3.045349
312.1981,3.046794
309.8537,3.107657
309.8537,3.110388
309.8537,3.113119
309.8537,3.115850
308.2855,3.140039
308.2855,3.142495
308.2855,3.145125
308.2855,3.147842
308.2855,3.140039
308.1296,3.147336
308.1131,3.141990
307.9630,3.146657
307.9465,3.143940
307.7910,3.145891
306.7576,3.178273
306.5860,3.178779
306.4147,3.179458
306.2435,3.180224
303.4825,3.244988
303.4638,3.250898
303.3333,3.254034
302.9793,3.257083
300.0184,3.333942
300.0184,3.337858
300.0184,3.341860
300.0184,3.346036
300.0184,3.346036
299.7069,3.347221
299.3856,3.348493
299.0598,3.349938
294.0639,3.477515
293.9896,3.479466
293.9054,3.481417
293.8162,3.483368
292.4982,3.512094
292.4693,3.514724
292.4280,3.503655
292.4280,3.503655
292.3843,3.507152
292.3455,3.510562
292.3167,3.513799
291.5172,3.537988
291.4295,3.536543
291.3623,3.538494
291.3467,3.535271
291.2738,3.534087
291.2738,3.534087
291.2075,3.539173
291.1920,3.536037
291.1200,3.537988
291.0529,3.539939
287.6495,3.623040
287.5840,3.624991
287.5138,3.626941
287.4340,3.628892
286.5326,3.645278
286.3932,3.653746
286.2018,3.663081
285.9774,3.679611
285.9774,3.679611
285.5731,3.682848
285.1699,3.686258
284.7678,3.689755
282.3790,3.744375
282.2336,3.744881
282.0884,3.745560
281.9433,3.746326
281.9433,3.746326
281.9164,3.751008
281.8804,3.755690
281.8397,3.760371
281.8397,3.760371
281.3102,3.767466
280.8968,3.774474
280.4392,3.778708
279.3775,3.804848
279.3157,3.806813
279.2495,3.808865
279.1742,3.811090
277.9005,3.830988
277.9005,3.833719
277.9005,3.836450
277.9005,3.839181
276.8779,3.857518
276.7382,3.858023
276.5986,3.858703
276.4591,3.859469
273.9917,3.907847
273.9323,3.911083
273.8686,3.914494
273.7962,3.917990
273.7962,3.917990
273.6003,3.919276
273.4003,3.920736
273.1919,3.922282
273.1919,3.922282
273.0940,3.926964
272.9918,3.931646
272.8811,3.936327
272.8811,3.936327
272.5846,3.937512
272.2802,3.938784
271.9721,3.940229
271.9721,3.940229
271.9721,3.942960
271.9721,3.945691
271.9721,3.948422
267.0698,4.020989
266.7260,4.026610
266.5723,4.027723
266.4763,4.025281
265.1506,4.041277
265.1506,4.044008
265.1506,4.046739
265.1506,4.049470
257.0343,4.091996
256.9661,4.090450
256.9139,4.092501
256.9018,4.088990
256.8451,4.087704
256.8451,4.087704
256.7935,4.093181
256.7814,4.089929
256.7254,4.091981
256.6733,4.093946
254.0227,4.069757
254.0009,4.072214
253.9717,4.074844
253.9387,4.077560
253.9387,4.077560
253.8541,4.076375
253.7658,4.075104
253.6701,4.073659
252.4685,4.061564
252.4027,4.059614
252.3406,4.057663
252.2859,4.055712
251.2617,4.045178
251.1679,4.044412
251.0815,4.043733
250.9988,4.043227
250.4092,4.025281
250.2948,4.025281
250.1806,4.025281
250.0665,4.025281
250.0665,4.025281
250.0665,4.027737
250.0665,4.030367
250.0665,4.033084
249.9036,4.025281
249.7898,4.025281
249.6760,4.025281
249.5623,4.025281
248.8825,3.996800
248.8825,4.020989
248.8228,3.994069
248.7810,4.020989
248.7702,3.991338
248.7212,3.988607
248.6723,4.020989
248.5601,3.988607
248.5601,3.991338
248.5601,3.994069
248.5601,3.996800
248.5601,4.020989
247.3904,3.960516
247.3904,3.963247
247.3904,3.965978
247.3904,3.968709
244.4435,3.875465
244.4435,3.878196
244.4435,3.880927
244.4435,3.883658
241.4140,3.790803
241.3274,3.790037
241.2477,3.789358
241.1713,3.788852
241.1713,3.788852
241.1152,3.781439
241.0658,3.774027
241.0198,3.766614
241.0198,3.766614
240.8277,3.765068
240.6425,3.763608
240.4610,3.750228
240.4610,3.750228
240.4610,3.754143
240.4610,3.758146
240.4610,3.762322
240.4610,3.762322
240.3556,3.749462
240.2503,3.748782
240.1450,3.748277
240.1450,3.748277
239.6800,3.732006
239.2169,3.715909
238.7555,3.699899
237.6760,3.689755
237.6215,3.687530
237.5735,3.685478
237.5289,3.683513
233.7668,3.657373
233.7668,3.660104
233.7668,3.662835
233.7668,3.665566
227.9350,3.710043
227.8668,3.711227
227.7957,3.712499
227.7186,3.713944
226.8838,3.726039
226.8396,3.729954
226.7895,3.733957
226.7364,3.738133
225.9088,3.758421
225.8561,3.755690
225.8064,3.752959
225.7626,3.750228
224.4028,3.766614
224.0360,3.766614
223.6704,3.766614
223.3059,3.766614
##END=
