##TITLE=4-Methylstyrene
##JCAMP-DX=4.24
##DATA TYPE=UV/VIS SPECTRUM
##ORIGIN=INSTITUTE OF ENERGY PROBLEMS OF CHEMICAL PHYSICS, RAS
##OWNER=INEP CP RAS, NIST OSRD
Collection (C) 2007 copyright by the U.S. Secretary of Commerce
on behalf of the United States of America. All rights reserved.
##CAS REGISTRY NO=622-97-9
##MOLFORM=C9H10
##BP=172.8
##SOURCE REFERENCE=RAS UV No. 20119
##$NIST SQUIB=1969FIH/12
##$NIST SOURCE=TYUGLMTE
##SPECTROMETER/DATA SYSTEM=SF-4
##XUNITS=Wavelength (nm)
##YUNITS=Logarithm epsilon
##XFACTOR=1.0
##YFACTOR=1.0
##FIRSTX=200.85
##LASTX=268.43
##FIRSTY=4.298
##MAXX=268.43
##MINX=200.85
##MAXY=4.36
##MINY=3.548
##NPOINTS=175
##$REF AUTHOR=Fihtengolts, V.S.; et al.
##$REF JOURNAL=Atlas of UV Absorption Spectra of Substances Used in Synthetic Rubber Manufacture
##$REF PAGE=12
##$REF DATE=1969
##XYPOINTS=(XY..XY)
200.85,4.298
201.03,4.299
201.19,4.299
201.36,4.300
201.51,4.301
201.70,4.303
201.84,4.305
202.04,4.306
202.21,4.306
202.38,4.307
202.55,4.309
202.72,4.310
202.89,4.311
203.10,4.312
203.23,4.314
203.40,4.317
203.60,4.320
203.74,4.323
203.90,4.326
204.09,4.329
204.20,4.331
204.43,4.332
204.60,4.333
204.77,4.334
204.98,4.335
205.16,4.337
205.28,4.338
205.45,4.341
205.62,4.344
205.79,4.348
205.96,4.354
206.13,4.356
206.30,4.359
206.47,4.360
206.64,4.358
206.81,4.354
206.98,4.352
207.15,4.349
207.32,4.347
207.49,4.345
207.66,4.343
207.83,4.340
208.00,4.337
208.17,4.334
208.34,4.332
208.51,4.331
208.68,4.330
209.02,4.330
209.32,4.330
209.53,4.330
209.70,4.330
209.87,4.330
210.02,4.330
210.21,4.329
210.36,4.329
210.55,4.328
210.72,4.328
211.23,4.328
211.57,4.326
211.74,4.323
212.26,4.309
212.77,4.292
213.28,4.252
213.79,4.201
214.30,4.155
214.81,4.128
215.32,4.118
215.83,4.108
216.34,4.099
216.85,4.093
217.36,4.085
217.87,4.077
218.38,4.050
218.64,4.024
218.80,3.992
218.89,3.953
218.94,3.903
219.00,3.862
219.18,3.826
219.40,3.794
219.91,3.749
220.36,3.720
220.94,3.686
221.34,3.670
221.96,3.652
222.33,3.645
222.74,3.638
223.27,3.632
224.00,3.629
224.60,3.634
225.02,3.641
225.53,3.652
226.07,3.670
226.65,3.689
227.06,3.704
227.57,3.720
228.08,3.737
228.60,3.759
229.11,3.779
229.73,3.806
230.44,3.832
231.06,3.853
231.45,3.866
231.93,3.880
232.55,3.895
233.19,3.909
233.70,3.921
234.21,3.930
234.72,3.946
235.23,3.961
235.74,3.972
236.26,3.985
236.77,3.999
237.28,4.013
237.79,4.023
238.30,4.035
238.81,4.047
239.32,4.055
239.83,4.067
240.40,4.077
240.85,4.083
241.36,4.092
241.84,4.101
242.35,4.109
242.89,4.116
243.42,4.123
243.91,4.128
244.38,4.133
244.94,4.137
245.45,4.142
245.97,4.146
246.47,4.150
246.98,4.152
247.49,4.156
248.00,4.160
248.51,4.161
249.02,4.161
249.53,4.161
250.04,4.161
250.55,4.161
251.06,4.160
251.57,4.158
252.08,4.156
252.60,4.151
253.11,4.144
253.62,4.133
254.13,4.123
254.63,4.114
255.15,4.103
255.66,4.092
256.17,4.076
256.68,4.063
257.19,4.050
257.70,4.041
258.21,4.030
258.72,4.018
259.23,4.008
259.70,4.000
260.25,3.994
260.77,3.987
261.28,3.980
261.79,3.969
262.30,3.957
262.83,3.938
263.32,3.918
263.86,3.900
264.34,3.882
264.85,3.854
265.30,3.824
265.87,3.776
266.38,3.734
266.89,3.700
267.40,3.649
267.91,3.599
268.43,3.548
##END=
