##TITLE=Pyridine, 2,6-dimethoxy-
##JCAMP-DX=4.24
##DATA TYPE=UV/VIS SPECTRUM
##ORIGIN=INSTITUTE OF ENERGY PROBLEMS OF CHEMICAL PHYSICS, RAS
##OWNER=INEP CP RAS, NIST OSRD
Collection (C) 2007 copyright by the U.S. Secretary of Commerce
on behalf of the United States of America. All rights reserved.
##CAS REGISTRY NO=6231-18-1
##MOLFORM=C7H9NO2
##BP=179
##SOURCE REFERENCE=RAS UV No. 2002
##$NIST SQUIB=1966KAT/POP562-564
##$NIST SOURCE=TSGMTE
##SPECTROMETER/DATA SYSTEM=n.i.g.
##XUNITS=Wavelength (nm)
##YUNITS=Logarithm epsilon
##XFACTOR=1.000000
##YFACTOR=1.000000
##FIRSTX=210.0000
##LASTX=299.0000
##FIRSTY=3.72
##MAXX=299
##MINX=210
##MAXY=3.88029
##MINY=2.61
##NPOINTS=90
##$REF AUTHOR=Katritzky, A.R.; Popp, F.d.; Rowe, J.D.
##$REF TITLE=Potentially tautomeric pyridines. Part VII. Glutaconimide and its methyl derivatives
##$REF JOURNAL=J. Chem. Soc. B:
##$REF PAGE=562-564
##$REF DATE=1966
##XYPOINTS=(XY..XY)
210.0000,3.720000
211.0000,3.770000
212.0000,3.760000
213.0000,3.800000
214.0000,3.800000
215.0000,3.820000
216.0000,3.830000
217.0000,3.840000
218.0000,3.860000
219.0000,3.870000
220.0000,3.860000
221.0000,3.860000
222.0000,3.860000
223.0000,3.850000
224.0000,3.860000
225.0000,3.830000
226.0000,3.790000
227.0000,3.790000
228.0000,3.740000
229.0000,3.700000
230.0000,3.650000
231.0000,3.580000
232.0000,3.530000
233.0000,3.480000
234.0000,3.460000
235.0000,3.370000
236.0000,3.360000
237.0000,3.260000
238.0000,3.140000
239.0000,3.050000
240.0000,2.940000
241.0000,2.780000
242.0000,2.650000
243.0000,2.640000
244.0000,2.620000
245.0000,2.610000
246.0000,2.630000
247.0000,2.620000
248.0000,2.660000
249.0000,2.710000
250.0000,2.730000
251.0000,2.760000
252.0000,2.900000
253.0000,2.920000
254.0000,2.970000
255.0000,3.100000
256.0000,3.100000
257.0000,3.180000
258.0000,3.230000
259.0000,3.260000
260.0000,3.370000
261.0000,3.390000
262.0000,3.440000
263.0000,3.460000
264.0000,3.520000
265.0000,3.560000
266.0000,3.560000
267.0000,3.650000
268.0000,3.710000
269.0000,3.730000
270.0000,3.770000
271.0000,3.760000
272.0000,3.800000
273.0000,3.800000
274.0000,3.840000
275.0000,3.840000
276.0000,3.880000
277.0000,3.860000
278.0000,3.880000
279.0000,3.880000
280.0000,3.880286
281.0000,3.880286
282.0000,3.880000
283.0000,3.850000
284.0000,3.850000
285.0000,3.810000
286.0000,3.820000
287.0000,3.770000
288.0000,3.750000
289.0000,3.650000
290.0000,3.630000
291.0000,3.580000
292.0000,3.540000
293.0000,3.450000
294.0000,3.420000
295.0000,3.310000
296.0000,3.240000
297.0000,3.120000
298.0000,2.910000
299.0000,3.030000
##END=
