##TITLE=4-Hydroxybenzylalcohol
##JCAMP-DX=4.24
##DATA TYPE=UV/VIS SPECTRUM
##ORIGIN=INSTITUTE OF ENERGY PROBLEMS OF CHEMICAL PHYSICS, RAS
##OWNER=INEP CP RAS, NIST OSRD
Collection (C) 2007 copyright by the U.S. Secretary of Commerce
on behalf of the United States of America. All rights reserved.
##CAS REGISTRY NO=623-05-2
##MOLFORM=C7H8O2
##MP=124.5
##BP=252
##SOURCE REFERENCE=RAS UV No. 7963
##$NIST SQUIB=1968AUL/SAN1187-1209
##$NIST SOURCE=TSGMTE
##SPECTROMETER/DATA SYSTEM=Zeiss PMQ II ,Beckman DU, Beckman DK-2
##XUNITS=Wavelength (nm)
##YUNITS=Logarithm epsilon
##XFACTOR=1.000000
##YFACTOR=1.000000
##FIRSTX=219.4812
##LASTX=294.5878
##FIRSTY=3.83163
##MAXX=294.588
##MINX=219.481
##MAXY=3.93737
##MINY=2.00531
##NPOINTS=162
##$REF AUTHOR=Aulin-Erdtman, G.; Sanden, R.
##$REF TITLE=Spectrographic contributions to lignin chemistry. IX. Absorption properties of some 4-hydroxyphenyl, guaiacyl, and 4-hydroxy-3,5-dimethoxyphenyl type model compounds for hardwood lignins
##$REF JOURNAL=Acta Chem. Scand.
##$REF VOLUME=22
##$REF PAGE=1187-1209
##$REF DATE=1968
##XYPOINTS=(XY..XY)
219.4812,3.831626
220.4194,3.870349
222.3803,3.907462
225.0372,3.937374
225.0372,3.937374
227.5541,3.917572
229.0090,3.880650
229.7942,3.844541
229.7942,3.844541
230.3714,3.821272
231.3147,3.773258
232.2581,3.725244
232.8353,3.701976
232.8353,3.701976
233.0899,3.674845
233.3381,3.647705
233.5800,3.620555
233.8159,3.593394
234.0460,3.566224
234.2705,3.539045
234.4896,3.511857
234.7035,3.484660
234.9125,3.457455
235.1167,3.430241
235.3163,3.403019
235.5116,3.375790
235.7028,3.348553
235.8901,3.321309
236.0736,3.294058
236.2537,3.266800
236.4305,3.239536
236.6042,3.212265
236.7750,3.184989
236.9433,3.157707
237.1090,3.130420
237.2726,3.103128
237.4341,3.075830
237.5939,3.048528
237.7520,3.021222
237.9088,2.993912
238.0644,2.966597
238.2190,2.939280
238.3729,2.911959
238.5263,2.884635
238.6793,2.857308
238.8322,2.829978
238.9852,2.802647
239.1385,2.775313
239.2924,2.747977
239.4470,2.720640
239.6025,2.693302
239.7592,2.665963
239.9172,2.638623
240.0768,2.611283
240.2382,2.583942
240.4016,2.556602
240.5672,2.529262
240.7352,2.501922
240.9059,2.474584
241.0794,2.447246
241.2559,2.419910
241.4357,2.392575
241.6190,2.365243
241.8060,2.337912
241.9969,2.310584
242.1919,2.283259
242.3912,2.255936
242.3912,2.255936
242.9630,2.229712
243.7446,2.181906
244.4231,2.148226
244.4231,2.148226
245.0530,2.148823
245.6829,2.149348
246.3128,2.149732
246.3128,2.149732
246.8882,2.161164
247.7955,2.187695
249.8123,2.252066
249.8123,2.252066
251.0303,2.309354
252.0147,2.354815
252.8041,2.390568
253.4375,2.418727
253.9534,2.441409
254.3907,2.460731
254.7881,2.478809
255.1843,2.497759
255.6180,2.519699
255.6180,2.519699
256.3391,2.544536
257.3642,2.587666
258.0853,2.612503
258.0853,2.612503
258.6625,2.641714
259.2698,2.670856
259.9067,2.699928
260.5726,2.728927
261.2669,2.757853
261.9891,2.786702
262.7388,2.815472
263.5152,2.844163
264.3180,2.872771
265.1464,2.901296
266.0001,2.929734
266.8783,2.958085
267.7807,2.986345
268.7066,3.014514
269.6555,3.042590
270.6269,3.070569
271.6202,3.098451
272.6348,3.126233
272.6348,3.126233
274.2843,3.159222
276.4493,3.191972
279.3725,3.210210
279.3725,3.210210
283.2883,3.166144
285.0214,3.145032
286.0575,3.128780
286.0575,3.128780
287.3621,3.055331
287.9319,3.027405
288.2550,3.021062
288.2550,3.021062
288.4517,2.993734
288.6507,2.966398
288.8516,2.939056
289.0542,2.911707
289.2581,2.884350
289.4630,2.856987
289.6687,2.829616
289.8747,2.802238
290.0808,2.774854
290.2866,2.747463
290.4919,2.720064
290.6963,2.692659
290.8995,2.665246
291.1011,2.637827
291.3010,2.610401
291.4986,2.582967
291.6938,2.555527
291.8862,2.528081
292.0755,2.500627
292.2613,2.473166
292.4434,2.445699
292.6214,2.418225
292.7951,2.390744
292.9640,2.363256
293.1280,2.335762
293.2866,2.308261
293.4395,2.280753
293.5864,2.253238
293.7271,2.225717
293.8612,2.198189
293.9883,2.170654
294.1082,2.143113
294.2205,2.115565
294.3249,2.088010
294.4212,2.060449
294.5089,2.032881
294.5878,2.005307
##END=
