##TITLE=Disulfide, dimethyl
##JCAMP-DX=4.24
##DATA TYPE=UV/VIS SPECTRUM
##ORIGIN=INSTITUTE OF ENERGY PROBLEMS OF CHEMICAL PHYSICS, RAS
##OWNER=INEP CP RAS, NIST OSRD
Collection (C) 2007 copyright by the U.S. Secretary of Commerce
on behalf of the United States of America. All rights reserved.
##CAS REGISTRY NO=624-92-0
##MOLFORM=C2H6S2
##MP=-85
##BP=109.8
##SOURCE REFERENCE=RAS UV No. 9109
##$NIST SQUIB=1971BEA/HARi/12C
##$NIST SOURCE=TSGMTE
##SPECTROMETER/DATA SYSTEM=Zeiss PMQ II
##XUNITS=Wavelength (nm)
##YUNITS=Logarithm epsilon
##XFACTOR=1.000000
##YFACTOR=1.000000
##FIRSTX=199.3039
##LASTX=298.9636
##FIRSTY=3.51218
##MAXX=298.964
##MINX=199.304
##MAXY=3.51218
##MINY=1.65795
##NPOINTS=1000
##$REF AUTHOR=Beaven, G.H.; Harris, H.
##$REF TITLE=Dimethyl disulphide
##$REF BOOK TITLE=UV Atlas of Organic Compounds - Vol. 5
##$REF PAGE=I/12
##$REF DATE=1971
##$REF PUBLISHER=Plenum Press
##$REF LOCATION=New York
##XYPOINTS=(XY..XY)
199.3039,3.512180
199.4263,3.499374
199.4263,3.510131
199.6862,3.488617
199.6862,3.499374
199.8086,3.488617
199.9462,3.486569
200.0686,3.484520
200.0686,3.486569
200.1909,3.473763
200.1909,3.482215
200.3285,3.469409
200.3285,3.473763
200.4509,3.467360
200.4509,3.469409
200.5732,3.460958
200.5732,3.465311
200.6955,3.456604
200.6955,3.460958
200.8332,3.452506
200.8332,3.456604
200.9555,3.448152
200.9555,3.452506
201.0778,3.446103
201.0778,3.448152
201.2155,3.441749
201.2155,3.443798
201.3378,3.437396
201.3378,3.439444
201.4601,3.433042
201.4601,3.437396
201.5978,3.428944
201.5978,3.433042
201.8425,3.422541
201.8425,3.424590
201.9801,3.416138
201.9801,3.420236
202.1024,3.416138
202.2248,3.407431
202.2248,3.413833
202.3624,3.407431
202.4847,3.403333
202.4847,3.405382
202.6071,3.396930
202.6071,3.401028
202.7447,3.394625
202.7447,3.396930
202.8670,3.390527
202.8670,3.394625
202.9894,3.386174
202.9894,3.388222
203.1270,3.381820
203.1270,3.384125
203.2493,3.377722
203.2493,3.381820
203.3717,3.375417
203.3717,3.377722
203.5093,3.371319
203.5093,3.373368
203.6316,3.366965
203.6316,3.369014
203.8916,3.360563
203.8916,3.362612
204.0140,3.356209
204.0140,3.358514
204.1363,3.352111
204.1363,3.354160
204.2739,3.347757
204.2739,3.352111
204.3963,3.345452
204.3963,3.347757
204.5186,3.341354
204.5186,3.343403
204.6562,3.337001
204.6562,3.341354
204.9009,3.330598
204.9009,3.332647
205.0232,3.326244
205.0232,3.330598
205.2832,3.317792
205.2832,3.322146
205.4056,3.315743
205.4056,3.317792
205.5432,3.311390
205.5432,3.313438
205.6655,3.307036
205.6655,3.311390
205.7879,3.304987
205.7879,3.307036
205.9255,3.300633
205.9255,3.302938
206.0478,3.298584
206.0478,3.300633
206.1702,3.294230
206.1702,3.296535
206.3078,3.290132
206.3078,3.292181
206.4301,3.287827
206.4301,3.290132
206.5525,3.283730
206.5525,3.285779
206.6901,3.279376
206.6901,3.281425
206.8124,3.275022
206.8124,3.279376
206.9348,3.272973
206.9348,3.275022
207.3171,3.262217
207.3171,3.266570
207.4547,3.260168
207.4547,3.262217
207.5771,3.255814
207.5771,3.258119
207.6994,3.251460
207.6994,3.253765
207.9594,3.243008
207.9594,3.247362
208.0817,3.240959
208.0817,3.243008
208.2193,3.236606
208.2193,3.238654
208.3417,3.232252
208.3417,3.234557
208.4640,3.230203
208.4640,3.232252
208.6016,3.225849
208.6016,3.228154
208.7240,3.221751
208.7240,3.223800
208.9839,3.213043
208.9839,3.217397
209.1063,3.208946
209.1063,3.213043
209.2286,3.206641
209.2286,3.208946
209.3510,3.200238
209.3510,3.204592
209.4886,3.198189
209.4886,3.200238
209.6109,3.193835
209.6109,3.196140
209.7333,3.189738
209.7333,3.191786
209.9932,3.181030
209.9932,3.185384
210.1156,3.178981
210.1156,3.181030
210.2532,3.172578
210.2532,3.176932
210.3755,3.170529
210.3755,3.172578
210.4979,3.166175
210.4979,3.168224
210.6355,3.159773
210.6355,3.163870
210.7578,3.157468
210.7578,3.159773
210.8802,3.153370
210.8802,3.155419
211.0178,3.149016
211.0178,3.151065
211.1401,3.144662
211.1401,3.146967
211.2625,3.138259
211.2625,3.142613
211.4001,3.136211
211.4001,3.138259
211.5225,3.129808
211.5225,3.134162
211.6448,3.127759
211.6448,3.129808
211.7824,3.123405
211.7824,3.125454
211.9048,3.119051
211.9048,3.121356
212.0271,3.114953
212.0271,3.117002
212.1647,3.108551
212.1647,3.112648
212.4094,3.099843
212.4094,3.104197
212.6694,3.091391
212.6694,3.095745
212.7917,3.087038
212.7917,3.089343
213.0517,3.078586
213.0517,3.082940
213.1740,3.074232
213.1740,3.076537
213.2964,3.067829
213.2964,3.072183
213.4340,3.065780
213.4340,3.067829
213.5563,3.059378
213.5563,3.063475
213.6787,3.055024
213.6787,3.057073
213.8163,3.050670
213.8163,3.055024
213.9386,3.046572
213.9386,3.048621
214.0610,3.037864
214.0610,3.044267
214.1986,3.035816
214.1986,3.037864
214.3209,3.029413
214.3209,3.033767
214.4433,3.023010
214.4433,3.029413
214.5809,3.020961
214.7032,3.014559
214.7032,3.020961
214.8256,3.012254
214.8256,3.014559
214.9632,3.008156
214.9632,3.010205
215.0856,3.001753
215.0856,3.005851
215.2079,2.999448
215.2079,3.001753
215.3455,2.995350
215.3455,2.997399
215.4679,2.986643
215.4679,2.993045
215.5902,2.982545
215.5902,2.984594
215.7278,2.975886
215.7278,2.980240
215.9725,2.965385
215.9725,2.971788
216.2325,2.956678
216.2325,2.961032
216.4924,2.946177
216.4924,2.952580
216.6148,2.941823
216.6148,2.943872
216.7371,2.935421
216.7371,2.939775
216.8747,2.931067
216.8747,2.933372
216.9971,2.924664
216.9971,2.929018
217.1194,2.920566
217.1194,2.922615
217.2571,2.914164
217.2571,2.918261
217.3794,2.909810
217.3794,2.911859
217.5017,2.905456
217.5017,2.909810
217.6241,2.899053
217.6241,2.903407
217.7617,2.894955
217.7617,2.897004
217.8840,2.886248
217.8840,2.892650
218.1440,2.877796
218.1440,2.881894
218.2663,2.873442
218.2663,2.875491
218.3887,2.864990
218.3887,2.871393
218.6486,2.856283
218.6486,2.860637
218.7710,2.852185
218.7710,2.854234
218.9086,2.845782
218.9086,2.849880
219.0310,2.839379
219.0310,2.843477
219.1533,2.835026
219.1533,2.837074
219.2909,2.828623
219.2909,2.832977
219.4133,2.822220
219.4133,2.826574
219.5356,2.817866
219.5356,2.822220
219.6732,2.811464
219.6732,2.815817
219.7956,2.805061
219.7956,2.811464
219.9179,2.798658
219.9179,2.803012
220.0555,2.794304
220.0555,2.796609
220.1779,2.790206
220.1779,2.794304
220.3002,2.783804
220.3002,2.790206
220.4378,2.777401
220.4378,2.781499
220.5602,2.773047
220.5602,2.777401
220.6825,2.768693
220.6825,2.770998
220.8202,2.762291
220.8202,2.766644
220.9425,2.758193
220.9425,2.760242
221.0648,2.751790
221.0648,2.755888
221.2025,2.745387
221.2025,2.751790
221.3248,2.741033
221.3248,2.743082
221.4471,2.734631
221.4471,2.741033
221.5848,2.728228
221.5848,2.734631
221.7071,2.723874
221.7071,2.728228
221.8294,2.719776
221.8294,2.721825
221.9518,2.713374
221.9518,2.717471
222.0894,2.706971
222.0894,2.711069
222.2117,2.700312
222.2117,2.706971
222.3341,2.696214
222.3341,2.700312
222.4717,2.689812
222.4717,2.696214
222.5941,2.685458
222.5941,2.689812
222.7164,2.679055
222.7164,2.685458
222.8540,2.674701
222.8540,2.679055
222.9764,2.668298
222.9764,2.672652
223.0987,2.664201
223.0987,2.666249
223.2363,2.657798
223.2363,2.661896
223.3587,2.653444
223.3587,2.655493
223.4810,2.647041
223.4810,2.651395
223.6186,2.642687
223.6186,2.644992
223.7410,2.636285
223.7410,2.640638
223.8633,2.629882
223.8633,2.634236
224.0009,2.625784
224.0009,2.629882
224.1233,2.619381
224.1233,2.623479
224.2456,2.615027
224.2456,2.617076
224.3832,2.606320
224.3832,2.612722
224.5056,2.606320
224.6279,2.599917
224.6279,2.604271
224.7656,2.593514
224.7656,2.597868
224.8879,2.589417
224.8879,2.593514
225.0102,2.585063
225.0102,2.587112
225.1479,2.580709
225.1479,2.583014
225.2702,2.572257
225.2702,2.578660
225.3925,2.570208
225.3925,2.572257
225.5302,2.563805
225.5302,2.567903
225.6525,2.559452
225.6525,2.563805
225.7748,2.555098
225.7748,2.557403
225.9125,2.551000
225.9125,2.553049
226.0348,2.542292
226.0348,2.548695
226.1571,2.538195
226.1571,2.542292
226.2795,2.533841
226.2795,2.535890
226.4171,2.529487
226.4171,2.531792
226.5395,2.523084
226.5395,2.527438
226.6618,2.514632
226.6618,2.523084
226.7994,2.514632
226.9218,2.510279
226.9218,2.512327
227.0441,2.503876
227.0441,2.510279
227.1817,2.501827
227.1817,2.503876
227.3041,2.499522
227.4264,2.495424
227.4264,2.499522
227.5640,2.489022
227.5640,2.493119
227.6864,2.486716
227.6864,2.489022
227.8087,2.480314
227.8087,2.484668
227.9463,2.478265
227.9463,2.480314
228.0687,2.473911
228.0687,2.476216
228.1910,2.467508
228.1910,2.471862
228.3287,2.465459
228.3287,2.467508
228.4510,2.461106
228.4510,2.463411
228.5733,2.461106
228.7110,2.457008
228.7110,2.459057
228.8333,2.452654
228.8333,2.454703
228.9556,2.448300
228.9556,2.452654
229.0933,2.441897
229.0933,2.446251
229.2156,2.437800
229.2156,2.439848
229.3379,2.433446
229.3379,2.435495
229.4756,2.427043
229.4756,2.431141
229.7202,2.420640
229.7202,2.422689
229.8579,2.416286
229.8579,2.418335
229.9802,2.414237
229.9802,2.416286
230.1026,2.411933
230.1026,2.414237
230.2402,2.407835
230.2402,2.409884
230.3625,2.405530
230.3625,2.407835
230.6072,2.399127
230.6072,2.401432
230.7448,2.395029
230.7448,2.397078
230.8672,2.395029
230.9895,2.388627
230.9895,2.392724
231.1271,2.388627
231.2495,2.384273
231.2495,2.386321
231.3718,2.379919
231.3718,2.382224
231.5094,2.377870
231.6318,2.375821
231.6318,2.377870
231.7541,2.373516
231.7541,2.375821
231.8917,2.369418
231.8917,2.371467
232.0141,2.367113
232.0141,2.369418
232.1364,2.365065
232.1364,2.367113
232.2741,2.363016
232.2741,2.365065
232.3964,2.358662
232.3964,2.360711
232.5187,2.356613
232.5187,2.358662
232.6564,2.354308
232.6564,2.356613
232.7787,2.354308
232.9010,2.350210
232.9010,2.352259
233.0387,2.347905
233.0387,2.350210
233.1610,2.347905
233.4210,2.343807
233.5433,2.341502
233.5433,2.343807
233.9256,2.335100
234.1856,2.333051
234.1856,2.335100
234.3079,2.330746
234.3079,2.333051
234.4303,2.328697
234.4303,2.330746
234.5679,2.328697
234.6902,2.326648
234.8126,2.326648
234.9349,2.324343
235.1949,2.322294
235.1949,2.324343
235.3172,2.322294
235.5772,2.317940
235.8372,2.317940
235.9595,2.315891
236.6018,2.315891
236.7241,2.313843
236.9841,2.313843
237.1064,2.311538
239.5226,2.311538
239.6449,2.313843
240.1649,2.313843
240.2872,2.315891
240.9295,2.315891
241.0518,2.317940
241.4341,2.317940
241.5565,2.320245
241.9388,2.320245
242.0764,2.322294
242.4587,2.322294
242.5810,2.324343
242.8410,2.324343
242.9633,2.326648
243.4680,2.328697
243.4680,2.326648
243.7280,2.328697
243.8503,2.330746
244.2326,2.330746
244.3549,2.333051
244.4926,2.333051
244.6149,2.335100
244.9972,2.335100
245.1196,2.337148
245.5019,2.339453
245.5019,2.337148
245.6395,2.339453
245.7618,2.341502
246.0218,2.343807
246.0218,2.341502
246.1441,2.343807
246.2665,2.345856
246.5264,2.347905
246.5264,2.345856
246.9087,2.347905
247.0311,2.350210
247.1687,2.350210
247.2911,2.352259
247.4134,2.354308
247.4134,2.352259
247.5510,2.356613
247.5510,2.354308
247.9180,2.356613
248.0557,2.358662
248.3003,2.360711
248.3003,2.358662
248.4380,2.360711
248.5603,2.363016
248.6827,2.363016
248.8203,2.365065
248.9426,2.367113
248.9426,2.365065
249.2026,2.367113
249.3249,2.369418
249.4473,2.369418
249.5849,2.371467
249.7072,2.371467
249.9672,2.375821
250.2119,2.375821
250.3495,2.377870
250.5942,2.379919
250.5942,2.377870
250.8542,2.382224
250.8542,2.379919
250.9765,2.382224
251.2365,2.386321
251.4964,2.386321
251.6188,2.388627
251.8787,2.390675
251.8787,2.388627
252.1234,2.392724
252.1234,2.390675
252.2457,2.392724
252.3834,2.395029
252.5057,2.397078
252.5057,2.395029
252.7657,2.397078
252.8880,2.399127
253.1480,2.399127
253.2703,2.401432
253.3927,2.403481
253.3927,2.401432
253.5303,2.403481
253.6526,2.405530
253.9126,2.407835
253.9126,2.405530
254.2949,2.409884
254.2949,2.407835
254.5396,2.409884
254.6772,2.411933
254.7996,2.411933
255.0595,2.416286
255.3042,2.416286
255.4418,2.418335
255.8241,2.420640
255.8241,2.418335
256.0688,2.420640
256.2064,2.422689
256.3288,2.422689
256.5735,2.427043
256.9558,2.429092
256.9558,2.427043
257.3381,2.431141
257.3381,2.429092
257.5980,2.431141
257.7204,2.433446
257.9803,2.433446
258.1027,2.435495
258.8673,2.437800
258.8673,2.435495
259.0049,2.439848
259.0049,2.437800
259.1273,2.439848
259.2496,2.441897
259.3872,2.441897
259.5096,2.444202
259.8919,2.446251
259.8919,2.444202
260.3965,2.446251
260.5342,2.448300
261.1611,2.448300
261.2835,2.450605
261.4211,2.450605
261.5434,2.452654
263.5773,2.452654
263.7149,2.454703
263.9596,2.454703
264.0973,2.452654
266.1311,2.452654
266.2535,2.450605
266.5134,2.450605
266.6358,2.448300
267.0181,2.448300
267.1404,2.446251
267.4004,2.446251
267.5227,2.444202
268.0427,2.441897
268.0427,2.444202
268.1650,2.441897
268.2873,2.439848
268.6696,2.437800
268.6696,2.439848
269.0519,2.437800
269.1896,2.435495
269.3119,2.435495
269.4342,2.433446
269.5566,2.433446
269.6942,2.431141
269.9389,2.429092
269.9389,2.431141
270.1989,2.429092
270.3212,2.427043
270.5812,2.427043
270.7035,2.424738
270.8411,2.422689
270.8411,2.424738
270.9635,2.420640
270.9635,2.422689
271.2234,2.420640
271.3458,2.418335
271.6058,2.416286
271.6058,2.418335
271.7281,2.416286
271.8504,2.414237
271.9881,2.411933
271.9881,2.414237
272.1104,2.411933
272.2327,2.409884
272.3704,2.407835
272.3704,2.409884
272.6150,2.407835
272.7527,2.405530
272.8750,2.405530
272.9973,2.403481
273.1350,2.401432
273.1350,2.403481
273.2573,2.399127
273.2573,2.401432
273.3797,2.399127
273.5020,2.397078
273.7620,2.395029
273.7620,2.397078
273.8843,2.395029
274.4042,2.386321
274.6489,2.386321
274.9089,2.382224
275.0312,2.379919
275.0312,2.382224
275.1688,2.377870
275.1688,2.379919
275.2912,2.377870
275.4135,2.375821
275.5512,2.375821
275.7958,2.369418
275.7958,2.371467
275.9335,2.369418
276.0558,2.367113
276.1781,2.365065
276.1781,2.367113
276.3158,2.363016
276.3158,2.365065
276.4381,2.360711
276.4381,2.363016
276.5604,2.358662
276.5604,2.360711
276.6981,2.356613
276.9427,2.354308
276.9427,2.356613
277.0804,2.352259
277.0804,2.354308
277.2027,2.347905
277.2027,2.350210
277.3251,2.347905
277.4627,2.345856
277.5850,2.343807
277.5850,2.345856
277.7074,2.341502
277.7074,2.343807
277.8297,2.337148
277.8297,2.339453
277.9673,2.337148
278.0897,2.335100
278.2120,2.333051
278.2120,2.335100
278.4720,2.326648
278.4720,2.328697
278.5943,2.326648
278.7319,2.324343
278.8543,2.322294
278.8543,2.324343
278.9766,2.317940
278.9766,2.320245
279.1143,2.315891
279.2366,2.313843
279.2366,2.315891
279.3589,2.311538
279.3589,2.313843
279.7412,2.305135
279.8789,2.303086
279.8789,2.305135
280.0012,2.298732
280.0012,2.301037
280.1235,2.296683
280.1235,2.298732
280.2612,2.294634
280.2612,2.296683
280.3835,2.292329
280.3835,2.294634
280.5058,2.288232
280.5058,2.290280
281.0258,2.277475
281.0258,2.279524
281.1481,2.275426
281.2705,2.273121
281.2705,2.275426
281.5304,2.264669
281.5304,2.269023
281.6528,2.264669
281.9127,2.256218
281.9127,2.260316
282.0351,2.253913
282.0351,2.256218
282.2950,2.247510
282.2950,2.249815
282.6773,2.236754
282.6773,2.241107
282.7997,2.234705
282.7997,2.236754
282.9220,2.232656
282.9220,2.234705
283.0597,2.228302
283.0597,2.230351
283.1820,2.223948
283.1820,2.226253
283.3043,2.221899
283.3043,2.223948
283.4420,2.219850
283.4420,2.221899
283.5643,2.215496
283.5643,2.217545
283.8243,2.209094
283.8243,2.211142
283.9466,2.204740
283.9466,2.207045
284.0689,2.202691
284.0689,2.204740
284.2066,2.198337
284.2066,2.202691
284.3289,2.194239
284.3289,2.196288
284.4513,2.191934
284.4513,2.194239
284.5889,2.189885
284.5889,2.191934
284.7112,2.185532
284.7112,2.187836
284.8336,2.181434
284.8336,2.183483
284.9712,2.179129
284.9712,2.181434
285.0935,2.175031
285.0935,2.177080
285.3535,2.168628
285.3535,2.170677
285.4758,2.164275
285.4758,2.166323
285.5982,2.162226
285.5982,2.164275
285.7358,2.155567
285.7358,2.159921
285.8581,2.153518
285.8581,2.155567
285.9805,2.149164
285.9805,2.153518
286.1181,2.145066
286.1181,2.147115
286.2404,2.142761
286.2404,2.145066
286.3628,2.138664
286.3628,2.142761
286.4851,2.134310
286.4851,2.136358
286.6228,2.132261
286.6228,2.134310
286.7451,2.127907
286.7451,2.129956
286.8674,2.123553
286.8674,2.125858
287.0051,2.119455
287.0051,2.121504
287.1274,2.115101
287.1274,2.117150
287.2497,2.110748
287.2497,2.113052
287.5097,2.102296
287.5097,2.106650
287.6320,2.100247
287.6320,2.102296
287.7697,2.095893
287.7697,2.097942
287.8920,2.091539
287.8920,2.093844
288.0143,2.081039
288.0143,2.089490
288.1520,2.078734
288.1520,2.081039
288.2743,2.076685
288.2743,2.078734
288.3967,2.068233
288.3967,2.074636
288.5343,2.057477
288.5343,2.065928
288.6566,2.057477
288.9166,2.053123
289.0389,2.051074
289.0389,2.053123
289.1613,2.048769
289.1613,2.051074
289.2989,2.040317
289.2989,2.046720
289.4212,2.038268
289.5436,2.035963
289.5436,2.038268
289.6812,2.029561
289.6812,2.033914
289.8035,2.021109
289.8035,2.027512
289.9259,2.021109
290.0635,2.016755
290.0635,2.019060
290.1858,2.012658
290.1858,2.016755
290.3082,2.010353
290.3082,2.012658
290.4458,2.003950
290.4458,2.008304
290.5682,1.999852
290.5682,2.001901
290.8128,1.991145
290.8128,1.995498
291.0728,1.982693
291.0728,1.987047
291.1951,1.978339
291.1951,1.982693
291.3328,1.974241
291.3328,1.976290
291.4551,1.969887
291.4551,1.974241
291.5774,1.963485
291.5774,1.967582
291.7151,1.959131
291.7151,1.963485
291.9598,1.948374
291.9598,1.954777
292.0974,1.946325
292.0974,1.948374
292.2197,1.939922
292.2197,1.944276
292.3421,1.935569
292.3421,1.937873
292.4797,1.929166
292.4797,1.933520
292.6020,1.927117
292.6020,1.929166
292.7244,1.918665
292.7244,1.925068
292.8620,1.916360
292.8620,1.918665
292.9843,1.907909
292.9843,1.914311
293.1067,1.907909
293.2443,1.901506
293.2443,1.905860
293.3666,1.897152
293.3666,1.899457
293.4890,1.888701
293.4890,1.895103
293.6266,1.886651
293.6266,1.888701
293.7489,1.877944
293.7489,1.884347
293.8713,1.875895
293.8713,1.877944
294.0089,1.869492
294.0089,1.873590
294.1313,1.865138
294.1313,1.867187
294.2536,1.858736
294.2536,1.863090
294.5136,1.847979
294.5136,1.854382
294.6359,1.845930
294.6359,1.847979
294.7735,1.839528
294.7735,1.843882
294.8959,1.835174
294.8959,1.837479
295.0182,1.831076
295.0182,1.833125
295.1405,1.824673
295.1405,1.828771
295.2782,1.820319
295.2782,1.822368
295.4005,1.815965
295.4005,1.818270
295.5228,1.809562
295.5228,1.813916
295.6605,1.805465
295.6605,1.809562
295.7828,1.799062
295.7828,1.803160
295.9052,1.794708
295.9052,1.796757
296.0428,1.788306
296.0428,1.792659
296.1651,1.783951
296.1651,1.788306
296.2875,1.775500
296.2875,1.781903
296.5474,1.764743
296.5474,1.771146
296.8074,1.753987
296.8074,1.760389
296.9297,1.749889
296.9297,1.751938
297.0521,1.743486
297.0521,1.747584
297.1897,1.739132
297.1897,1.741182
297.3120,1.732730
297.3120,1.737084
297.4344,1.726327
297.4344,1.730681
297.5720,1.721973
297.5720,1.726327
297.6943,1.717875
297.6943,1.719924
297.8167,1.711472
297.8167,1.715571
297.9543,1.705070
297.9543,1.709167
298.0767,1.698667
298.0767,1.702765
298.1990,1.692008
298.1990,1.698667
298.3366,1.685606
298.3366,1.689959
298.4590,1.681508
298.4590,1.685606
298.5813,1.675105
298.5813,1.679203
298.7189,1.670751
298.7189,1.675105
298.8413,1.664349
298.8413,1.668703
298.9636,1.657946
298.9636,1.664349
##END=
