##TITLE=3H-dibenz[f,ij]isoquinoline-2,7-dione
##JCAMP-DX=4.24
##DATA TYPE=UV/VIS SPECTRUM
##ORIGIN=INSTITUTE OF ENERGY PROBLEMS OF CHEMICAL PHYSICS, RAS
##OWNER=INEP CP RAS, NIST OSRD
Collection (C) 2007 copyright by the U.S. Secretary of Commerce
on behalf of the United States of America. All rights reserved.
##CAS REGISTRY NO=6248-10-8
##MOLFORM=C16H9NO2
##SOURCE REFERENCE=RAS UV No. 22284
##$NIST SQUIB=1978MIK/1373
##$NIST SOURCE=TYUGLMTE
##SPECTROMETER/DATA SYSTEM=SF-4A
##XUNITS=Wavelength (nm)
##YUNITS=Logarithm epsilon
##XFACTOR=1.0
##YFACTOR=1.0
##FIRSTX=256.627
##LASTX=442.525
##FIRSTY=4.052
##MAXX=442.525
##MINX=256.627
##MAXY=4.052
##MINY=2.628
##NPOINTS=190
##$REF AUTHOR=Mikhailova, T.A.; et al.
##$REF JOURNAL=Khim. Geterosikl. Soedin.
##$REF PAGE=1373
##$REF DATE=1978
##XYPOINTS=(XY..XY)
256.627,4.052
257.627,4.051
258.627,4.047
259.627,4.043
260.627,4.038
261.627,4.035
262.627,4.031
263.627,4.027
264.627,4.020
265.627,4.011
266.627,3.997
267.627,3.977
268.627,3.951
269.627,3.918
270.627,3.878
271.627,3.833
272.627,3.784
273.627,3.735
274.225,3.705
274.942,3.680
275.942,3.648
276.942,3.624
277.942,3.605
278.942,3.591
279.942,3.581
280.942,3.574
281.942,3.571
282.942,3.570
283.942,3.573
284.942,3.579
285.942,3.588
286.942,3.599
287.942,3.614
288.942,3.632
289.942,3.653
290.942,3.675
291.942,3.700
292.942,3.724
293.942,3.748
294.942,3.769
295.000,3.770
296.000,3.785
297.000,3.800
298.000,3.814
299.000,3.827
300.000,3.840
301.000,3.851
302.000,3.861
303.000,3.870
304.000,3.877
305.000,3.884
306.000,3.890
307.000,3.896
308.000,3.900
309.000,3.904
310.000,3.907
311.000,3.908
312.000,3.908
313.000,3.906
314.000,3.900
315.000,3.890
316.000,3.874
317.000,3.851
318.000,3.819
318.030,3.818
319.030,3.787
320.030,3.767
321.030,3.754
322.030,3.747
323.030,3.743
324.030,3.742
325.030,3.742
326.030,3.743
327.030,3.746
328.030,3.751
329.030,3.758
330.030,3.767
331.030,3.779
332.030,3.791
333.030,3.803
334.030,3.813
334.374,3.816
335.374,3.825
336.374,3.833
337.374,3.840
338.374,3.847
339.374,3.853
340.374,3.859
341.374,3.865
342.374,3.872
343.374,3.878
344.374,3.884
345.374,3.889
346.374,3.895
347.374,3.900
348.374,3.904
349.374,3.907
350.374,3.909
351.374,3.909
352.374,3.908
353.374,3.905
354.374,3.901
355.374,3.894
356.374,3.885
357.374,3.874
358.374,3.862
359.374,3.847
360.408,3.831
361.408,3.816
362.408,3.798
363.408,3.779
364.408,3.759
365.408,3.739
366.408,3.721
367.408,3.704
368.408,3.688
369.408,3.675
370.408,3.663
371.408,3.654
372.408,3.646
373.408,3.639
374.408,3.634
375.408,3.629
376.408,3.625
377.408,3.622
378.408,3.619
379.408,3.616
380.387,3.613
381.413,3.610
382.525,3.607
383.525,3.604
384.525,3.602
385.525,3.600
386.525,3.599
387.525,3.598
388.525,3.598
389.525,3.597
390.525,3.597
391.525,3.597
392.525,3.596
393.525,3.596
394.525,3.595
395.525,3.593
396.525,3.592
397.525,3.589
398.525,3.586
399.525,3.582
400.525,3.577
401.525,3.572
402.525,3.565
403.525,3.558
404.525,3.550
405.525,3.541
406.525,3.530
407.525,3.519
408.525,3.507
409.525,3.495
410.525,3.481
411.525,3.467
412.525,3.451
413.525,3.435
414.525,3.419
415.525,3.402
416.525,3.384
417.525,3.366
418.525,3.347
419.525,3.328
420.525,3.309
421.525,3.290
422.525,3.270
423.525,3.250
424.525,3.229
425.525,3.209
426.525,3.188
427.525,3.167
428.525,3.145
429.525,3.123
430.525,3.100
431.525,3.075
432.525,3.050
433.525,3.023
434.525,2.994
435.525,2.963
436.525,2.929
437.525,2.891
438.525,2.850
439.525,2.803
440.525,2.752
441.525,2.694
442.525,2.628
##END=
