##TITLE=1-Propyne, 3-chloro-
##JCAMP-DX=4.24
##DATA TYPE=UV/VIS SPECTRUM
##ORIGIN=INSTITUTE OF ENERGY PROBLEMS OF CHEMICAL PHYSICS, RAS
##OWNER=INEP CP RAS, NIST OSRD
Collection (C) 2007 copyright by the U.S. Secretary of Commerce
on behalf of the United States of America. All rights reserved.
##CAS REGISTRY NO=624-65-7
##MOLFORM=C3H3Cl
##BP=57
##SOURCE REFERENCE=RAS UV No. 19926
##$NIST SQUIB=1966PER/BRAa2/2
##$NIST SOURCE=TYUGLMTE
##SPECTROMETER/DATA SYSTEM=Zeiss PMQ II
##XUNITS=Wavelength (nm)
##YUNITS=Logarithm epsilon
##XFACTOR=1.0
##YFACTOR=1.0
##FIRSTX=182.24
##LASTX=237.18
##FIRSTY=3.782
##MAXX=237.18
##MINX=182.24
##MAXY=3.809
##MINY=1.015
##NPOINTS=138
##$REF AUTHOR=Perkampus, H.-H.; Braunschweig, T.H.
##$REF JOURNAL=UV atlas of organic compounds
##$REF VOLUME=1
##$REF PAGE=A2/2
##$REF DATE=1966
##XYPOINTS=(XY..XY)
182.24,3.782
182.31,3.782
182.38,3.784
182.45,3.784
182.52,3.786
182.59,3.786
182.66,3.788
182.73,3.788
182.80,3.788
182.87,3.790
182.94,3.790
183.01,3.792
183.08,3.792
183.15,3.794
183.22,3.794
183.29,3.797
183.36,3.797
183.43,3.799
183.50,3.799
183.57,3.801
183.64,3.801
183.99,3.803
184.35,3.805
184.72,3.808
185.07,3.807
185.43,3.807
185.79,3.807
186.16,3.807
186.52,3.807
186.89,3.807
187.25,3.807
187.62,3.807
187.99,3.809
188.37,3.809
188.74,3.809
189.11,3.807
189.49,3.805
189.87,3.803
190.25,3.801
190.63,3.797
191.01,3.792
191.40,3.788
191.78,3.782
192.16,3.775
192.51,3.768
192.95,3.760
193.32,3.754
193.72,3.746
194.13,3.739
194.52,3.731
194.92,3.720
195.32,3.711
195.72,3.701
196.13,3.690
196.53,3.679
196.94,3.669
197.35,3.658
197.76,3.645
198.17,3.633
198.58,3.616
199.00,3.601
199.41,3.584
199.83,3.562
200.25,3.543
200.68,3.522
201.10,3.501
201.53,3.479
201.95,3.454
202.38,3.430
202.81,3.407
203.25,3.383
203.68,3.360
204.12,3.330
204.56,3.300
205.00,3.277
205.44,3.247
205.88,3.219
206.33,3.188
206.78,3.158
207.19,3.128
207.68,3.096
208.14,3.064
208.59,3.036
209.04,3.007
209.51,2.972
209.97,2.940
210.44,2.911
210.90,2.879
211.37,2.847
211.84,2.815
212.31,2.781
212.79,2.755
213.26,2.723
213.74,2.695
214.22,2.666
214.71,2.634
215.19,2.604
215.68,2.572
216.17,2.542
216.66,2.510
217.16,2.474
217.65,2.440
218.15,2.401
218.65,2.367
219.16,2.338
219.66,2.306
220.17,2.274
220.68,2.240
221.19,2.210
221.65,2.187
222.23,2.152
222.75,2.114
223.27,2.082
223.79,2.044
224.27,2.008
224.85,1.976
225.38,1.939
225.92,1.899
226.46,1.858
227.00,1.818
227.54,1.777
228.08,1.735
228.63,1.692
229.18,1.652
229.73,1.616
230.29,1.575
230.85,1.530
231.41,1.488
231.97,1.439
232.54,1.392
233.11,1.343
233.68,1.303
234.22,1.263
234.83,1.219
235.42,1.173
236.00,1.121
236.61,1.067
237.18,1.015
##END=
