##TITLE=5,9-dihydro-9-oxo-3-beta-D-ribofuranosylimidazo [1,2-a] purine
##JCAMP-DX=4.24
##DATA TYPE=UV/VIS SPECTRUM
##ORIGIN=INSTITUTE OF ENERGY PROBLEMS OF CHEMICAL PHYSICS, RAS
##OWNER=INEP CP RAS, NIST OSRD
Collection (C) 2007 copyright by the U.S. Secretary of Commerce
on behalf of the United States of America. All rights reserved.
##CAS REGISTRY NO=62462-38-8
##MOLFORM=C12H13N5O6
##MP=252-253
##SOURCE REFERENCE=RAS UV No. 22516
##$NIST SQUIB=1977SAT/3292
##$NIST SOURCE=TYUGLMTE
##SPECTROMETER/DATA SYSTEM=Beckman Acta M VI
##XUNITS=Wavelength (nm)
##YUNITS=Logarithm epsilon
##XFACTOR=1.0
##YFACTOR=1.0
##FIRSTX=219.784
##LASTX=307.209
##FIRSTY=4.466
##MAXX=307.209
##MINX=219.784
##MAXY=4.534
##MINY=2.98
##NPOINTS=89
##$REF AUTHOR=Sattsangi, P.D.; et al.
##$REF JOURNAL=J. Org. Chem.
##$REF VOLUME=42
##$REF PAGE=3292
##$REF DATE=1977
##XYPOINTS=(XY..XY)
219.784,4.466
220.784,4.480
221.784,4.496
222.784,4.511
223.784,4.523
224.784,4.531
225.784,4.534
226.784,4.532
227.784,4.524
228.784,4.512
229.784,4.494
230.784,4.470
231.784,4.438
232.287,4.422
232.874,4.404
233.874,4.344
234.874,4.255
235.874,4.144
236.874,4.015
237.874,3.872
238.874,3.723
239.874,3.583
240.874,3.471
241.874,3.404
242.874,3.381
243.874,3.388
244.937,3.400
246.025,3.413
246.977,3.431
247.874,3.448
248.954,3.479
250.204,3.506
251.315,3.546
252.315,3.572
253.315,3.600
254.315,3.630
255.315,3.659
256.315,3.688
257.315,3.717
258.315,3.744
259.315,3.771
260.315,3.796
261.315,3.820
262.315,3.842
263.315,3.863
264.315,3.883
265.315,3.902
266.315,3.919
267.315,3.936
268.315,3.951
269.315,3.965
270.315,3.978
271.315,3.990
272.315,4.001
273.315,4.011
274.315,4.021
275.315,4.029
276.315,4.037
277.315,4.043
278.315,4.049
279.315,4.054
280.315,4.058
281.315,4.061
282.315,4.063
283.315,4.065
284.315,4.065
285.315,4.064
286.315,4.062
287.315,4.059
288.315,4.054
289.315,4.048
290.315,4.041
291.315,4.032
292.315,4.020
293.315,4.007
294.315,3.991
295.276,3.971
296.209,3.945
297.209,3.903
298.209,3.851
299.209,3.791
300.209,3.722
301.209,3.643
302.209,3.555
303.209,3.458
304.209,3.353
305.209,3.240
306.209,3.119
307.209,2.980
##END=
