##TITLE=Aniline
##JCAMP-DX=4.24
##DATA TYPE=UV/VIS SPECTRUM
##ORIGIN=INSTITUTE OF ENERGY PROBLEMS OF CHEMICAL PHYSICS, RAS
##OWNER=INEP CP RAS, NIST OSRD
Collection (C) 2007 copyright by the U.S. Secretary of Commerce
on behalf of the United States of America. All rights reserved.
##CAS REGISTRY NO=62-53-3
##MOLFORM=C6H7N
##MP=-6.0
##BP=184.1
##SOURCE REFERENCE=RAS UV No. 168
##$NIST SQUIB=1949RAM/HOC447-454
##$NIST SOURCE=TSGMTE
##SPECTROMETER/DATA SYSTEM=n.i.g.
##XUNITS=Wavelength (nm)
##YUNITS=Logarithm epsilon
##XFACTOR=1.000000
##YFACTOR=1.000000
##FIRSTX=210.0000
##LASTX=399.0000
##FIRSTY=3.88
##MAXX=399
##MINX=210
##MAXY=3.98
##MINY=1.38
##NPOINTS=190
##$REF AUTHOR=Ramart-Lucas, M.; Hoch, J.; Grumez, M.
##$REF TITLE=Deformation des orbites electroniques de l'azote par cyclisation (serie du benzotriazole et du phenyltriazole)
##$REF JOURNAL=Bull. Soc. Chim. Fr.
##$REF VOLUME=16
##$REF PAGE=447-454
##$REF DATE=1949
##XYPOINTS=(XY..XY)
210.0000,3.880000
211.0000,3.860000
212.0000,3.900000
213.0000,3.940000
214.0000,3.950000
215.0000,3.950000
216.0000,3.960000
217.0000,3.970000
218.0000,3.960000
219.0000,3.970000
220.0000,3.970000
221.0000,3.970000
222.0000,3.980000
223.0000,3.970000
224.0000,3.950000
225.0000,3.960000
226.0000,3.950000
227.0000,3.930000
228.0000,3.910000
229.0000,3.920000
230.0000,3.900000
231.0000,3.890000
232.0000,3.870000
233.0000,3.840000
234.0000,3.810000
235.0000,3.790000
236.0000,3.770000
237.0000,3.740000
238.0000,3.710000
239.0000,3.690000
240.0000,3.650000
241.0000,3.610000
242.0000,3.570000
243.0000,3.530000
244.0000,3.500000
245.0000,3.470000
246.0000,3.450000
247.0000,3.350000
248.0000,3.310000
249.0000,3.260000
250.0000,3.240000
251.0000,3.240000
252.0000,3.110000
253.0000,3.100000
254.0000,3.030000
255.0000,3.060000
256.0000,3.010000
257.0000,3.000000
258.0000,2.980000
259.0000,2.960000
260.0000,2.920000
261.0000,2.940000
262.0000,2.950000
263.0000,2.910000
264.0000,2.910000
265.0000,2.900000
266.0000,2.880000
267.0000,2.890000
268.0000,2.890000
269.0000,2.890000
270.0000,2.880000
271.0000,2.880000
272.0000,2.870000
273.0000,2.880000
274.0000,2.870000
275.0000,2.870000
276.0000,2.870000
277.0000,2.890000
278.0000,2.880000
279.0000,2.880000
280.0000,2.880000
281.0000,2.900000
282.0000,2.900000
283.0000,2.910000
284.0000,2.950000
285.0000,2.940000
286.0000,2.930000
287.0000,2.920000
288.0000,2.910000
289.0000,2.970000
290.0000,3.000000
291.0000,2.990000
292.0000,2.980000
293.0000,3.030000
294.0000,3.040000
295.0000,3.090000
296.0000,3.100000
297.0000,3.110000
298.0000,3.110000
299.0000,3.120000
300.0000,3.120000
301.0000,3.120000
302.0000,3.120000
303.0000,3.180000
304.0000,3.180000
305.0000,3.180000
306.0000,3.180000
307.0000,3.190000
308.0000,3.200000
309.0000,3.210000
310.0000,3.220000
311.0000,3.220000
312.0000,3.220000
313.0000,3.230000
314.0000,3.240000
315.0000,3.240000
316.0000,3.250000
317.0000,3.270000
318.0000,3.260000
319.0000,3.270000
320.0000,3.270000
321.0000,3.270000
322.0000,3.270000
323.0000,3.270000
324.0000,3.330000
325.0000,3.310000
326.0000,3.330000
327.0000,3.330000
328.0000,3.330000
329.0000,3.320000
330.0000,3.310000
331.0000,3.300000
332.0000,3.290000
333.0000,3.290000
334.0000,3.290000
335.0000,3.310000
336.0000,3.330000
337.0000,3.330000
338.0000,3.310000
339.0000,3.320000
340.0000,3.300000
341.0000,3.300000
342.0000,3.300000
343.0000,3.300000
344.0000,3.310000
345.0000,3.320000
346.0000,3.310000
347.0000,3.280000
348.0000,3.290000
349.0000,3.310000
350.0000,3.230000
351.0000,3.210000
352.0000,3.200000
353.0000,3.130000
354.0000,3.120000
355.0000,3.090000
356.0000,3.080000
357.0000,3.080000
358.0000,3.080000
359.0000,3.070000
360.0000,3.070000
361.0000,3.070000
362.0000,3.070000
363.0000,3.080000
364.0000,3.080000
365.0000,3.080000
366.0000,3.080000
367.0000,3.080000
368.0000,3.060000
369.0000,3.060000
370.0000,3.000000
371.0000,2.880000
372.0000,2.870000
373.0000,2.870000
374.0000,2.700000
375.0000,2.630000
376.0000,2.640000
377.0000,2.570000
378.0000,2.550000
379.0000,2.400000
380.0000,2.360000
381.0000,2.320000
382.0000,2.250000
383.0000,2.100000
384.0000,2.040000
385.0000,1.980000
386.0000,1.950000
387.0000,1.850000
388.0000,1.830000
389.0000,1.740000
390.0000,1.740000
391.0000,1.700000
392.0000,1.720000
393.0000,1.670000
394.0000,1.590000
395.0000,1.600000
396.0000,1.500000
397.0000,1.470000
398.0000,1.429999
399.0000,1.379999
##END=
