##TITLE=2,5-Dimethylpyrrole
##JCAMP-DX=4.24
##DATA TYPE=UV/VIS SPECTRUM
##ORIGIN=INSTITUTE OF ENERGY PROBLEMS OF CHEMICAL PHYSICS, RAS
##OWNER=INEP CP RAS, NIST OSRD
Collection (C) 2007 copyright by the U.S. Secretary of Commerce
on behalf of the United States of America. All rights reserved.
##CAS REGISTRY NO=625-84-3
##MOLFORM=C6H9N
##BP=171; 51(8)
##SOURCE REFERENCE=RAS UV No. 4048
##$NIST SQUIB=1967CHI/HIN745-759
##$NIST SOURCE=TSGMTE
##SPECTROMETER/DATA SYSTEM=n.i.g.
##XUNITS=Wavelength (nm)
##YUNITS=Logarithm epsilon
##XFACTOR=1.000000
##YFACTOR=1.000000
##FIRSTX=209.4537
##LASTX=322.3127
##FIRSTY=3.84936
##MAXX=322.313
##MINX=209.454
##MAXY=3.84936
##MINY=2.72535
##NPOINTS=999
##$REF AUTHOR=Chiang, Y.; Hinman, R.L.; Theodoropulos, S.; Whipple, E.B.
##$REF TITLE=The protonation of n-phenylpyrroles
##$REF JOURNAL=Tetrahedron
##$REF VOLUME=23
##$REF PAGE=745-759
##$REF DATE=1967
##XYPOINTS=(XY..XY)
209.4537,3.849361
209.4650,3.844699
209.5575,3.844068
209.5816,3.833922
209.6740,3.833348
209.7009,3.821675
209.8047,3.821086
209.8188,3.814817
209.9114,3.814141
209.9240,3.808465
210.0165,3.807779
210.0334,3.800057
210.1373,3.799358
210.1515,3.792765
210.2396,3.794133
210.2425,3.792775
210.2636,3.782735
210.2679,3.780683
210.2751,3.777212
210.3306,3.794143
210.3335,3.792785
210.3562,3.782007
210.3589,3.780693
210.4514,3.779961
210.4571,3.777232
210.4755,3.768180
210.5538,3.779972
210.5594,3.777244
210.5792,3.767513
210.5920,3.761104
210.5949,3.759638
210.6019,3.756082
210.6844,3.760425
210.6929,3.756092
210.6943,3.755395
210.7868,3.754619
210.7952,3.750316
210.8991,3.749533
210.9132,3.742132
211.0056,3.741423
211.0155,3.736166
211.1080,3.735356
211.1193,3.729284
211.2230,3.728555
211.2331,3.723046
211.3255,3.722304
211.3282,3.720796
211.4207,3.719956
211.4334,3.712895
211.5373,3.712041
211.5415,3.709625
211.7263,3.708095
211.7334,3.703990
211.8244,3.704002
211.8287,3.701540
211.9324,3.700763
211.9396,3.696588
212.0319,3.695800
212.0348,3.694096
212.1272,3.693304
212.1315,3.690780
212.2338,3.690794
212.2424,3.685703
212.3347,3.684896
212.3390,3.682323
212.4314,3.681509
212.4370,3.678083
212.5394,3.678097
212.5452,3.674539
212.6375,3.673710
212.6445,3.669372
212.7355,3.669385
212.7398,3.666718
212.8323,3.665767
212.8380,3.662214
212.9417,3.661363
212.9460,3.658646
213.0370,3.658660
213.0441,3.654057
213.1365,3.653189
213.1408,3.650420
213.2445,3.649546
213.2474,3.647649
213.3398,3.646768
213.3469,3.642037
213.4393,3.641144
213.4449,3.637383
213.5473,3.637398
213.5515,3.634527
213.6439,3.633618
213.6482,3.630722
213.7407,3.629689
213.7448,3.626883
213.8487,3.625842
213.8543,3.621946
213.9467,3.621010
213.9552,3.615026
214.1401,3.613001
214.1458,3.608987
214.3420,3.606936
214.3490,3.601873
214.4400,3.601888
214.4443,3.598771
214.5467,3.598788
214.5496,3.596656
214.7343,3.594670
214.7386,3.591501
214.8409,3.591518
214.8466,3.587300
214.9376,3.587315
214.9391,3.586158
215.0315,3.585142
215.0344,3.582941
215.1381,3.581920
215.1395,3.580878
215.2320,3.579719
215.2347,3.577622
215.3257,3.577638
215.3271,3.576586
215.5234,3.574375
215.5263,3.572120
215.6172,3.572136
215.6186,3.571070
215.7110,3.570018
215.7139,3.567740
215.8176,3.566682
215.8192,3.565468
215.9101,3.565484
216.1062,3.563352
216.1972,3.563368
216.2001,3.561054
216.2925,3.559978
216.2954,3.557646
216.3864,3.557662
216.4901,3.556579
216.4915,3.555475
216.5825,3.555492
216.5840,3.554246
216.6750,3.554262
216.6764,3.553152
216.7788,3.553171
216.7801,3.552058
216.8711,3.552074
216.8740,3.549700
217.0674,3.549735
217.0688,3.548613
217.1598,3.548630
217.1627,3.546237
217.3588,3.544008
217.3603,3.542728
217.4513,3.542746
217.4527,3.541605
217.5437,3.541622
217.5450,3.540479
217.8337,3.536942
217.9247,3.536959
217.9260,3.535803
218.0284,3.535823
218.2133,3.533392
218.3157,3.533412
218.3170,3.532247
218.4080,3.532264
218.6043,3.529816
218.6953,3.529833
218.7877,3.528676
218.8787,3.528694
218.9826,3.527389
219.0736,3.527406
219.0749,3.526225
219.1659,3.526243
219.2697,3.525079
219.4516,3.525114
219.4532,3.523778
219.7376,3.523834
219.8413,3.522663
220.0233,3.522699
220.1156,3.521522
220.4000,3.521579
220.5037,3.520402
222.0166,3.520700
222.1062,3.521915
222.4816,3.521989
222.5712,3.523199
222.6736,3.523219
222.7632,3.524427
222.9566,3.524464
223.0460,3.525816
223.1370,3.525834
223.2380,3.527036
223.3290,3.527054
223.4187,3.528251
223.5081,3.529591
223.5097,3.528268
223.7001,3.530800
223.7015,3.529628
223.7911,3.530818
223.8921,3.532006
223.9816,3.533335
223.9831,3.532024
224.0712,3.534514
224.0726,3.533352
224.1736,3.534534
224.2632,3.535710
224.3527,3.537027
224.3542,3.535728
224.4537,3.538199
224.4551,3.537047
224.8234,3.542990
224.9131,3.544144
224.9144,3.543007
225.0025,3.545436
225.0041,3.544161
225.1049,3.545455
225.4746,3.550167
225.5643,3.551302
225.5656,3.550184
225.6537,3.552573
225.6553,3.551319
226.0348,3.557211
226.1245,3.558328
226.1258,3.557228
226.2141,3.559441
226.2155,3.558344
226.4032,3.562887
226.4046,3.561798
226.4927,3.564124
226.4942,3.562903
226.5937,3.565225
226.5950,3.564143
226.6833,3.566321
226.6847,3.565241
226.7729,3.567415
226.7743,3.566337
226.8610,3.569711
226.8624,3.568639
227.2406,3.575360
227.2421,3.574170
227.3289,3.577484
227.3302,3.576431
227.4170,3.579727
227.4199,3.577499
227.5180,3.580789
227.5193,3.579745
227.6061,3.583016
227.6076,3.581847
227.6957,3.584068
227.6971,3.583032
227.7952,3.586280
227.7981,3.584086
227.8848,3.587324
227.8862,3.586296
227.9744,3.588366
227.9758,3.587340
228.0625,3.590555
228.0639,3.589533
228.1635,3.591591
228.1649,3.590572
228.2530,3.592749
228.2545,3.591606
228.4423,3.595815
228.4436,3.594806
228.6200,3.598983
228.6214,3.597981
228.7195,3.601120
228.7208,3.600124
228.8091,3.602130
228.8105,3.601135
228.8986,3.603260
228.9001,3.602144
229.0877,3.606376
229.0892,3.605268
229.2656,3.609346
229.2669,3.608368
229.3650,3.611433
229.3664,3.610460
229.5428,3.614490
229.5441,3.613523
229.6422,3.616552
229.6438,3.615470
229.8201,3.619453
229.8215,3.618498
229.9196,3.621493
229.9210,3.620542
230.0093,3.622456
230.0106,3.621507
230.0973,3.624479
230.0987,3.623535
230.2864,3.627447
230.2878,3.626509
230.3745,3.629448
230.3761,3.628397
230.4628,3.631323
230.4642,3.630393
230.5623,3.633307
230.5652,3.631338
230.6519,3.634244
230.6533,3.633321
230.8410,3.637147
230.8424,3.636229
230.9291,3.639103
230.9307,3.638076
231.2079,3.642892
231.2092,3.641986
231.3856,3.645735
231.3871,3.644723
231.4866,3.646647
231.4880,3.645750
231.5747,3.648562
231.5776,3.646661
231.6643,3.649466
231.6657,3.648575
231.7597,3.654022
231.7624,3.652256
231.7653,3.650371
231.7667,3.649481
231.8492,3.655025
231.8548,3.651383
231.8563,3.650384
231.9444,3.652282
231.9458,3.651396
232.0425,3.655053
232.0454,3.653181
232.0468,3.652297
232.1351,3.654076
232.1364,3.653194
232.2245,3.655080
232.2261,3.654090
232.3255,3.655973
232.3269,3.655095
232.5046,3.657860
232.5942,3.658745
232.5956,3.657873
232.6953,3.659631
232.6966,3.658760
232.7863,3.659644
233.0664,3.662395
233.1558,3.663379
233.1574,3.662408
233.2582,3.663394
233.3478,3.664268
233.4375,3.665141
233.4388,3.664281
233.5271,3.666012
233.5284,3.665154
233.6295,3.666027
233.7189,3.667003
233.8099,3.667016
234.0006,3.668750
234.0900,3.669720
234.0916,3.668763
234.1924,3.669734
234.2820,3.670596
234.3717,3.671457
234.3730,3.670609
234.4740,3.671471
234.5635,3.672435
234.6531,3.673291
234.6545,3.672448
234.7427,3.674146
234.7441,3.673304
234.9346,3.675119
234.9361,3.674173
235.1280,3.675145
235.2176,3.675997
235.3086,3.676009
235.4096,3.676860
235.4992,3.677708
235.5006,3.676873
235.6911,3.678673
235.6926,3.677735
235.8717,3.679529
235.8730,3.678698
236.0637,3.680386
236.0651,3.679556
236.2441,3.681343
236.2457,3.680411
236.4375,3.681369
236.5271,3.682209
236.7205,3.682235
236.8101,3.683072
236.9011,3.683085
237.0020,3.684025
237.1826,3.684871
237.1840,3.684050
237.3760,3.684897
237.4656,3.685730
237.5680,3.685744
237.6574,3.686677
237.9418,3.686715
238.0314,3.687544
238.3144,3.688397
238.3158,3.687582
240.5780,3.688701
240.6817,3.687900
240.7727,3.687912
240.8651,3.687109
240.9675,3.687122
241.0600,3.686215
241.1510,3.686227
241.1524,3.685408
241.3457,3.685434
241.3471,3.684614
241.5291,3.684638
241.6330,3.683727
241.7240,3.683740
242.0126,3.681199
242.1036,3.681211
242.2074,3.680397
242.2984,3.680409
242.2997,3.679579
242.3907,3.679591
242.4946,3.678670
242.5856,3.678682
242.6780,3.677861
242.7690,3.677874
242.7704,3.677039
242.9637,3.677065
243.0561,3.676241
243.3404,3.676280
243.4444,3.675352
243.5354,3.675364
243.5367,3.674524
243.7301,3.674551
243.7315,3.673710
243.8225,3.673722
243.9150,3.672786
244.0060,3.672799
244.0073,3.671954
244.1097,3.671969
244.1126,3.670168
244.2931,3.671148
244.2946,3.670193
244.3954,3.671162
244.4880,3.670220
244.5790,3.670233
244.6827,3.669398
244.7737,3.669410
244.7751,3.668559
244.9571,3.668585
244.9586,3.667625
245.1520,3.667652
245.1533,3.666797
245.2443,3.666810
245.3481,3.665968
245.4391,3.665981
245.4404,3.665122
245.6338,3.665150
245.6353,3.664182
245.8173,3.664208
245.9211,3.663361
246.0121,3.663374
246.0134,3.662510
246.1954,3.662536
246.1970,3.661563
246.3903,3.661591
246.3917,3.660724
246.5851,3.660751
246.6774,3.659896
246.7684,3.659909
246.8723,3.658944
246.9633,3.658957
246.9647,3.658085
247.1581,3.658113
247.1594,3.657239
247.2504,3.657252
247.3430,3.656280
247.4340,3.656293
247.5377,3.655430
247.7197,3.655457
247.7211,3.654577
247.9144,3.654606
247.9158,3.653724
248.1092,3.653753
248.2017,3.652773
248.2927,3.652786
248.3964,3.651916
248.4874,3.651929
248.5798,3.651056
248.7732,3.651085
248.7747,3.650085
248.9567,3.650112
249.0604,3.649237
249.2424,3.649263
249.2438,3.648371
249.4372,3.648400
249.5297,3.647408
249.7231,3.647436
249.8154,3.646554
250.0088,3.646583
250.1011,3.645699
250.1921,3.645712
250.2959,3.644828
250.5802,3.644870
250.6728,3.643870
250.7638,3.643884
250.8561,3.642994
250.9585,3.643009
251.0509,3.642118
251.2442,3.642147
251.3368,3.641140
251.6211,3.641183
251.7135,3.640288
252.1912,3.640359
252.2836,3.639463
252.6590,3.639519
252.7629,3.638508
253.2292,3.638578
253.3216,3.637678
253.7083,3.637736
253.8007,3.636834
254.5514,3.636947
254.6553,3.635930
256.7255,3.636244
256.8264,3.637291
257.9524,3.637461
258.0535,3.638391
258.6222,3.638477
258.7118,3.639403
259.6559,3.639545
259.7454,3.640582
260.0284,3.641533
260.0297,3.640625
260.2217,3.641562
260.3114,3.642481
260.4024,3.642495
260.5032,3.643527
260.6852,3.643554
260.7862,3.644471
261.0592,3.644512
261.1602,3.645427
261.3422,3.645454
261.4430,3.646479
261.6250,3.646506
261.7260,3.647417
261.9080,3.647444
262.0090,3.648353
262.1910,3.648379
262.2807,3.649285
262.5650,3.649326
262.6659,3.650343
262.9502,3.650384
263.0399,3.651285
263.1309,3.651299
263.2319,3.652200
263.3229,3.652213
263.4123,3.653221
263.6057,3.653249
263.6953,3.654144
263.8887,3.654172
263.9783,3.655065
264.0693,3.655078
264.1702,3.656081
264.4545,3.656122
264.5442,3.657012
264.8285,3.657053
264.9182,3.657940
265.5779,3.658035
265.6675,3.658920
265.8609,3.658948
265.9504,3.659941
266.8035,3.660063
266.8931,3.660944
267.4605,3.661892
267.4618,3.661025
269.2577,3.662148
269.3500,3.661295
269.8278,3.661363
269.9201,3.660509
270.2955,3.660563
270.3994,3.659600
270.9681,3.659681
271.0605,3.658824
271.3448,3.658864
271.3462,3.657992
271.7216,3.658046
271.7229,3.657172
272.0073,3.657213
272.0088,3.656228
272.2932,3.656269
272.2946,3.655391
272.4879,3.655419
272.5803,3.654553
272.8647,3.654594
272.8662,3.653603
273.0482,3.653629
273.1519,3.652761
273.2429,3.652775
273.3353,3.651903
273.5287,3.651931
273.6212,3.650947
273.8146,3.650976
273.9069,3.650100
274.1003,3.650129
274.1017,3.649239
274.1927,3.649252
274.2850,3.648373
274.3874,3.648388
274.4799,3.647396
274.5709,3.647410
274.7670,3.645645
274.9490,3.645672
274.9506,3.644660
275.0529,3.644675
275.1453,3.643787
275.2363,3.643801
275.2377,3.642898
275.4310,3.642926
275.5236,3.641922
275.6259,3.641937
275.8106,3.640148
275.9130,3.640164
276.0056,3.639152
276.0966,3.639166
276.1889,3.638267
276.2913,3.638282
276.3836,3.637381
276.4746,3.637395
276.4760,3.636478
276.5784,3.636494
276.5799,3.635460
276.7619,3.635488
276.7633,3.634567
276.9566,3.634596
276.9580,3.633674
277.0490,3.633688
277.0505,3.632647
277.1529,3.632663
277.3376,3.630836
277.4286,3.630849
277.4302,3.629802
277.6235,3.629832
277.8196,3.627994
277.9106,3.628008
277.9122,3.626954
278.0045,3.626029
278.1069,3.626045
278.1083,3.625104
278.1993,3.625118
278.2006,3.624176
278.2916,3.624190
278.7765,3.619280
278.8675,3.619295
279.0638,3.617292
279.0652,3.616332
279.1562,3.616346
281.1650,3.595250
281.2674,3.595267
281.2690,3.594130
282.0309,3.585831
282.1219,3.585846
282.1233,3.584814
282.3196,3.582645
282.4106,3.582661
282.4119,3.581621
282.5143,3.581638
282.5158,3.580465
282.6068,3.580481
282.6082,3.579436
282.6992,3.579451
282.7006,3.578404
282.8968,3.576203
282.9878,3.576218
282.9892,3.575163
283.0802,3.575179
283.0831,3.572927
283.1855,3.572945
283.2778,3.571898
283.2792,3.570832
283.3702,3.570848
283.3717,3.569645
283.4741,3.569663
283.4755,3.568592
283.5665,3.568608
283.5678,3.567534
283.6588,3.567550
283.6604,3.566338
283.7627,3.566356
283.7641,3.565277
283.8551,3.565293
283.8565,3.564210
283.9475,3.564227
283.9488,3.563142
284.9073,3.551755
284.9086,3.550638
285.0110,3.550657
285.2996,3.547201
285.3010,3.546073
285.4859,3.543699
285.4872,3.542561
285.5782,3.542579
286.1555,3.535508
286.1569,3.534349
286.6418,3.528304
286.7328,3.528321
286.8251,3.527160
286.9275,3.527180
287.0199,3.526016
287.0214,3.524683
287.1138,3.523512
287.1151,3.522320
287.2189,3.521145
287.3099,3.521163
287.3114,3.519815
287.4038,3.518631
287.4051,3.517425
288.1787,3.507352
288.1800,3.506115
288.2710,3.506133
288.2724,3.504893
288.3634,3.504911
288.3649,3.503511
288.4673,3.503532
288.5597,3.502303
288.5610,3.501052
288.6520,3.501070
288.6536,3.499658
289.0345,3.494518
289.1369,3.494540
289.1383,3.493266
289.7155,3.485338
289.8065,3.485357
289.8079,3.484056
290.0965,3.480025
290.0981,3.478542
290.1891,3.478562
290.1904,3.477240
290.2814,3.477260
290.2828,3.475934
290.3852,3.475956
290.3867,3.474460
290.4777,3.474480
290.4791,3.473145
290.5701,3.473165
290.5714,3.471827
291.7260,3.454997
291.7273,3.453602
292.2122,3.446311
292.3032,3.446332
292.3046,3.444908
292.3956,3.444929
292.3970,3.443500
295.8490,3.387338
295.8505,3.385502
295.9415,3.385526
297.2922,3.361520
297.3832,3.361546
297.3845,3.359814
297.4755,3.359840
297.4769,3.358102
297.5808,3.356167
297.6718,3.356193
297.6732,3.354440
297.7641,3.354466
297.7655,3.352706
297.8679,3.352736
297.8694,3.350747
297.9604,3.350774
297.9618,3.348999
298.0541,3.347243
298.1451,3.347270
298.1467,3.345256
298.2491,3.345286
298.7224,3.336133
298.7238,3.334297
298.8261,3.334328
299.7844,3.315105
299.7859,3.312935
299.8769,3.312964
300.0730,3.309144
300.1640,3.309173
300.1656,3.306974
300.2566,3.307003
300.2579,3.305039
300.3603,3.305072
300.3617,3.303100
300.4527,3.303129
300.4542,3.300899
300.5452,3.300929
300.5466,3.298938
300.6376,3.298968
300.6389,3.296967
300.7413,3.297001
300.7428,3.294739
300.8338,3.294769
300.8352,3.292749
300.9262,3.292779
301.1223,3.288776
301.2133,3.288807
301.2148,3.286502
301.3172,3.286536
301.3186,3.284477
301.4096,3.284508
301.4109,3.282440
301.5035,3.280132
301.6058,3.280167
301.6072,3.278078
301.6982,3.278109
301.6996,3.276010
301.7906,3.276041
301.7921,3.273668
301.8831,3.273699
301.8844,3.271578
301.9868,3.271614
301.9882,3.269483
302.0792,3.269515
302.0807,3.267105
302.1717,3.267138
302.1731,3.264984
302.2755,3.265021
302.2768,3.262857
302.3678,3.262890
302.3692,3.260715
302.4602,3.260748
302.4617,3.258289
302.5641,3.258326
302.5655,3.256128
302.6564,3.256161
302.6578,3.253953
302.7488,3.253986
302.7503,3.251488
302.8413,3.251521
303.1300,3.244613
303.2323,3.244651
304.4792,3.213479
304.5702,3.213516
304.5716,3.211079
304.6626,3.211115
304.6640,3.208665
304.7663,3.208706
305.5285,3.187943
305.6195,3.187981
305.6209,3.185396
305.7232,3.185440
305.7246,3.182840
305.8156,3.182879
305.8171,3.179935
305.9081,3.179975
306.2891,3.169174
306.3915,3.169220
306.3929,3.166520
306.4839,3.166561
306.6801,3.160856
306.7711,3.160897
306.7725,3.158146
306.8635,3.158187
306.8648,3.155418
306.9672,3.155465
307.3484,3.143673
307.4394,3.143715
307.7278,3.135205
307.8188,3.135248
307.8204,3.131962
307.9227,3.132011
307.9241,3.129070
308.0151,3.129114
308.0165,3.126152
308.1075,3.126197
308.3037,3.119933
308.3947,3.119978
308.3961,3.116953
308.4985,3.117004
308.5000,3.113576
308.5910,3.113622
308.5924,3.110553
308.6834,3.110599
308.8795,3.104495
308.9705,3.104541
309.0630,3.101061
309.1654,3.101114
309.1667,3.097954
309.2577,3.098002
309.2591,3.094820
309.3501,3.094867
309.3516,3.091260
309.4540,3.091314
309.4554,3.088082
309.5464,3.088131
309.6387,3.084924
309.7411,3.084979
309.7426,3.081288
309.8336,3.081337
309.9260,3.078080
310.0170,3.078130
310.0184,3.074798
310.1207,3.074854
310.2133,3.071126
310.3043,3.071177
310.3056,3.067791
310.4080,3.067848
310.4094,3.064436
310.5004,3.064488
310.5927,3.061101
310.6951,3.061159
310.6966,3.057259
310.7876,3.057311
310.8800,3.053868
310.9710,3.053920
310.9724,3.050397
311.0747,3.050456
311.0763,3.046458
311.1673,3.046512
311.2596,3.042981
311.3620,3.043042
311.3634,3.039429
311.4544,3.039483
311.5469,3.035437
311.6493,3.035499
311.6506,3.031822
311.7416,3.031877
311.9379,3.024080
312.0289,3.024136
312.2136,3.016668
312.3160,3.016732
312.5009,3.008648
312.6032,3.008714
312.7880,3.000973
312.8903,3.001040
313.0752,2.992656
313.1776,2.992724
313.2700,2.988726
313.3610,2.988787
313.5572,2.980168
313.6482,2.980230
313.7406,2.976115
313.8430,2.976185
313.8445,2.971438
313.9355,2.971501
314.0279,2.967302
314.1302,2.967374
314.3150,2.958853
314.5083,2.958992
314.7970,2.945338
314.8880,2.945406
314.9805,2.940376
315.0829,2.940453
315.1752,2.935941
315.2662,2.936010
315.3700,2.931459
315.4610,2.931529
315.6459,2.921673
315.7482,2.921753
315.8406,2.917041
315.9316,2.917113
316.0353,2.912360
316.1263,2.912433
316.3226,2.902137
316.4136,2.902212
316.5060,2.897282
316.6083,2.897367
316.7009,2.891744
316.7919,2.891821
316.8842,2.886771
316.9866,2.886858
317.0789,2.881749
317.1699,2.881828
317.3662,2.870771
317.4572,2.870851
317.5610,2.865560
317.6519,2.865641
317.7445,2.859589
317.8469,2.859682
318.0316,2.848732
318.2249,2.848912
318.2263,2.843249
318.4083,2.843420
318.5122,2.837059
318.6032,2.837146
318.6956,2.831414
318.7979,2.831512
318.8903,2.825705
318.9813,2.825794
319.1776,2.813192
319.2686,2.813284
319.3609,2.807226
319.4633,2.807330
319.5558,2.800402
319.7492,2.800603
319.8416,2.794364
320.0349,2.794567
320.0363,2.788143
320.3093,2.788435
320.4132,2.781208
320.5952,2.781406
320.5966,2.774783
320.7899,2.774995
320.8823,2.768375
321.0757,2.768591
321.0770,2.761768
321.2704,2.761987
321.3629,2.754290
321.5449,2.754499
321.5463,2.747450
321.6487,2.747570
321.7410,2.740514
321.8320,2.740622
321.9359,2.732547
322.1179,2.732768
322.1193,2.725353
322.3127,2.725591
##END=
