##TITLE=Pyridine, 3-bromo-
##JCAMP-DX=4.24
##DATA TYPE=UV/VIS SPECTRUM
##ORIGIN=INSTITUTE OF ENERGY PROBLEMS OF CHEMICAL PHYSICS, RAS
##OWNER=INEP CP RAS, NIST OSRD
Collection (C) 2007 copyright by the U.S. Secretary of Commerce
on behalf of the United States of America. All rights reserved.
##CAS REGISTRY NO=626-55-1
##MOLFORM=C5H4BrN
##MP=- 27.3
##BP=173
##SOURCE REFERENCE=RAS UV No. 12080
##$NIST SQUIB=1955BRO/MCD3752
##$NIST SOURCE=TYUGLMTE
##SPECTROMETER/DATA SYSTEM=Cary spectrophotometer
##XUNITS=Wavelength (nm)
##YUNITS=Logarithm epsilon
##XFACTOR=1.0
##YFACTOR=1.0
##FIRSTX=219.97
##LASTX=283.22
##FIRSTY=3.579
##MAXX=283.22
##MINX=219.97
##MAXY=3.579
##MINY=1.477
##NPOINTS=378
##$REF AUTHOR=Brown, H.C.; McDaniel, D.H.
##$REF JOURNAL=J. Am. Chem. Soc.
##$REF VOLUME=77
##$REF PAGE=3752
##$REF DATE=1955
##XYPOINTS=(XY..XY)
219.97,3.579
220.64,3.543
220.76,3.534
220.91,3.521
221.04,3.514
221.17,3.501
221.31,3.492
221.44,3.483
221.56,3.473
221.70,3.459
221.82,3.450
221.97,3.441
222.10,3.435
222.24,3.426
222.37,3.415
222.50,3.406
222.64,3.398
222.77,3.393
222.90,3.387
223.04,3.378
223.17,3.368
223.32,3.358
223.46,3.349
223.57,3.343
223.70,3.331
223.85,3.319
223.97,3.306
224.10,3.291
224.23,3.284
224.37,3.278
224.50,3.267
224.63,3.262
224.77,3.254
224.91,3.244
225.06,3.238
225.17,3.231
225.30,3.222
225.46,3.212
225.63,3.200
225.79,3.186
225.90,3.175
225.97,3.170
226.10,3.162
226.23,3.152
226.38,3.142
226.50,3.135
226.61,3.124
226.75,3.110
226.90,3.095
228.10,3.001
229.29,2.945
229.65,2.930
230.12,2.911
230.54,2.900
230.84,2.891
231.07,2.884
231.27,2.877
231.57,2.866
231.83,2.859
232.08,2.855
232.22,2.853
232.36,2.853
232.49,2.853
232.62,2.851
232.77,2.850
232.89,2.849
233.02,2.847
233.16,2.844
233.29,2.842
233.42,2.840
233.55,2.838
233.69,2.836
233.82,2.835
233.95,2.834
234.09,2.832
234.22,2.832
234.35,2.832
234.50,2.832
234.63,2.832
234.78,2.832
234.95,2.832
235.05,2.832
235.17,2.832
235.34,2.832
235.44,2.832
235.55,2.832
235.69,2.832
235.82,2.832
235.95,2.832
236.09,2.832
236.22,2.832
236.35,2.832
236.48,2.832
236.61,2.832
236.76,2.834
236.89,2.837
237.04,2.839
237.68,2.849
237.81,2.850
237.97,2.851
238.11,2.852
238.27,2.853
238.40,2.854
238.50,2.855
238.62,2.857
238.77,2.858
238.90,2.859
239.01,2.861
239.06,2.861
239.28,2.865
239.81,2.877
239.95,2.880
240.08,2.884
240.21,2.886
240.35,2.888
240.49,2.890
240.61,2.892
240.76,2.895
240.88,2.899
241.01,2.903
241.15,2.907
241.34,2.911
241.67,2.921
241.81,2.924
241.94,2.928
242.08,2.931
242.21,2.936
242.34,2.940
242.48,2.945
242.67,2.952
242.85,2.960
243.04,2.965
243.16,2.968
243.28,2.970
243.41,2.975
243.54,2.983
243.68,2.989
243.81,2.998
243.98,3.004
244.10,3.009
244.21,3.012
244.34,3.015
244.47,3.018
244.61,3.022
244.74,3.026
244.87,3.032
245.02,3.037
245.18,3.043
245.29,3.046
245.42,3.049
245.54,3.053
245.67,3.058
245.81,3.063
245.93,3.067
246.07,3.073
246.31,3.083
246.47,3.089
246.60,3.095
246.74,3.097
246.90,3.100
247.02,3.103
247.14,3.106
247.27,3.108
247.40,3.111
247.53,3.114
247.67,3.122
247.80,3.128
247.96,3.134
248.07,3.139
248.23,3.147
248.34,3.152
248.47,3.156
248.60,3.160
248.74,3.162
248.87,3.165
249.00,3.168
249.13,3.172
249.28,3.179
249.40,3.185
249.53,3.189
249.69,3.193
249.80,3.195
249.93,3.198
250.07,3.204
250.20,3.209
250.33,3.213
250.47,3.220
250.60,3.227
250.73,3.232
250.90,3.237
251.02,3.241
251.13,3.246
251.26,3.251
251.40,3.256
252.46,3.291
252.60,3.297
252.78,3.303
252.89,3.307
253.00,3.312
253.15,3.317
253.26,3.320
253.40,3.326
253.53,3.334
253.66,3.341
253.79,3.346
253.93,3.351
254.06,3.358
254.19,3.363
254.33,3.368
254.46,3.374
254.59,3.379
254.73,3.385
254.86,3.390
254.99,3.394
255.13,3.400
255.26,3.405
255.39,3.409
255.53,3.415
255.66,3.420
255.79,3.424
255.93,3.429
256.06,3.434
256.19,3.438
256.32,3.443
256.46,3.448
256.59,3.452
256.72,3.457
256.86,3.461
256.99,3.465
257.12,3.470
257.26,3.474
257.38,3.476
257.52,3.479
257.66,3.483
257.79,3.486
257.92,3.491
258.06,3.495
258.19,3.499
258.32,3.503
258.46,3.507
258.59,3.510
258.72,3.512
258.85,3.514
258.99,3.515
259.13,3.516
259.25,3.518
259.39,3.521
259.52,3.523
259.65,3.525
259.79,3.527
259.94,3.529
260.06,3.531
260.19,3.533
260.32,3.534
260.45,3.536
260.59,3.538
260.72,3.538
260.85,3.540
260.99,3.543
261.12,3.546
261.25,3.548
261.38,3.549
261.52,3.550
261.65,3.551
261.78,3.552
261.92,3.555
262.05,3.557
262.19,3.558
262.31,3.559
262.45,3.560
262.58,3.562
262.72,3.564
262.85,3.565
262.98,3.566
263.12,3.567
263.25,3.569
263.38,3.570
263.52,3.572
263.65,3.574
263.78,3.574
263.91,3.574
264.05,3.574
264.18,3.575
264.31,3.576
264.45,3.577
264.58,3.577
264.71,3.578
264.85,3.578
264.98,3.578
265.12,3.576
265.25,3.573
265.38,3.572
265.50,3.570
265.64,3.567
265.78,3.563
265.92,3.561
266.04,3.559
266.18,3.557
266.31,3.555
266.44,3.552
266.58,3.551
266.71,3.547
266.84,3.542
267.00,3.537
267.13,3.534
267.25,3.530
267.38,3.526
267.51,3.524
267.64,3.521
267.77,3.518
267.90,3.514
268.04,3.510
268.18,3.506
268.30,3.503
268.44,3.500
268.58,3.496
268.71,3.491
268.84,3.486
269.00,3.479
269.13,3.473
269.24,3.469
269.37,3.464
269.51,3.458
269.64,3.454
269.78,3.451
269.93,3.447
270.04,3.443
270.17,3.439
270.31,3.437
270.47,3.432
270.57,3.428
270.71,3.423
270.84,3.420
271.01,3.416
271.15,3.411
271.26,3.406
271.38,3.403
271.50,3.401
271.67,3.399
271.79,3.396
271.92,3.391
272.04,3.386
272.17,3.380
272.30,3.377
272.44,3.372
272.57,3.366
272.70,3.361
272.84,3.356
272.98,3.351
273.10,3.345
273.24,3.337
273.35,3.331
273.47,3.323
273.64,3.310
273.74,3.302
273.94,3.289
274.03,3.282
274.17,3.267
274.42,3.240
275.01,3.168
275.51,3.092
276.07,2.991
276.74,2.867
277.18,2.766
277.77,2.632
278.25,2.491
278.43,2.439
278.58,2.405
278.99,2.316
279.37,2.232
279.71,2.166
280.11,2.093
280.39,2.037
280.56,2.000
280.83,1.954
281.51,1.826
282.45,1.631
283.22,1.477
##END=
