##TITLE=Pyridine, 3-chloro-
##JCAMP-DX=4.24
##DATA TYPE=UV/VIS SPECTRUM
##ORIGIN=INSTITUTE OF ENERGY PROBLEMS OF CHEMICAL PHYSICS, RAS
##OWNER=INEP CP RAS, NIST OSRD
Collection (C) 2007 copyright by the U.S. Secretary of Commerce
on behalf of the United States of America. All rights reserved.
##CAS REGISTRY NO=626-60-8
##MOLFORM=C5H4ClN
##BP=148; 86(100)
##SOURCE REFERENCE=RAS UV No. 2495
##$NIST SQUIB=1954STE1077-1082
##$NIST SOURCE=TSGMTE
##SPECTROMETER/DATA SYSTEM=n.i.g.
##XUNITS=Wavelength (nm)
##YUNITS=Logarithm epsilon
##XFACTOR=1.000000
##YFACTOR=1.000000
##FIRSTX=267.2709
##LASTX=210.4049
##FIRSTY=2.48495
##MAXX=267.271
##MINX=210.405
##MAXY=3.38081
##MINY=2.48495
##NPOINTS=594
##$REF AUTHOR=Stephenson, H.P.
##$REF TITLE=Solution spectra and oscillator strengths of electronic transitions of pyridine and some monosubstituted derivatives
##$REF JOURNAL=J. Chem. Phys.
##$REF VOLUME=22
##$REF NUMBER=6
##$REF PAGE=1077-1082
##$REF DATE=1954
##XYPOINTS=(XY..XY)
267.2709,2.484955
267.1588,2.494189
267.1554,2.485227
267.0363,2.512927
267.0324,2.503263
266.8234,2.554882
266.8126,2.530084
266.1374,2.623006
266.1339,2.616362
266.0158,2.637012
266.0123,2.630580
265.9120,2.656700
265.9013,2.637203
265.6870,2.687968
265.6763,2.669853
265.5763,2.693776
265.1527,2.764680
265.1455,2.754449
265.0354,2.779456
265.0282,2.769571
264.9324,2.793728
264.9252,2.784167
264.7122,2.802800
264.6060,2.829358
264.5953,2.816353
264.5071,2.846560
264.4965,2.834067
264.4007,2.854486
264.3939,2.846678
264.2879,2.870753
264.2773,2.858947
264.1821,2.878711
264.1783,2.874575
264.0798,2.890105
264.0726,2.882464
263.9668,2.904682
263.9562,2.893775
263.8613,2.912048
263.8575,2.908218
263.7626,2.925905
263.7520,2.915524
263.6499,2.939346
263.6393,2.929286
263.5551,2.955833
263.5412,2.943007
263.4605,2.971717
263.4428,2.955925
263.3480,2.983831
263.3375,2.974760
263.2392,2.986780
262.1262,3.113283
262.0325,3.124398
262.0150,3.113347
261.9390,3.135235
261.9248,3.126534
261.8311,3.145569
261.8174,3.137326
261.7377,3.155897
261.7240,3.147849
261.6510,3.169745
261.6302,3.157883
261.5301,3.171909
260.8125,3.216517
260.7128,3.221789
260.7058,3.218246
260.4895,3.227053
260.4862,3.225409
260.3867,3.230575
260.3830,3.228740
260.1603,3.233921
260.0545,3.235782
260.0508,3.233969
259.9484,3.237436
259.9451,3.235831
259.7232,3.240928
259.4946,3.242615
259.4914,3.241029
259.1545,3.242764
258.9442,3.246208
258.8254,3.247828
258.8222,3.246261
258.7170,3.247875
258.6120,3.249483
258.3858,3.251331
258.3822,3.249582
258.2778,3.251378
258.1629,3.254522
258.1596,3.252979
257.9574,3.259400
257.9542,3.257874
257.8432,3.262676
257.8399,3.261161
257.7388,3.264230
257.7356,3.262721
257.6382,3.267463
257.6350,3.265966
257.5409,3.272155
257.5340,3.269001
257.4234,3.273681
257.4202,3.272205
257.3262,3.278306
257.3198,3.275380
257.2259,3.281437
257.2191,3.278350
257.1091,3.283112
257.1055,3.281486
257.0086,3.286029
257.0054,3.284594
256.9153,3.292117
256.9053,3.287681
256.7984,3.293575
256.7952,3.292165
256.7049,3.299385
256.6949,3.295023
256.6051,3.302369
256.6019,3.300987
256.4952,3.306705
256.4885,3.303793
256.3956,3.309638
256.3920,3.308109
256.2956,3.312384
256.2924,3.311033
256.0767,3.315324
256.0036,3.329038
255.9837,3.320853
255.8943,3.333117
255.8843,3.329082
255.7023,3.341153
255.6892,3.335917
255.5968,3.346524
255.5869,3.342612
255.5010,3.350438
255.4943,3.347806
255.4085,3.355540
255.3986,3.351708
255.2965,3.358167
255.2933,3.356952
255.2041,3.363179
255.1942,3.359415
255.1022,3.364562
255.0987,3.363215
254.9937,3.368322
254.9870,3.365796
254.8916,3.369541
254.8885,3.368357
254.7932,3.372080
254.7897,3.370756
254.6814,3.374463
254.6782,3.373293
254.3671,3.379510
254.3635,3.378208
254.0533,3.379614
253.9390,3.380806
253.8315,3.379687
253.5060,3.379796
253.2786,3.377410
253.2755,3.376248
253.1682,3.374972
253.1651,3.373803
252.9382,3.371384
252.9351,3.370205
252.8285,3.369059
252.8250,3.367726
252.7185,3.366573
252.7154,3.365382
252.5957,3.364077
252.5895,3.361677
252.4828,3.360357
252.4797,3.359149
252.3765,3.359185
252.3700,3.356605
252.2540,3.356646
252.2509,3.355427
252.1449,3.354241
252.0421,3.354278
252.0386,3.352899
251.9230,3.352940
251.9199,3.351710
251.8141,3.350514
251.8107,3.349123
251.7081,3.349160
251.5897,3.347961
251.4873,3.347999
251.4842,3.346755
251.3819,3.346792
251.2634,3.345431
251.1613,3.345469
251.0562,3.344255
250.6234,3.344415
250.5248,3.345703
250.3218,3.345778
250.2112,3.347222
250.1099,3.347259
250.0117,3.348539
249.8979,3.348581
249.7999,3.349856
249.7024,3.351282
249.6990,3.349893
249.5889,3.351324
249.3935,3.353856
249.2803,3.353897
249.1831,3.355310
249.0827,3.355346
248.9727,3.356607
248.4596,3.356794
248.3443,3.355617
248.1448,3.355690
248.1414,3.354315
248.0294,3.354356
247.9268,3.353168
247.9239,3.351938
247.8244,3.351975
247.6070,3.349431
247.5078,3.349468
247.5049,3.348229
247.3900,3.346872
247.3870,3.345625
247.1828,3.343039
247.1798,3.341781
247.0653,3.340404
247.0623,3.339138
246.9606,3.337907
246.9543,3.335197
246.8527,3.333954
246.8494,3.332509
246.7478,3.331259
246.7415,3.328507
246.6307,3.328551
246.6278,3.327250
246.5264,3.325985
246.5231,3.324512
246.4248,3.324552
246.4189,3.321922
246.3083,3.321966
246.3021,3.319155
246.2010,3.317866
246.1977,3.316365
246.0967,3.315068
246.0937,3.313726
245.9802,3.312257
245.9743,3.309551
245.8764,3.309592
245.8731,3.308063
245.7724,3.306740
243.0440,3.255043
243.0412,3.253502
242.8440,3.250302
242.7367,3.250355
242.7338,3.248797
242.5372,3.245562
242.5343,3.243987
242.4273,3.244040
242.4240,3.242261
242.3261,3.240722
242.2311,3.240770
242.2282,3.239177
242.0206,3.235875
242.0145,3.232445
241.9198,3.232494
241.7130,3.229345
241.7098,3.227505
241.6124,3.225912
241.6096,3.224264
241.5001,3.222458
241.4973,3.220797
241.3027,3.217345
241.2998,3.215664
241.1907,3.213822
241.1879,3.212127
241.0909,3.210477
241.0877,3.208555
240.9909,3.206891
240.9881,3.205169
240.7825,3.201597
240.7797,3.199854
240.6827,3.197937
240.6771,3.194413
240.4721,3.190752
240.4693,3.188964
240.3725,3.186999
240.3638,3.181339
240.2586,3.181400
240.1624,3.179629
240.1596,3.177795
240.0632,3.175778
240.0604,3.173927
239.8564,3.170088
239.8536,3.168213
239.7577,3.166387
239.7546,3.164259
239.5515,3.160572
239.5483,3.158416
239.4555,3.158473
239.4499,3.154613
239.2470,3.150599
239.2411,3.146421
239.1485,3.146480
239.1457,3.144500
239.0504,3.142571
239.0472,3.140323
238.8450,3.136174
238.8422,3.134146
238.7499,3.134207
238.7471,3.132170
238.6403,3.129937
238.6348,3.125813
238.5426,3.125876
238.4475,3.123602
238.4447,3.121514
238.2434,3.117180
238.2407,3.115062
238.1489,3.115126
238.1461,3.112997
237.9454,3.108577
237.9426,3.106416
237.7422,3.101928
237.7395,3.099734
237.6480,3.099800
237.6422,3.095101
237.5508,3.095168
237.4454,3.093014
237.4337,3.083414
237.3425,3.083483
237.3398,3.081193
237.2459,3.078960
237.2428,3.076356
237.1404,3.076435
237.1349,3.071768
236.9473,3.066896
236.9445,3.064517
236.8423,3.064597
236.7485,3.061978
236.7458,3.059572
236.6524,3.057225
236.6493,3.054487
236.5474,3.054569
236.5447,3.052121
236.4542,3.052195
236.4515,3.049734
236.3579,3.047023
236.3552,3.044532
236.1575,3.039352
236.1548,3.036817
236.0646,3.036893
236.0615,3.034024
235.9686,3.031534
235.9659,3.028953
235.8646,3.029040
235.8616,3.026118
235.7716,3.026197
235.7662,3.020954
235.5694,3.015483
234.3214,2.972805
234.3187,2.969849
234.1244,2.963690
234.1217,2.960671
234.0330,2.960762
234.0301,2.957340
233.9414,2.957432
233.9361,2.951283
233.8365,2.951387
233.7451,2.947985
233.7424,2.944854
233.6540,2.944948
233.6514,2.941795
233.5520,2.941902
233.5464,2.935126
233.4555,2.931997
233.3673,2.932095
233.3643,2.928439
233.2652,2.928549
233.0839,2.922173
233.0810,2.918432
232.9931,2.918532
232.9904,2.915181
232.8890,2.911917
232.8012,2.912019
232.7983,2.908189
232.7106,2.908292
232.7080,2.904860
232.6064,2.901084
232.6038,2.897594
232.5163,2.897699
232.5136,2.894182
232.3279,2.894408
232.3223,2.886842
232.2350,2.886950
232.2323,2.883344
232.1421,2.879362
232.0441,2.879485
231.9543,2.875927
231.8673,2.876038
231.8647,2.872340
231.5849,2.860935
231.4873,2.861064
231.2085,2.849355
231.2056,2.844928
231.1191,2.845047
231.0301,2.841194
230.9329,2.841329
230.9303,2.837322
230.8440,2.837443
230.7549,2.833014
230.7523,2.828930
230.6554,2.829068
230.6528,2.824946
230.5667,2.825070
230.4778,2.820513
230.2953,2.820780
230.2927,2.816578
230.1157,2.807770
230.1131,2.803440
229.9311,2.803718
229.8430,2.799478
229.7469,2.799627
229.7440,2.794659
229.6586,2.794793
229.6560,2.790330
229.5681,2.785958
229.0283,2.772441
229.0254,2.767151
228.9274,2.762555
228.8426,2.762699
228.7554,2.758038
226.9746,2.707505
226.8888,2.702208
226.7118,2.702558
226.7090,2.696338
226.6234,2.690902
226.4469,2.691261
226.4444,2.685590
225.8415,2.680379
225.6662,2.680747
225.5813,2.675111
225.4990,2.675287
225.3190,2.663067
224.9781,2.657767
224.8042,2.658155
224.3731,2.653002
224.2889,2.646211
224.0347,2.646797
223.9511,2.640700
223.7787,2.641103
223.6953,2.634925
223.5233,2.635334
223.5206,2.628063
223.4397,2.628259
223.1069,2.629064
222.8530,2.623132
222.5119,2.623972
222.4294,2.617543
222.1795,2.618169
222.0969,2.610806
221.8477,2.611442
221.7557,2.604849
221.6762,2.605055
221.4279,2.605699
220.9306,2.600089
220.1140,2.602247
219.7031,2.603336
219.6224,2.595715
218.4962,2.598759
218.4070,2.591970
218.3298,2.592182
218.0890,2.592846
218.0143,2.600065
217.7742,2.600716
217.6856,2.593958
217.6112,2.601159
216.9737,2.610598
216.9712,2.602898
216.3469,2.612275
216.1883,2.619405
216.0277,2.619829
215.9545,2.626617
215.8036,2.627009
215.7214,2.634514
215.6484,2.641078
215.6461,2.634706
215.4885,2.641481
215.4156,2.647941
215.1837,2.655463
215.1812,2.648524
215.0291,2.667910
214.9568,2.674724
214.9543,2.668088
214.7980,2.675097
214.7256,2.681079
214.6510,2.681252
214.5694,2.687172
214.4974,2.693692
214.4949,2.687343
214.3437,2.705104
214.2694,2.705268
214.1976,2.711524
214.1141,2.711706
214.0444,2.722483
214.0421,2.717207
213.9727,2.728497
213.9702,2.722640
213.8916,2.733811
213.8894,2.728672
213.8198,2.739041
213.8176,2.733964
213.7459,2.739193
213.6674,2.749951
213.6652,2.745000
213.5958,2.754991
213.5244,2.760575
213.5219,2.755137
213.4437,2.765512
213.4414,2.760737
213.3724,2.770963
213.3700,2.765655
213.2321,2.785649
213.2296,2.780518
213.0802,2.794906
213.0758,2.785938
213.0092,2.800002
213.0067,2.795039
212.8624,2.817998
212.8577,2.808962
212.7913,2.822311
212.7891,2.818124
212.7135,2.831215
212.7113,2.827113
212.6425,2.835399
212.6403,2.831337
212.5740,2.844026
212.5718,2.840044
212.4277,2.860319
212.4233,2.852616
212.3594,2.868469
212.3572,2.864706
212.2841,2.880145
212.2773,2.868595
212.2181,2.891503
212.2134,2.883886
212.1498,2.899093
212.1452,2.891609
212.0747,2.909984
212.0701,2.902688
212.0088,2.920597
212.0042,2.913478
211.9451,2.934189
211.9361,2.920697
211.8679,2.941086
211.8633,2.934297
211.8043,2.954061
211.7975,2.944339
211.7410,2.967032
211.7317,2.954153
211.6637,2.973063
211.6594,2.967133
211.6005,2.985487
211.5937,2.976451
211.5392,2.999994
211.5302,2.988425
211.4669,3.011692
211.4602,3.003190
211.4057,3.025363
211.3968,3.014458
211.3426,3.036395
211.3358,3.028367
211.2681,3.044361
211.2635,3.039018
211.2070,3.057056
211.1980,3.046927
211.1440,3.067321
211.1348,3.057128
211.0786,3.084251
211.0650,3.069764
211.0200,3.098336
211.0089,3.086876
210.9593,3.109835
210.9504,3.100877
210.9054,3.127533
210.8894,3.112043
210.8355,3.138049
210.8266,3.129661
210.7816,3.154656
210.7660,3.140369
210.7232,3.166662
210.7119,3.156648
210.6537,3.176512
210.6448,3.168841
210.5975,3.189729
210.5841,3.178407
210.5416,3.202772
210.5282,3.191789
210.4744,3.213540
210.4631,3.204562
210.4095,3.218848
210.4049,3.215280
##END=
