##TITLE=2,2,5,5-tetramethylthieno [3,2-b]thiophene-3(2H),6(5H)-dione
##JCAMP-DX=4.24
##DATA TYPE=UV/VIS SPECTRUM
##ORIGIN=INSTITUTE OF ENERGY PROBLEMS OF CHEMICAL PHYSICS, RAS
##OWNER=INEP CP RAS, NIST OSRD
Collection (C) 2007 copyright by the U.S. Secretary of Commerce
on behalf of the United States of America. All rights reserved.
##CAS REGISTRY NO=62738-30-1
##MOLFORM=C10H12O2S2
##MP=204
##SOURCE REFERENCE=RAS UV No. 22497
##$NIST SQUIB=1978LUH/3233
##$NIST SOURCE=TYUGLMTE
##SPECTROMETER/DATA SYSTEM=Cary 14
##XUNITS=Wavelength (nm)
##YUNITS=Logarithm epsilon
##XFACTOR=1.0
##YFACTOR=1.0
##FIRSTX=242.127
##LASTX=497.671
##FIRSTY=3.014
##MAXX=497.671
##MINX=242.127
##MAXY=3.671
##MINY=2.305
##NPOINTS=178
##$REF AUTHOR=Luhmann, U.; et al.
##$REF JOURNAL=Chem. Ber.
##$REF VOLUME=111
##$REF PAGE=3233
##$REF DATE=1978
##XYPOINTS=(XY..XY)
242.127,3.014
242.127,3.012
243.627,2.965
245.127,2.923
246.627,2.882
248.127,2.840
249.627,2.799
251.127,2.757
252.627,2.717
254.127,2.680
255.627,2.648
257.127,2.621
258.627,2.601
260.127,2.588
261.627,2.580
263.127,2.578
264.627,2.581
266.127,2.586
267.627,2.594
269.127,2.605
270.627,2.620
270.750,2.620
272.250,2.636
273.750,2.651
275.250,2.663
276.750,2.671
278.250,2.673
279.750,2.671
281.250,2.664
282.750,2.652
284.250,2.638
285.750,2.621
287.250,2.603
288.750,2.584
290.250,2.565
291.750,2.546
293.250,2.528
294.750,2.510
296.250,2.492
297.750,2.474
299.250,2.454
300.750,2.432
300.963,2.428
302.463,2.404
303.963,2.379
305.463,2.356
306.963,2.337
308.463,2.322
309.963,2.311
311.463,2.306
312.963,2.305
314.463,2.308
315.963,2.314
317.463,2.323
318.963,2.334
320.463,2.346
321.963,2.359
323.463,2.371
324.419,2.380
325.919,2.391
327.419,2.404
328.919,2.418
330.419,2.433
331.919,2.448
333.419,2.461
334.919,2.474
336.419,2.486
337.919,2.498
339.419,2.511
340.919,2.525
342.419,2.540
343.919,2.559
345.419,2.579
346.919,2.602
348.419,2.628
349.520,2.646
350.259,2.658
351.759,2.668
353.259,2.670
354.759,2.672
356.259,2.677
357.759,2.687
359.259,2.704
360.759,2.726
362.259,2.752
363.759,2.778
365.259,2.802
366.823,2.829
368.323,2.858
369.823,2.883
371.323,2.902
372.823,2.915
374.323,2.925
375.823,2.934
377.323,2.944
378.823,2.959
380.323,2.979
381.823,3.006
383.323,3.038
384.184,3.060
385.387,3.082
386.887,3.107
388.387,3.130
389.887,3.152
391.387,3.173
392.887,3.194
394.387,3.214
395.887,3.233
397.387,3.253
398.887,3.272
400.387,3.291
401.887,3.310
403.387,3.329
404.887,3.347
406.387,3.365
407.887,3.383
409.387,3.401
410.887,3.419
412.387,3.436
413.887,3.453
415.387,3.470
416.887,3.486
418.387,3.503
419.887,3.519
421.387,3.536
422.887,3.552
424.387,3.568
425.887,3.583
427.387,3.598
428.801,3.612
430.391,3.625
431.981,3.637
433.301,3.648
434.801,3.658
436.301,3.667
437.296,3.670
438.414,3.669
439.416,3.665
440.463,3.668
441.301,3.671
442.301,3.669
443.801,3.663
445.498,3.653
446.998,3.645
448.498,3.639
449.998,3.635
451.498,3.632
452.998,3.631
454.498,3.632
456.190,3.638
457.325,3.647
458.825,3.657
460.325,3.663
461.825,3.666
463.325,3.666
464.825,3.665
466.325,3.661
467.825,3.655
469.325,3.646
470.825,3.631
472.325,3.609
473.671,3.574
475.171,3.539
476.671,3.499
478.171,3.454
479.671,3.403
481.171,3.347
482.671,3.286
484.171,3.220
485.671,3.149
487.171,3.072
488.671,2.990
490.171,2.903
491.671,2.811
493.171,2.713
494.671,2.611
496.171,2.503
497.671,2.390
##END=
