##TITLE=Disulfide, dipropyl
##JCAMP-DX=4.24
##DATA TYPE=UV/VIS SPECTRUM
##ORIGIN=INSTITUTE OF ENERGY PROBLEMS OF CHEMICAL PHYSICS, RAS
##OWNER=INEP CP RAS, NIST OSRD
Collection (C) 2007 copyright by the U.S. Secretary of Commerce
on behalf of the United States of America. All rights reserved.
##CAS REGISTRY NO=629-19-6
##MOLFORM=C6H14S2
##BP=193.5
##SOURCE REFERENCE=RAS UV No. 20135
##$NIST SQUIB=1969BOL/142
##$NIST SOURCE=TYUGLMTE
##SPECTROMETER/DATA SYSTEM=unknown
##XUNITS=Wavelength (nm)
##YUNITS=Logarithm epsilon
##XFACTOR=1.0
##YFACTOR=1.0
##FIRSTX=213.49
##LASTX=344.49
##FIRSTY=2.715
##MAXX=344.49
##MINX=213.49
##MAXY=2.715
##MINY=0.102
##NPOINTS=125
##$REF AUTHOR=Bol'shakov, G.F.; et al.
##$REF JOURNAL=Ultraviolet spectra of heteroorganic compounds
##$REF PAGE=142
##$REF DATE=1969
##XYPOINTS=(XY..XY)
213.49,2.715
214.16,2.681
214.84,2.647
215.68,2.617
216.52,2.583
217.37,2.553
218.21,2.519
219.05,2.489
219.89,2.455
220.74,2.426
221.75,2.400
222.93,2.374
224.45,2.366
225.96,2.366
227.48,2.374
228.83,2.391
230.18,2.413
231.53,2.430
232.88,2.451
234.23,2.468
235.57,2.481
236.92,2.498
238.10,2.519
239.45,2.536
240.80,2.553
242.15,2.566
243.50,2.583
245.02,2.591
246.53,2.596
248.05,2.600
249.57,2.609
251.08,2.609
252.60,2.609
254.12,2.604
255.64,2.600
257.15,2.591
258.67,2.579
260.19,2.566
261.71,2.553
263.06,2.536
264.40,2.519
265.75,2.498
267.10,2.481
268.28,2.455
269.63,2.434
270.64,2.409
271.65,2.379
272.83,2.353
273.68,2.323
274.52,2.294
275.36,2.264
276.21,2.234
277.22,2.209
278.06,2.179
279.07,2.149
280.08,2.123
280.93,2.094
281.94,2.068
282.78,2.038
283.79,2.009
284.80,1.983
285.65,1.949
286.66,1.923
287.50,1.894
288.51,1.864
289.52,1.838
290.37,1.809
291.38,1.779
292.39,1.749
293.40,1.719
294.41,1.689
295.26,1.660
296.27,1.630
297.11,1.600
298.12,1.570
298.97,1.536
299.98,1.506
300.82,1.477
301.83,1.447
302.64,1.420
303.52,1.387
304.44,1.360
305.37,1.328
306.24,1.303
307.23,1.272
308.24,1.243
309.08,1.213
309.93,1.183
310.94,1.153
311.78,1.119
312.79,1.094
313.63,1.064
314.48,1.034
315.32,1.004
316.33,0.974
317.17,0.945
318.02,0.911
318.74,0.883
319.54,0.851
320.36,0.823
321.39,0.796
322.23,0.762
323.08,0.732
323.92,0.698
324.76,0.668
325.60,0.634
326.45,0.604
327.29,0.574
328.30,0.545
328.98,0.511
329.99,0.481
330.83,0.451
331.84,0.421
332.69,0.387
333.70,0.357
334.54,0.323
335.55,0.294
336.39,0.264
337.41,0.234
338.42,0.209
339.43,0.183
340.61,0.162
341.79,0.140
343.14,0.123
344.49,0.102
##END=
