##TITLE=n-Butyl disulfide
##JCAMP-DX=4.24
##DATA TYPE=UV/VIS SPECTRUM
##ORIGIN=INSTITUTE OF ENERGY PROBLEMS OF CHEMICAL PHYSICS, RAS
##OWNER=INEP CP RAS, NIST OSRD
Collection (C) 2007 copyright by the U.S. Secretary of Commerce
on behalf of the United States of America. All rights reserved.
##CAS REGISTRY NO=629-45-8
##MOLFORM=C8H18S2
##BP=117(20); 85(3)
##SOURCE REFERENCE=RAS UV No. 4621
##$NIST SQUIB=1957DEC/POS145-146
##$NIST SOURCE=TSGMTE
##SPECTROMETER/DATA SYSTEM=Beckman DK 2
##XUNITS=Wavelength (nm)
##YUNITS=Logarithm epsilon
##XFACTOR=1.000000
##YFACTOR=1.000000
##FIRSTX=222.0370
##LASTX=331.4630
##FIRSTY=2.39105
##MAXX=331.463
##MINX=222.037
##MAXY=2.68979
##MINY=1.03279
##NPOINTS=496
##$REF AUTHOR=Decker, Q.W.; Post, H.W.
##$REF TITLE=Preparation and ultraviolet absorption spectra of certain alkyl polysulfides
##$REF JOURNAL=J. Org. Chem.
##$REF PAGE=145-146
##$REF DATE=1957
##XYPOINTS=(XY..XY)
222.0370,2.391052
222.2241,2.520726
222.3710,2.514136
222.5109,2.390909
222.5327,2.508136
222.5338,2.514087
222.6797,2.502141
223.1375,2.495457
223.1387,2.502003
223.4484,2.495363
223.5954,2.489368
223.9052,2.483324
223.9063,2.489274
224.0533,2.483279
224.2149,2.476684
224.3619,2.470689
224.3630,2.476640
224.8209,2.470551
224.9827,2.464551
225.2936,2.464457
225.4404,2.457867
225.5874,2.451872
225.5885,2.457822
225.8983,2.451778
226.0601,2.445778
226.2082,2.445734
226.3550,2.439143
226.6660,2.439050
226.8129,2.433054
227.2855,2.426366
227.2867,2.432912
227.5805,2.420326
227.5816,2.426277
227.7434,2.420277
227.8904,2.414282
228.2013,2.414188
228.3481,2.407598
228.6591,2.407504
228.8208,2.401504
229.1170,2.401415
229.2787,2.395415
229.4268,2.395371
229.5749,2.395326
229.7389,2.401227
230.3459,2.401045
230.5099,2.406946
230.9689,2.406808
230.9701,2.413353
231.4292,2.413215
231.4303,2.419166
231.5783,2.419121
231.7423,2.425023
231.8904,2.424978
232.0545,2.431474
232.3506,2.431385
232.5146,2.437287
232.8255,2.437193
232.8268,2.443739
233.1229,2.443649
233.2869,2.449551
233.4349,2.449506
233.7482,2.461909
234.2072,2.461771
234.2083,2.467721
234.5193,2.467627
234.6685,2.473533
234.8313,2.473484
235.1298,2.485891
236.6755,2.516370
236.8383,2.516321
236.9875,2.522227
237.2985,2.522134
237.2997,2.528679
237.6106,2.528585
237.9090,2.540397
238.0718,2.540348
238.0731,2.546894
238.3840,2.546800
238.5332,2.552706
238.8441,2.552613
238.8452,2.558563
238.9933,2.558519
239.1426,2.565020
239.3055,2.564971
239.3066,2.570921
239.6175,2.570827
239.6186,2.576778
239.9148,2.576689
240.0789,2.583185
240.2269,2.583141
240.3909,2.589042
240.5390,2.588998
240.6883,2.595499
240.9992,2.595405
241.1632,2.601306
241.3113,2.601262
241.4604,2.607168
242.0823,2.606980
242.0835,2.613526
242.5425,2.613388
242.8557,2.625195
243.1666,2.625102
243.3159,2.631603
243.7749,2.631464
243.7761,2.637415
244.3979,2.637227
244.5471,2.643133
245.0061,2.642995
245.1702,2.649492
245.3183,2.649447
245.4675,2.655353
245.9413,2.655210
246.0905,2.661116
247.0085,2.660839
247.0097,2.667385
247.9425,2.667104
248.0917,2.673010
248.5507,2.672872
248.7148,2.679368
249.9438,2.678998
250.0929,2.684904
251.4848,2.684484
253.6328,2.689788
256.7126,2.688859
256.8596,2.682864
258.0885,2.682494
258.2503,2.676494
259.0203,2.676262
259.1671,2.669672
259.7731,2.663538
259.7742,2.669489
261.0168,2.663163
261.1637,2.656573
262.0806,2.650345
262.0817,2.656296
262.8494,2.644163
262.8505,2.650113
263.3084,2.644024
263.4701,2.637430
263.7810,2.637336
263.9280,2.631341
264.6979,2.631108
264.8449,2.625113
265.3039,2.624975
265.4655,2.618380
265.7765,2.618286
265.9234,2.612291
266.2344,2.612197
266.3813,2.606202
266.8391,2.599518
266.8403,2.606064
267.0020,2.599469
267.4610,2.599331
268.8335,2.574518
268.9963,2.574469
269.1432,2.567879
269.6022,2.567740
269.7640,2.561741
270.0590,2.555701
270.0601,2.561651
270.2219,2.555652
270.3687,2.549061
270.6785,2.543017
270.6796,2.548968
271.2993,2.536879
271.3004,2.542830
271.7583,2.536741
271.9052,2.530150
272.2161,2.530057
272.3631,2.524061
272.5259,2.524012
272.6729,2.518017
272.9826,2.511378
272.9838,2.517923
273.4416,2.511239
273.5886,2.505244
273.8995,2.505150
274.0612,2.498555
274.3573,2.498466
274.6660,2.486471
275.1238,2.479787
275.1250,2.486333
275.5828,2.479649
275.7446,2.473649
276.0544,2.467605
276.0555,2.473555
276.2025,2.467560
276.3493,2.460970
276.6591,2.454926
276.6603,2.460876
277.1170,2.448837
277.1182,2.454787
277.5761,2.448698
277.7377,2.442103
277.8858,2.442059
278.0475,2.436059
278.1956,2.436015
278.3426,2.430019
278.6535,2.429925
278.8152,2.423331
279.2730,2.417242
279.2742,2.423192
279.5840,2.417148
279.7308,2.410558
280.0418,2.410464
280.3357,2.398474
280.6466,2.398380
280.8083,2.391785
281.2662,2.385696
281.2673,2.391647
281.5760,2.379652
281.5771,2.385602
281.7241,2.379607
281.8709,2.373017
282.0327,2.367017
282.0338,2.372968
282.4906,2.360928
282.4917,2.366879
282.9496,2.360790
283.0964,2.354199
283.2593,2.354150
283.4063,2.348155
283.5691,2.348106
283.7160,2.341516
283.8629,2.335520
283.8640,2.341471
284.3368,2.335378
284.4837,2.329382
284.9415,2.322698
284.9427,2.329244
285.0896,2.322654
285.3983,2.310659
288.1579,2.260434
288.3208,2.260385
288.4676,2.253795
288.6146,2.247799
288.6157,2.253750
289.0873,2.241706
289.0884,2.247657
289.3822,2.235071
289.3834,2.241617
289.5451,2.235022
289.6920,2.229027
290.7695,2.210254
290.9164,2.204259
291.0781,2.197664
291.0793,2.204210
291.2262,2.197619
291.3731,2.191624
291.5360,2.191575
291.6828,2.184985
291.9938,2.184891
292.1407,2.178896
292.3025,2.172896
292.3036,2.178847
292.4506,2.172851
292.5974,2.166261
292.7592,2.160261
292.7603,2.166212
293.2171,2.154172
293.2182,2.160123
293.5268,2.147533
293.5280,2.154079
293.6749,2.147488
293.8366,2.141489
293.9836,2.135493
293.9847,2.141444
294.1304,2.128903
294.1316,2.135449
294.4403,2.122859
294.4414,2.128809
294.7500,2.116219
294.7512,2.122765
294.8980,2.116175
295.2068,2.104180
295.3536,2.097589
295.3548,2.104135
295.6634,2.091545
295.6645,2.097496
295.8263,2.091496
295.9733,2.085501
296.1213,2.085456
296.4299,2.072866
296.7409,2.072773
296.8878,2.066777
297.0495,2.060182
297.0507,2.066728
297.1976,2.060138
297.6531,2.041553
297.9630,2.035508
297.9641,2.041459
298.2727,2.028869
298.2739,2.035415
298.4207,2.028824
298.5825,2.022824
298.7295,2.016829
298.7306,2.022780
298.8763,2.010239
299.0392,2.010190
299.1861,2.004195
299.3490,2.004145
299.6428,1.991560
299.8057,1.991510
299.9526,1.985515
300.0996,1.979520
300.1007,1.985471
300.2625,1.979471
300.4093,1.972881
300.5711,1.966881
300.5722,1.972832
300.7191,1.966837
301.0278,1.954246
301.1758,1.954202
301.3376,1.948202
301.4857,1.948158
302.1029,1.922978
302.2509,1.922933
302.3979,1.916937
302.5608,1.916889
302.7077,1.910893
302.8546,1.904303
302.8558,1.910848
303.0163,1.898303
303.1633,1.892308
303.1644,1.898258
303.4730,1.885669
303.4742,1.892214
303.6211,1.885624
304.0914,1.867034
304.2384,1.861039
304.2395,1.866989
304.5481,1.854400
304.5493,1.860945
304.6951,1.848404
304.6962,1.854355
304.8431,1.848360
305.1518,1.835770
305.3135,1.829770
305.3146,1.835720
305.4616,1.829725
305.6085,1.823730
305.7702,1.817135
305.7714,1.823681
305.9183,1.817090
306.2269,1.804501
306.3738,1.798506
306.3749,1.804456
306.5367,1.798457
306.8453,1.785866
306.9934,1.785822
307.1392,1.773876
307.1403,1.779827
307.3021,1.773827
307.4489,1.767236
307.5959,1.761241
307.5970,1.767191
307.7577,1.755241
307.7588,1.761192
307.9057,1.755197
308.0674,1.748602
309.4352,1.698797
309.4364,1.705343
309.5969,1.692797
309.7439,1.686802
309.7450,1.692753
310.0536,1.680162
310.0548,1.686708
310.2017,1.680118
310.8190,1.655533
310.9671,1.655488
311.5843,1.630308
311.7313,1.624313
311.7324,1.630263
311.8793,1.624269
312.0411,1.618269
312.1879,1.611679
312.1892,1.618224
312.4967,1.599683
312.6447,1.599639
312.8064,1.593043
312.9533,1.587048
312.9544,1.592999
313.1014,1.587005
313.2619,1.574458
313.2630,1.580409
313.4089,1.568463
313.4100,1.574414
313.7186,1.561824
313.7198,1.568370
313.8667,1.561780
314.1742,1.543238
314.1754,1.549784
314.4840,1.537194
314.4851,1.543145
314.6310,1.531199
314.6321,1.537150
314.7938,1.531151
315.0865,1.512614
315.0876,1.518564
315.3962,1.505974
315.3975,1.512520
315.5591,1.505926
316.0147,1.487341
316.1616,1.481345
316.1628,1.487295
316.3233,1.474749
316.3245,1.481296
316.4714,1.474706
316.9269,1.456120
317.0887,1.450120
317.0898,1.456071
317.2368,1.450075
317.8392,1.424900
318.0009,1.418901
318.0020,1.424851
318.1490,1.418856
318.7663,1.394271
318.9144,1.394226
319.2219,1.375686
319.2230,1.381637
319.3700,1.375642
319.6786,1.363051
319.8403,1.357052
319.8414,1.363002
319.9872,1.350461
319.9884,1.357006
320.1341,1.344465
320.1352,1.350417
320.2958,1.337870
320.4427,1.331877
320.4439,1.337827
320.5897,1.325881
320.5908,1.331832
320.7526,1.325832
321.0601,1.307291
321.0612,1.313241
321.2081,1.307246
321.3550,1.300656
321.5167,1.294656
321.5179,1.300606
321.6637,1.288661
321.6648,1.294612
321.8254,1.282067
321.9723,1.276071
321.9734,1.282021
322.1204,1.276027
322.7376,1.250847
323.9597,1.213582
324.1066,1.207586
324.2683,1.200993
324.2695,1.207537
324.4163,1.200946
324.5770,1.188996
324.5781,1.194947
324.7251,1.188951
324.8719,1.182363
325.0348,1.182312
325.4903,1.163728
325.6373,1.157732
325.6384,1.163683
325.9471,1.151688
325.9482,1.157638
326.0952,1.151643
326.2569,1.145047
326.4038,1.139054
326.4049,1.145004
326.5656,1.133053
326.7136,1.133008
326.8605,1.126417
327.0234,1.126368
327.1703,1.120373
327.3320,1.113780
327.3332,1.120324
327.4800,1.113736
327.7888,1.101740
327.9356,1.095148
327.9368,1.101696
328.2465,1.095054
328.3935,1.089060
328.5553,1.083062
328.5564,1.089011
328.7033,1.083015
329.0119,1.070426
329.3218,1.064383
329.3229,1.070333
329.6179,1.064293
329.7795,1.057697
329.9265,1.051704
329.9276,1.057655
330.2374,1.051608
330.3843,1.045018
330.5472,1.044971
330.6941,1.038974
331.1531,1.038835
331.3149,1.032836
331.4630,1.032792
##END=
