##TITLE=2-(1H- indol-3- yl)propanediamide
##JCAMP-DX=4.24
##DATA TYPE=UV/VIS SPECTRUM
##ORIGIN=INSTITUTE OF ENERGY PROBLEMS OF CHEMICAL PHYSICS, RAS
##OWNER=INEP CP RAS, NIST OSRD
Collection (C) 2007 copyright by the U.S. Secretary of Commerce
on behalf of the United States of America. All rights reserved.
##CAS REGISTRY NO=63291-75-8
##MOLFORM=C11H11N3O2
##MP=293-295
##SOURCE REFERENCE=RAS UV No. 22481
##$NIST SQUIB=1977VEL/360
##$NIST SOURCE=TYUGLMTE
##SPECTROMETER/DATA SYSTEM=unknown
##XUNITS=Wavelength (nm)
##YUNITS=Logarithm epsilon
##XFACTOR=1.0
##YFACTOR=1.0
##FIRSTX=204.651
##LASTX=370.912
##FIRSTY=4.183
##MAXX=370.912
##MINX=204.651
##MAXY=4.205
##MINY=2.834
##NPOINTS=107
##$REF AUTHOR=Velezheva, V.S.; et al.
##$REF JOURNAL=Khim. Geterosikl. Soedin.
##$REF PAGE=360
##$REF DATE=1977
##XYPOINTS=(XY..XY)
204.651,4.183
206.151,4.197
207.651,4.205
209.151,4.200
210.651,4.179
212.151,4.145
213.651,4.105
214.903,4.078
218.057,4.074
220.423,4.086
223.256,4.082
225.943,4.047
227.907,4.004
229.097,3.960
230.411,3.912
231.989,3.861
233.566,3.809
235.143,3.754
236.457,3.703
236.720,3.690
238.220,3.632
239.720,3.577
241.220,3.527
242.720,3.483
244.220,3.447
245.720,3.418
247.220,3.396
248.720,3.382
250.220,3.375
251.720,3.372
253.220,3.374
254.720,3.379
256.220,3.386
257.720,3.394
259.220,3.402
260.720,3.408
262.217,3.418
264.057,3.426
265.635,3.434
267.212,3.442
269.052,3.450
271.155,3.458
273.783,3.469
276.167,3.478
277.912,3.486
279.412,3.495
280.912,3.502
282.412,3.509
283.912,3.514
285.412,3.518
286.912,3.520
288.412,3.522
289.912,3.522
291.412,3.521
292.912,3.519
294.412,3.516
295.912,3.512
297.412,3.506
298.912,3.499
300.412,3.492
301.912,3.483
303.412,3.474
304.912,3.463
306.412,3.452
307.912,3.440
309.412,3.427
310.912,3.414
312.412,3.399
313.912,3.385
315.412,3.369
316.912,3.353
318.412,3.337
319.912,3.320
321.412,3.303
322.912,3.286
324.412,3.269
325.912,3.251
327.412,3.233
328.912,3.215
330.412,3.198
331.912,3.180
333.412,3.162
334.912,3.145
336.412,3.127
337.912,3.110
339.412,3.093
340.912,3.077
342.412,3.061
343.912,3.045
345.412,3.029
346.912,3.014
348.412,3.000
349.912,2.986
351.412,2.972
352.912,2.959
354.412,2.946
355.912,2.934
357.412,2.922
358.912,2.911
360.412,2.900
361.912,2.890
363.412,2.880
364.912,2.870
366.412,2.861
367.912,2.852
369.412,2.843
370.912,2.834
##END=
