##TITLE=2,3-dihydro-6-hydroxy-5-(1H-indol-3-yl)-2-thioxo-4(1H)-pyrimidinone
##JCAMP-DX=4.24
##DATA TYPE=UV/VIS SPECTRUM
##ORIGIN=INSTITUTE OF ENERGY PROBLEMS OF CHEMICAL PHYSICS, RAS
##OWNER=INEP CP RAS, NIST OSRD
Collection (C) 2007 copyright by the U.S. Secretary of Commerce
on behalf of the United States of America. All rights reserved.
##CAS REGISTRY NO=63291-74-7
##MOLFORM=C12H9N3O2S
##MP=360(dec.)
##SOURCE REFERENCE=RAS UV No. 22478
##$NIST SQUIB=1977VEL/360
##$NIST SOURCE=TYUGLMTE
##SPECTROMETER/DATA SYSTEM=unknown
##XUNITS=Wavelength (nm)
##YUNITS=Logarithm epsilon
##XFACTOR=1.0
##YFACTOR=1.0
##FIRSTX=204.374
##LASTX=306.56
##FIRSTY=4.52
##MAXX=306.56
##MINX=204.374
##MAXY=4.552
##MINY=3.913
##NPOINTS=107
##$REF AUTHOR=Velezheva, V.S.; et al.
##$REF JOURNAL=Khim. Geterosikl. Soedin.
##$REF PAGE=360
##$REF DATE=1977
##XYPOINTS=(XY..XY)
204.374,4.520
204.874,4.540
205.374,4.550
205.874,4.552
206.374,4.548
206.874,4.539
207.374,4.527
207.874,4.512
208.374,4.497
208.874,4.480
209.374,4.464
209.874,4.448
210.374,4.432
210.874,4.418
211.374,4.404
211.874,4.390
212.374,4.377
212.874,4.365
213.374,4.354
213.874,4.342
214.374,4.331
214.874,4.321
215.374,4.311
215.857,4.302
216.357,4.295
216.857,4.288
217.357,4.281
217.857,4.275
218.357,4.270
218.857,4.265
219.357,4.262
219.857,4.260
220.357,4.259
220.857,4.259
221.357,4.260
221.857,4.262
222.357,4.265
222.857,4.268
223.357,4.271
223.857,4.275
224.357,4.279
224.857,4.282
225.357,4.285
225.857,4.287
226.357,4.288
226.857,4.288
227.357,4.288
227.857,4.285
228.357,4.282
228.857,4.277
229.357,4.271
229.857,4.264
230.357,4.256
230.857,4.247
231.357,4.238
231.857,4.229
231.998,4.227
233.498,4.203
234.998,4.181
236.498,4.159
237.998,4.136
239.498,4.112
240.998,4.088
242.498,4.065
243.998,4.042
245.498,4.021
246.998,4.002
248.498,3.985
249.998,3.971
251.498,3.959
252.998,3.949
254.498,3.940
255.998,3.933
257.498,3.927
258.998,3.922
260.498,3.918
261.998,3.915
263.498,3.913
264.998,3.913
266.498,3.914
267.777,3.918
269.277,3.924
270.777,3.930
272.277,3.937
273.777,3.944
275.277,3.952
276.777,3.961
278.277,3.971
279.777,3.982
281.277,3.994
282.777,4.008
284.252,4.023
285.752,4.042
287.252,4.062
288.752,4.080
290.252,4.092
291.752,4.097
293.252,4.096
294.752,4.088
296.252,4.075
297.752,4.060
299.252,4.043
300.560,4.029
302.060,4.013
303.560,3.998
305.060,3.981
306.560,3.963
##END=
