##TITLE=6-hyroxy-5-(1H-indol-3-yl)-2,4(1H,3H)-pyrimidinedione
##JCAMP-DX=4.24
##DATA TYPE=UV/VIS SPECTRUM
##ORIGIN=INSTITUTE OF ENERGY PROBLEMS OF CHEMICAL PHYSICS, RAS
##OWNER=INEP CP RAS, NIST OSRD
Collection (C) 2007 copyright by the U.S. Secretary of Commerce
on behalf of the United States of America. All rights reserved.
##CAS REGISTRY NO=63291-73-6
##MOLFORM=C12H9N3O3
##MP=350 (dec.)
##SOURCE REFERENCE=RAS UV No. 22479
##$NIST SQUIB=1977VEL/360
##$NIST SOURCE=TYUGLMTE
##SPECTROMETER/DATA SYSTEM=unknown
##XUNITS=Wavelength (nm)
##YUNITS=Logarithm epsilon
##XFACTOR=1.0
##YFACTOR=1.0
##FIRSTX=201.84
##LASTX=296.932
##FIRSTY=4.384
##MAXX=296.932
##MINX=201.84
##MAXY=4.396
##MINY=3.883
##NPOINTS=98
##$REF AUTHOR=Velezheva, V.S.; et al.
##$REF JOURNAL=Khim. Geterosikl. Soedin.
##$REF PAGE=360
##$REF DATE=1977
##XYPOINTS=(XY..XY)
201.840,4.384
202.605,4.391
203.536,4.396
204.596,4.394
205.510,4.386
206.427,4.372
207.362,4.354
207.956,4.343
208.414,4.336
209.414,4.324
210.414,4.311
211.414,4.299
212.414,4.288
213.414,4.279
214.414,4.272
215.414,4.267
216.414,4.264
217.414,4.263
218.414,4.265
219.269,4.266
220.339,4.269
221.339,4.271
222.339,4.273
223.339,4.277
224.339,4.280
225.339,4.282
226.339,4.282
227.339,4.280
228.339,4.276
229.339,4.270
230.339,4.263
231.339,4.255
232.339,4.246
233.339,4.237
234.339,4.227
235.404,4.213
236.404,4.199
237.404,4.186
238.404,4.174
239.404,4.161
240.404,4.147
241.404,4.133
242.404,4.119
243.404,4.104
244.404,4.088
245.404,4.073
246.404,4.058
247.404,4.043
248.404,4.030
249.404,4.018
250.404,4.007
251.404,3.999
252.404,3.992
253.404,3.988
254.404,3.987
255.404,3.988
256.404,3.991
257.404,3.996
258.404,4.001
259.404,4.007
260.241,4.013
261.241,4.016
262.241,4.022
263.241,4.029
264.241,4.036
265.241,4.044
266.241,4.052
267.241,4.059
268.241,4.065
269.241,4.071
270.241,4.075
271.241,4.078
272.241,4.080
273.241,4.081
274.241,4.080
275.241,4.078
276.241,4.074
277.241,4.070
278.241,4.064
279.241,4.057
280.241,4.049
281.241,4.041
282.241,4.032
283.241,4.022
284.241,4.012
285.241,4.001
286.241,3.991
287.241,3.980
288.241,3.969
289.241,3.959
290.241,3.948
291.241,3.938
292.241,3.928
293.241,3.919
294.241,3.909
295.241,3.899
296.241,3.890
296.932,3.883
##END=
