##TITLE=Urea, tetramethyl-
##JCAMP-DX=4.24
##DATA TYPE=UV/VIS SPECTRUM
##ORIGIN=INSTITUTE OF ENERGY PROBLEMS OF CHEMICAL PHYSICS, RAS
##OWNER=INEP CP RAS, NIST OSRD
Collection (C) 2007 copyright by the U.S. Secretary of Commerce
on behalf of the United States of America. All rights reserved.
##CAS REGISTRY NO=632-22-4
##MOLFORM=C5H12N2O
##MP=-1.2
##BP=176.5
##SOURCE REFERENCE=RAS UV No. 3072
##$NIST SQUIB=1963LUT/DIR1059-1068
##$NIST SOURCE=TSGMTE
##SPECTROMETER/DATA SYSTEM=n.i.g.
##XUNITS=Wavelength (nm)
##YUNITS=Logarithm epsilon
##XFACTOR=1.000000
##YFACTOR=1.000000
##FIRSTX=210.6403
##LASTX=250.4495
##FIRSTY=2.20639
##MAXX=250.45
##MINX=210.64
##MAXY=3.27716
##MINY=0.204391
##NPOINTS=693
##$REF AUTHOR=Luttringhaus, A.; Dirksen, H.-W.
##$REF TITLE=Tetramethylharnstoff als losungsmittel und reaktionspartner
##$REF JOURNAL=Angew. Chem.
##$REF VOLUME=75
##$REF NUMBER=22
##$REF PAGE=1059-1068
##$REF DATE=1963
##XYPOINTS=(XY..XY)
210.6403,2.206392
210.6427,2.180031
210.7174,2.233600
210.7193,2.213630
210.7946,2.260009
210.7965,2.240039
210.8824,2.280034
210.8842,2.260063
210.9596,2.306443
210.9615,2.286472
211.0367,2.333651
211.0393,2.306491
211.1239,2.360066
211.1264,2.333705
211.2011,2.386475
211.2036,2.360114
211.2789,2.406494
211.2801,2.393713
211.3561,2.433702
211.3586,2.406542
211.4445,2.446537
211.4457,2.433756
211.5216,2.473745
211.5235,2.453775
211.5994,2.493764
211.6013,2.473793
211.6866,2.520179
211.6885,2.500208
211.7644,2.540198
211.7656,2.527416
211.8428,2.553826
211.8441,2.540245
211.9300,2.580241
211.9319,2.560270
212.0078,2.600259
212.0090,2.587478
212.0856,2.620278
212.0868,2.607497
212.1734,2.640302
212.1746,2.627521
212.2512,2.660321
212.2524,2.647540
212.3290,2.680340
212.3302,2.667558
212.4168,2.700364
212.4180,2.687583
212.4946,2.720383
212.4958,2.707602
212.5724,2.740401
212.5743,2.720431
212.6602,2.760426
212.6614,2.747645
212.7386,2.774054
212.7392,2.767663
212.8164,2.794072
212.8176,2.781291
212.9042,2.814097
212.9060,2.794126
212.9826,2.827725
212.9838,2.814145
213.0604,2.847744
213.0617,2.834164
213.1488,2.861378
213.1494,2.854188
213.2260,2.887787
213.2284,2.861425
213.3044,2.901415
213.3056,2.887835
213.3928,2.914250
213.3934,2.907859
213.4712,2.927878
213.4725,2.914298
213.5496,2.941506
213.5503,2.934316
213.6374,2.961530
213.6387,2.947950
213.7159,2.974360
213.7171,2.961578
213.7943,2.987987
213.7956,2.974407
213.8821,3.008012
213.8833,2.994432
213.9605,3.021640
213.9617,3.008060
214.0390,3.034469
214.0396,3.028079
214.1174,3.048097
214.1180,3.041706
214.2057,3.061731
214.2064,3.054542
214.2841,3.075359
214.2848,3.068170
214.3626,3.088188
214.3638,3.075407
214.4510,3.101822
214.4516,3.095432
214.5294,3.115450
214.5307,3.101870
214.6968,3.135523
214.6975,3.128333
214.7759,3.141961
214.7765,3.135571
214.8543,3.155589
214.8550,3.148400
214.9428,3.168424
214.9434,3.162034
215.0218,3.175662
215.0225,3.168472
215.1009,3.182100
215.1015,3.175710
215.2689,3.195782
215.3480,3.202221
215.3486,3.195830
215.4370,3.208665
215.4376,3.202275
215.5160,3.215903
215.5951,3.222341
215.5957,3.215950
215.6842,3.228786
215.7638,3.228833
215.8428,3.236071
215.9319,3.242515
215.9325,3.236125
216.0110,3.248954
216.2593,3.256293
216.2599,3.249104
216.3390,3.256341
216.4280,3.262786
216.6770,3.262935
216.7561,3.269374
217.1644,3.269620
217.2534,3.276863
217.7514,3.277162
217.8317,3.270021
218.4990,3.270422
218.5793,3.264080
218.7486,3.264182
218.8289,3.257839
218.9086,3.257887
218.9989,3.250751
219.0785,3.250799
219.0791,3.244409
219.1588,3.244457
219.2491,3.238120
219.3287,3.238168
219.4091,3.231026
219.4987,3.231080
219.4993,3.224690
219.6587,3.224785
219.6593,3.218395
219.7390,3.218443
219.8293,3.211307
219.8299,3.204917
219.9095,3.204965
219.9898,3.198622
220.0795,3.198676
220.0801,3.191486
220.1598,3.191534
220.3303,3.178855
220.3310,3.171666
220.4903,3.171761
220.4909,3.165371
220.5806,3.165425
220.5812,3.159034
220.6608,3.159082
220.6615,3.151893
220.7418,3.145550
220.8314,3.145604
220.9921,3.132120
221.0817,3.132174
221.0823,3.125783
221.1626,3.119440
221.2422,3.119488
221.2429,3.112299
221.3326,3.112353
221.3332,3.105962
221.4128,3.106010
221.4931,3.099667
221.4938,3.092478
221.5834,3.092532
221.7440,3.079847
221.8336,3.079900
221.8343,3.072711
221.9140,3.072759
221.9146,3.066368
221.9942,3.066416
221.9949,3.059227
222.0851,3.052890
222.1648,3.052938
222.1654,3.046547
222.2451,3.046595
222.2458,3.039406
222.3354,3.039460
222.3360,3.033069
222.4157,3.033117
222.4163,3.026727
222.4960,3.026775
222.4966,3.019585
222.5769,3.013242
222.6665,3.013296
222.6671,3.006906
222.8278,2.993422
222.9174,2.993475
222.9180,2.987085
222.9977,2.987133
222.9983,2.979943
223.0780,2.979991
223.0786,2.973601
223.1683,2.973655
223.1689,2.967264
223.2485,2.967312
223.3289,2.960170
223.3295,2.953780
223.4191,2.953834
223.4197,2.947443
223.4994,2.947491
223.5797,2.940350
223.5803,2.933959
223.6700,2.934013
223.7503,2.927670
223.7509,2.920481
223.8306,2.920529
223.8312,2.914138
223.9208,2.914192
224.0011,2.907849
224.0018,2.900660
224.0821,2.894317
224.1717,2.894371
224.1723,2.887981
224.2520,2.888029
224.2526,2.880839
224.3323,2.880887
224.3329,2.874496
224.5838,2.854675
224.6734,2.854729
224.6740,2.848339
224.8346,2.834855
224.8352,2.828464
224.9249,2.828518
224.9256,2.821329
225.0052,2.821376
225.0058,2.814986
225.0855,2.815034
225.0861,2.808643
225.2567,2.795165
225.3364,2.795213
225.3370,2.788822
225.4166,2.788870
225.4173,2.781681
225.5070,2.781735
225.5075,2.775344
225.6682,2.761860
225.7578,2.761914
225.7591,2.748334
225.8388,2.748382
225.8394,2.741991
225.9196,2.735648
226.0093,2.735702
226.0099,2.728513
226.0896,2.728561
226.1699,2.722218
226.1705,2.715828
226.4214,2.696007
226.5110,2.696061
226.5123,2.682481
226.5919,2.682529
226.6722,2.676186
226.6729,2.668996
226.7625,2.669050
226.7631,2.662660
226.8428,2.662708
226.9231,2.656365
226.9237,2.649176
227.0943,2.636496
227.0949,2.629307
227.1746,2.629355
227.1752,2.622964
227.2648,2.623018
227.2654,2.616627
227.3458,2.609486
227.4255,2.609534
227.4267,2.596753
227.5163,2.596806
227.5170,2.589617
227.5967,2.589665
227.5972,2.583274
227.6775,2.576932
227.7672,2.576986
227.7678,2.569796
227.8481,2.563454
227.8487,2.557063
227.9284,2.557111
227.9291,2.549921
228.1799,2.530101
228.1805,2.523710
228.2608,2.517367
228.3504,2.517421
228.3511,2.510232
228.4308,2.510280
228.4314,2.503889
228.5117,2.496748
228.5123,2.490357
228.6026,2.484020
228.6822,2.484068
228.6829,2.476879
228.7626,2.476927
228.7632,2.470536
228.8534,2.464199
228.8541,2.457010
228.9338,2.457058
229.0140,2.450715
229.0146,2.444325
229.2655,2.424504
229.2662,2.417314
229.3558,2.417368
229.3564,2.410978
229.4361,2.411026
229.4367,2.404635
229.6073,2.391157
229.6079,2.384766
229.6882,2.377625
229.7679,2.377673
229.7691,2.364891
229.8594,2.357756
229.9391,2.357804
229.9397,2.351413
230.1103,2.337935
230.1109,2.331545
230.2715,2.318060
230.3611,2.318114
230.3617,2.311724
230.5223,2.298239
230.5229,2.291849
230.6126,2.291903
230.6132,2.285512
230.6929,2.285560
230.6941,2.271980
230.7738,2.272028
230.7744,2.265637
230.9450,2.252159
231.0247,2.252207
231.0259,2.238627
231.1056,2.238675
231.1062,2.232284
231.1964,2.225948
231.2761,2.225996
231.2768,2.218806
231.3571,2.212464
231.3577,2.205274
231.4480,2.198937
231.5277,2.198985
231.5283,2.192595
231.6079,2.192643
231.6086,2.185453
231.7791,2.172774
231.7798,2.165584
231.8595,2.165632
231.8601,2.159242
231.9497,2.159296
231.9510,2.145716
232.0306,2.145763
232.0312,2.139373
232.1115,2.133030
232.2012,2.133084
232.2018,2.125895
232.2815,2.125943
232.2827,2.113162
232.3624,2.113209
232.4527,2.106074
232.4533,2.099683
232.5330,2.099731
232.5336,2.093340
232.7041,2.079863
232.7047,2.073472
232.7844,2.073520
232.7851,2.066330
232.8648,2.066378
232.8654,2.059988
232.9556,2.053651
232.9563,2.046462
233.2874,2.020298
233.2880,2.013907
233.4586,2.000429
233.5383,2.000477
233.5395,1.986897
233.6192,1.986945
233.7095,1.980608
233.7101,1.974218
233.7897,1.974266
233.7904,1.967076
233.8701,1.967124
233.8713,1.954343
234.0419,1.940864
234.1215,1.940913
234.1228,1.927332
234.2025,1.927381
234.2038,1.913801
234.3731,1.913902
234.3737,1.907512
234.4533,1.907560
234.4546,1.893980
234.5443,1.894033
234.5449,1.887643
234.6245,1.887691
234.6251,1.881300
234.7957,1.867822
234.7963,1.861432
234.8767,1.854290
234.9563,1.854338
234.9569,1.847948
235.0472,1.841610
235.0478,1.834421
235.2987,1.814600
235.3784,1.814648
235.3796,1.801867
235.4593,1.801915
235.4599,1.794726
235.7108,1.774904
235.7114,1.768514
235.9622,1.748693
235.9628,1.742302
236.0525,1.742357
236.0532,1.735167
236.1334,1.728824
236.2131,1.728872
236.2137,1.722482
236.3843,1.709004
236.3849,1.702613
236.4652,1.695471
236.5549,1.695525
236.5555,1.689135
236.6357,1.682792
236.7154,1.682840
236.7167,1.669260
236.7964,1.669308
236.7970,1.662917
236.9676,1.649439
236.9682,1.642250
237.0479,1.642297
237.0485,1.635907
237.2994,1.616086
237.3000,1.609696
237.3903,1.602560
237.3909,1.596169
237.4705,1.596218
237.6411,1.582739
237.6417,1.576348
237.7220,1.570006
237.7227,1.562816
237.8024,1.562865
237.8030,1.556474
237.8926,1.556528
237.8932,1.550137
237.9729,1.550186
237.9741,1.536605
238.0538,1.536653
238.2244,1.523175
238.2256,1.510394
238.3059,1.503253
238.3956,1.503306
238.3962,1.496916
238.4759,1.496963
238.4765,1.490572
238.5561,1.490620
238.5568,1.483430
238.7273,1.470751
238.7280,1.463562
238.8077,1.463611
238.8083,1.457220
238.8985,1.450883
238.8992,1.443693
238.9794,1.437351
238.9800,1.430960
239.0597,1.431008
239.2303,1.417530
239.2309,1.411140
239.4015,1.397662
239.4812,1.397709
239.4824,1.384129
239.5621,1.384178
239.6424,1.377834
239.6430,1.371443
239.8939,1.350823
239.8945,1.344434
239.9842,1.344487
239.9848,1.338096
240.0644,1.338146
240.0651,1.330955
240.1448,1.331004
240.1460,1.318222
240.4871,1.291264
240.4877,1.284875
240.5680,1.278532
240.6477,1.278580
240.6484,1.271391
240.8189,1.258711
240.8196,1.251521
240.8992,1.251570
240.8998,1.245179
240.9895,1.245234
240.9901,1.238844
241.1507,1.225358
241.1520,1.211777
241.2416,1.211833
241.4021,1.199146
241.4028,1.191957
241.5733,1.179279
241.5740,1.172089
241.6537,1.172136
241.6543,1.165746
241.7439,1.165799
241.7445,1.159411
241.8249,1.152267
241.8255,1.145877
241.9051,1.145926
241.9057,1.139536
241.9954,1.139589
241.9960,1.132401
242.1566,1.119714
242.1573,1.112525
242.2369,1.112571
242.2375,1.106181
242.3272,1.106235
242.3278,1.099846
242.4081,1.092703
242.4087,1.086314
242.4884,1.086360
242.4890,1.079969
242.5786,1.080024
242.5793,1.072834
242.6590,1.072882
242.6603,1.059302
242.7399,1.059351
242.7405,1.052959
242.9111,1.039482
242.9117,1.033090
242.9914,1.033138
243.0816,1.026803
243.0823,1.019615
243.1626,1.013271
243.1632,1.006881
243.2429,1.006928
243.2435,0.999739
243.3338,0.993401
243.3344,0.987009
243.4140,0.987058
243.4147,0.979871
243.4944,0.979917
243.4956,0.967136
243.5852,0.967192
243.6656,0.960047
243.6662,0.953658
243.8367,0.940178
243.8373,0.933791
243.9170,0.933836
243.9176,0.927447
243.9980,0.920306
244.0876,0.920358
244.0888,0.907578
244.3397,0.887758
244.3403,0.880568
244.5009,0.867880
244.5022,0.854300
244.6702,0.867986
244.6709,0.860793
244.6709,0.860793
244.6715,0.854403
244.6721,0.848010
244.7524,0.840871
244.7530,0.834478
244.8433,0.828144
244.9229,0.828189
244.9236,0.821002
245.0842,0.808319
245.0848,0.801129
245.1751,0.794795
245.2547,0.794836
245.2554,0.787652
245.3357,0.781310
245.3363,0.774918
245.5890,0.735128
245.7583,0.735224
245.8387,0.728086
245.8405,0.708115
245.9295,0.715360
245.9308,0.701775
246.0105,0.701827
246.0117,0.688242
246.0901,0.701870
246.1798,0.701930
246.1804,0.695534
246.1810,0.688349
246.1816,0.681955
246.2619,0.675613
246.2626,0.668423
246.3423,0.668470
246.3429,0.662087
246.4325,0.662134
246.4331,0.655743
246.5128,0.655791
246.5134,0.648604
246.5937,0.642257
246.5943,0.635876
246.6840,0.635926
246.6846,0.628736
246.7643,0.628787
246.7649,0.622390
246.8446,0.622442
246.8452,0.616055
246.9355,0.608911
246.9361,0.602527
247.0158,0.602570
247.0164,0.596179
247.0967,0.589044
247.0973,0.582654
247.1870,0.582700
247.1875,0.576307
247.2679,0.569175
247.2685,0.562780
247.3482,0.562828
247.3488,0.556435
247.4391,0.549298
247.4397,0.542913
247.5194,0.542962
247.5200,0.536571
247.5996,0.536622
247.6003,0.529430
247.6899,0.529482
247.6905,0.523096
247.7708,0.516747
247.7715,0.509552
247.8512,0.509606
247.8524,0.496030
248.0229,0.483345
248.0236,0.476165
248.1033,0.476208
248.1836,0.469866
248.2732,0.469910
248.2745,0.456336
248.3542,0.456381
248.3554,0.443607
248.4350,0.443654
248.4357,0.436465
248.5259,0.430123
248.5272,0.416541
248.6069,0.416591
248.6075,0.410203
248.6866,0.416641
248.6878,0.403858
248.6884,0.396670
248.8559,0.416740
248.8589,0.383995
248.8596,0.376796
248.9386,0.384031
248.9399,0.370458
248.9405,0.364063
249.1079,0.384138
249.1086,0.376960
249.1883,0.376996
249.1889,0.370606
249.1895,0.364213
249.1920,0.337060
249.2804,0.350694
249.2823,0.330718
249.3601,0.350732
249.3613,0.337160
249.3619,0.330779
249.3625,0.324385
249.5306,0.337260
249.5312,0.330880
249.5318,0.324488
249.5325,0.317290
249.6128,0.310948
249.6134,0.304555
249.6937,0.297410
249.6943,0.291036
249.7846,0.284679
249.8642,0.284746
249.8649,0.277540
249.9446,0.277586
249.9465,0.257631
250.0348,0.271261
250.0367,0.251297
250.0373,0.244895
250.1955,0.257775
250.1961,0.251395
250.1967,0.244994
250.1973,0.237795
250.2870,0.237870
250.3672,0.231521
250.3685,0.217931
250.4482,0.217984
250.4495,0.204391
##END=
