##TITLE=Pyrrole-2-carboxylic acid
##JCAMP-DX=4.24
##DATA TYPE=UV/VIS SPECTRUM
##ORIGIN=INSTITUTE OF ENERGY PROBLEMS OF CHEMICAL PHYSICS, RAS
##OWNER=INEP CP RAS, NIST OSRD
Collection (C) 2007 copyright by the U.S. Secretary of Commerce
on behalf of the United States of America. All rights reserved.
##CAS REGISTRY NO=634-97-9
##MOLFORM=C5H5NO2
##MP=208.5 dec
##SOURCE REFERENCE=RAS UV No. 12553
##$NIST SQUIB=1956HUH/BRO2013
##$NIST SOURCE=TYUGLMTE
##SPECTROMETER/DATA SYSTEM=n.i.g.
##XUNITS=Wavelength (nm)
##YUNITS=Logarithm epsilon
##XFACTOR=1.0
##YFACTOR=1.0
##FIRSTX=215.35
##LASTX=272.44
##FIRSTY=4.193
##MAXX=272.44
##MINX=215.35
##MAXY=4.847
##MINY=3.603
##NPOINTS=140
##$REF AUTHOR=Huhn, R.; Brossmer, R.
##$REF JOURNAL=Chem. Ber.
##$REF VOLUME=89
##$REF PAGE=2013
##$REF DATE=1956
##XYPOINTS=(XY..XY)
215.35,4.193
215.75,4.198
216.14,4.203
216.54,4.209
216.99,4.216
217.32,4.222
217.72,4.232
218.11,4.242
218.50,4.254
218.88,4.268
219.36,4.281
219.81,4.294
220.19,4.305
220.47,4.313
220.87,4.325
221.26,4.338
221.65,4.350
222.02,4.360
222.49,4.372
222.94,4.383
223.23,4.391
223.60,4.400
224.02,4.411
224.41,4.423
224.80,4.435
225.20,4.445
225.59,4.457
225.98,4.467
226.35,4.475
226.71,4.484
227.10,4.494
227.50,4.505
227.95,4.516
228.55,4.530
229.08,4.543
229.64,4.553
230.36,4.565
231.09,4.580
231.50,4.587
231.89,4.595
232.28,4.602
232.68,4.609
233.07,4.617
233.46,4.624
233.89,4.632
234.34,4.641
234.65,4.646
235.07,4.653
235.43,4.661
235.83,4.670
236.22,4.678
236.61,4.685
236.98,4.690
237.40,4.695
237.80,4.700
238.19,4.705
238.58,4.710
238.98,4.714
239.37,4.719
239.76,4.724
240.22,4.731
240.55,4.737
240.94,4.741
241.34,4.749
241.73,4.754
242.13,4.761
242.52,4.766
242.91,4.768
243.31,4.776
243.70,4.781
244.09,4.785
244.49,4.790
244.88,4.795
245.28,4.800
245.67,4.803
246.06,4.808
246.46,4.812
246.85,4.815
247.24,4.820
247.64,4.825
248.03,4.830
248.43,4.832
248.82,4.837
249.21,4.842
249.61,4.844
250.00,4.847
250.39,4.844
250.79,4.839
251.18,4.837
251.57,4.834
251.96,4.831
252.37,4.827
252.79,4.822
253.22,4.816
253.61,4.811
253.94,4.805
254.35,4.798
254.72,4.793
255.12,4.784
255.51,4.776
255.92,4.767
256.35,4.757
256.77,4.747
257.14,4.737
257.53,4.725
257.83,4.714
258.15,4.704
258.67,4.688
259.10,4.673
259.48,4.660
259.84,4.648
260.20,4.633
260.56,4.619
260.95,4.601
261.33,4.582
261.76,4.558
262.21,4.530
262.60,4.502
262.99,4.467
263.39,4.431
263.78,4.394
264.17,4.369
264.57,4.335
264.96,4.289
265.35,4.244
265.75,4.203
266.14,4.161
266.54,4.120
266.93,4.095
267.32,4.054
268.37,3.973
269.06,3.909
269.56,3.857
270.06,3.812
270.47,3.772
270.87,3.735
271.25,3.700
271.65,3.659
272.05,3.633
272.44,3.603
##END=
