##TITLE=Quinoline, 1,2,3,4-tetrahydro-
##JCAMP-DX=4.24
##DATA TYPE=UV/VIS SPECTRUM
##ORIGIN=INSTITUTE OF ENERGY PROBLEMS OF CHEMICAL PHYSICS, RAS
##OWNER=INEP CP RAS, NIST OSRD
Collection (C) 2007 copyright by the U.S. Secretary of Commerce
on behalf of the United States of America. All rights reserved.
##CAS REGISTRY NO=635-46-1
##MOLFORM=C9H11N
##MP=20
##BP=251
##SOURCE REFERENCE=RAS UV No. 3168
##$NIST SQUIB=1963MIN/TUM637-640
##$NIST SOURCE=TSGMTE
##SPECTROMETER/DATA SYSTEM=Spectrophotometer SF-4
##XUNITS=Wavelength (nm)
##YUNITS=Logarithm epsilon
##XFACTOR=1.000000
##YFACTOR=1.000000
##FIRSTX=214.5058
##LASTX=324.9436
##FIRSTY=4.00435
##MAXX=324.944
##MINX=214.506
##MAXY=4.00435
##MINY=2.61019
##NPOINTS=99
##$REF AUTHOR=Minkin, V.I.; Tumakova, A.
##$REF TITLE=The structure and reactivity of products of condensation of aromatic amines with aliphatic aldehydes. I. Isomerism and structure of dimers of ethylidene aniline
##$REF JOURNAL=Zh. Obshch. Khim.
##$REF VOLUME=33
##$REF PAGE=637-640
##$REF DATE=1963
##XYPOINTS=(XY..XY)
214.5058,4.004354
214.7652,3.981178
215.0429,3.957828
215.3296,3.934391
216.0449,3.898274
216.2465,3.876488
216.6422,3.855803
217.5712,3.818489
218.6679,3.772486
218.8584,3.755465
219.2402,3.736533
220.1404,3.699464
222.5627,3.653326
223.3863,3.643927
224.2927,3.637731
225.7773,3.632448
226.3024,3.630958
227.1832,3.632314
228.0641,3.633581
228.9455,3.634670
232.5511,3.678817
235.5404,3.715891
236.7164,3.731619
237.0873,3.739485
240.1920,3.773172
242.7094,3.799042
244.2509,3.814071
245.4488,3.824028
246.9352,3.834676
250.9568,3.831888
252.6450,3.817431
253.9563,3.803197
255.1369,3.786547
256.4331,3.764840
258.5174,3.727003
259.1705,3.705249
259.8352,3.683385
260.5076,3.661448
261.1837,3.639475
262.7863,3.601542
263.3232,3.577673
263.8716,3.553694
264.4278,3.529642
264.9877,3.505554
266.3855,3.469572
266.8164,3.449337
267.2549,3.429103
267.6992,3.408870
268.1474,3.388638
268.5975,3.368407
269.3634,3.327120
269.9003,3.303251
270.4488,3.279273
271.0049,3.255221
271.5649,3.231132
273.2846,3.194816
274.1095,3.179618
275.3948,3.161854
276.7603,3.144106
277.0846,3.142577
278.9934,3.146778
279.8520,3.149531
280.3964,3.153195
284.0262,3.185393
285.4624,3.205383
286.7863,3.223146
293.8812,3.296063
295.3761,3.309970
296.9555,3.322996
297.7648,3.322796
298.4189,3.322925
298.7419,3.336138
299.0910,3.323059
299.7719,3.323194
303.1705,3.310720
305.2060,3.293341
306.9313,3.274927
308.6340,3.250044
312.6296,3.170500
313.4216,3.151114
314.2139,3.131617
315.9505,3.086937
316.4451,3.066048
316.9436,3.045048
317.4498,3.023974
317.9674,3.002866
319.2359,2.951319
319.7298,2.926197
320.2330,2.900899
320.7542,2.875517
321.8653,2.822345
322.2394,2.796919
322.6223,2.771494
323.0231,2.746073
323.7657,2.696414
324.0506,2.674948
324.3393,2.653446
324.6357,2.631870
324.9436,2.610185
##END=
