##TITLE=N-acetyl-N-(1H-indol-3-yl)acetamide
##JCAMP-DX=4.24
##DATA TYPE=UV/VIS SPECTRUM
##ORIGIN=INSTITUTE OF ENERGY PROBLEMS OF CHEMICAL PHYSICS, RAS
##OWNER=INEP CP RAS, NIST OSRD
Collection (C) 2007 copyright by the U.S. Secretary of Commerce
on behalf of the United States of America. All rights reserved.
##CAS REGISTRY NO=63607-38-5
##MOLFORM=C12H12N2O2
##MP=156-157
##SOURCE REFERENCE=RAS UV No. 22595
##$NIST SQUIB=1977YAR/481
##$NIST SOURCE=TYUGLMTE
##SPECTROMETER/DATA SYSTEM=Specord UV-Vis
##XUNITS=Wavelength (nm)
##YUNITS=Logarithm epsilon
##XFACTOR=1.0
##YFACTOR=1.0
##FIRSTX=213.241
##LASTX=331.52
##FIRSTY=4.466
##MAXX=331.52
##MINX=213.241
##MAXY=4.548
##MINY=2.722
##NPOINTS=123
##$REF AUTHOR=Yarosh, A.V.; et al.
##$REF JOURNAL=Khim. Geterosikl. Soedin.
##$REF PAGE=481
##$REF DATE=1977
##XYPOINTS=(XY..XY)
213.241,4.466
214.241,4.481
215.241,4.498
216.241,4.516
217.241,4.532
218.241,4.544
219.241,4.548
220.241,4.540
221.241,4.515
222.241,4.466
223.241,4.385
224.241,4.262
225.241,4.084
225.322,4.070
226.322,3.979
227.322,3.914
228.322,3.868
229.322,3.836
230.322,3.813
231.322,3.796
232.322,3.782
233.322,3.771
234.322,3.760
235.322,3.749
236.322,3.739
237.322,3.728
238.322,3.718
239.322,3.708
240.322,3.698
241.322,3.690
242.322,3.684
243.322,3.678
244.322,3.675
245.322,3.673
246.139,3.670
247.139,3.674
248.139,3.674
249.139,3.675
250.139,3.678
251.139,3.683
252.139,3.692
253.139,3.703
254.139,3.717
255.139,3.732
256.139,3.748
257.139,3.763
258.139,3.777
259.139,3.788
260.139,3.796
261.131,3.801
262.131,3.806
263.131,3.811
264.131,3.815
265.131,3.819
266.131,3.823
267.131,3.826
267.700,3.829
268.700,3.833
269.700,3.834
270.700,3.833
271.700,3.832
272.700,3.832
273.700,3.832
274.700,3.830
275.700,3.827
276.700,3.819
277.700,3.807
278.700,3.790
279.700,3.769
280.700,3.744
281.700,3.721
282.700,3.703
282.755,3.704
283.755,3.692
284.755,3.694
285.755,3.708
286.755,3.727
287.755,3.746
288.755,3.757
289.755,3.755
290.755,3.734
291.755,3.694
292.755,3.640
292.792,3.644
293.792,3.567
294.792,3.499
295.792,3.436
296.792,3.374
297.792,3.311
298.792,3.246
299.792,3.180
300.792,3.114
301.792,3.049
302.792,2.987
303.792,2.929
304.792,2.878
305.792,2.835
306.792,2.802
307.792,2.779
308.792,2.764
309.520,2.759
310.520,2.755
311.520,2.750
312.520,2.745
313.520,2.741
314.520,2.737
315.520,2.734
316.520,2.733
317.520,2.732
318.520,2.732
319.520,2.733
320.520,2.735
321.520,2.736
322.520,2.737
323.520,2.737
324.520,2.736
325.520,2.734
326.520,2.731
327.520,2.728
328.520,2.725
329.520,2.723
330.520,2.722
331.520,2.725
##END=
