##TITLE=Clofibrate
##JCAMP-DX=4.24
##DATA TYPE=UV/VIS SPECTRUM
##ORIGIN=INSTITUTE OF ENERGY PROBLEMS OF CHEMICAL PHYSICS, RAS
##OWNER=INEP CP RAS, NIST OSRD
Collection (C) 2007 copyright by the U.S. Secretary of Commerce
on behalf of the United States of America. All rights reserved.
##CAS REGISTRY NO=637-07-0
##MOLFORM=C12H15ClO3
##SOURCE REFERENCE=RAS UV No. 19055
##$NIST SQUIB=1969LAN39
##$NIST SOURCE=TYUGLMTE
##SPECTROMETER/DATA SYSTEM=Unicam SP 800
##XUNITS=Wavelength (nm)
##YUNITS=Logarithm epsilon
##XFACTOR=1.0
##YFACTOR=1.0
##FIRSTX=211.54
##LASTX=299.77
##FIRSTY=3.34
##MAXX=299.77
##MINX=211.54
##MAXY=3.94
##MINY=0.881
##NPOINTS=135
##$REF AUTHOR=Lang (editor), L.
##$REF JOURNAL=Absorption Spectra in the Ultraviolet and Visible Region
##$REF VOLUME=13
##$REF PAGE=39
##$REF DATE=1969
##XYPOINTS=(XY..XY)
211.54,3.340
211.69,3.350
211.83,3.357
211.97,3.367
212.13,3.377
212.81,3.425
213.48,3.469
214.16,3.520
214.83,3.564
215.50,3.601
216.18,3.631
216.85,3.665
217.53,3.703
218.20,3.730
218.88,3.757
219.55,3.777
220.22,3.801
220.90,3.825
221.57,3.845
222.25,3.862
222.92,3.879
223.59,3.896
224.27,3.909
224.94,3.923
225.62,3.933
226.29,3.940
226.96,3.940
227.64,3.940
228.31,3.936
228.99,3.926
229.66,3.909
230.33,3.889
231.01,3.865
231.68,3.838
232.36,3.808
233.03,3.777
233.71,3.740
234.38,3.703
235.05,3.672
235.73,3.621
236.40,3.567
237.08,3.509
237.75,3.442
238.42,3.367
239.10,3.279
239.77,3.184
240.45,3.086
241.12,2.971
241.79,2.896
242.47,2.788
243.14,2.683
243.82,2.581
244.49,2.500
245.17,2.402
245.84,2.324
246.51,2.280
247.19,2.253
247.86,2.239
248.54,2.236
249.21,2.232
249.88,2.232
250.56,2.239
251.23,2.243
251.91,2.253
252.58,2.263
253.25,2.276
253.93,2.293
254.60,2.317
255.28,2.341
255.95,2.361
256.62,2.392
257.30,2.422
257.97,2.456
258.65,2.486
259.32,2.520
260.00,2.547
260.67,2.578
261.34,2.608
262.02,2.636
262.69,2.656
263.37,2.676
264.04,2.703
264.71,2.724
265.39,2.741
266.06,2.761
266.74,2.781
267.41,2.798
268.08,2.815
268.76,2.832
269.43,2.846
270.11,2.862
270.78,2.879
271.46,2.893
272.13,2.910
272.80,2.923
273.48,2.940
274.15,2.947
274.83,2.961
275.50,2.974
276.17,2.978
276.85,2.991
277.52,2.995
278.20,3.008
278.87,3.015
279.54,3.022
280.22,3.022
280.89,3.012
281.57,2.995
282.24,2.971
282.92,2.944
283.59,2.927
284.26,2.907
284.94,2.890
285.61,2.866
286.29,2.856
286.96,2.852
287.63,2.866
288.31,2.866
288.98,2.835
289.66,2.781
290.33,2.683
291.00,2.564
291.68,2.398
292.35,2.229
293.03,2.080
293.70,1.911
294.38,1.778
295.05,1.636
295.72,1.484
296.28,1.375
297.07,1.247
297.72,1.158
298.33,1.080
298.93,0.997
299.77,0.881
##END=
