##TITLE=p-Benzoquinone 4-oxime
##JCAMP-DX=4.24
##DATA TYPE=UV/VIS SPECTRUM
##ORIGIN=INSTITUTE OF ENERGY PROBLEMS OF CHEMICAL PHYSICS, RAS
##OWNER=INEP CP RAS, NIST OSRD
Collection (C) 2007 copyright by the U.S. Secretary of Commerce
on behalf of the United States of America. All rights reserved.
##CAS REGISTRY NO=637-62-7
##MOLFORM=C6H5NO2
##SOURCE REFERENCE=RAS UV No. 17550
##$NIST SQUIB=1976BEL/1451
##$NIST SOURCE=TYUGLMTE
##SPECTROMETER/DATA SYSTEM=SF-4a
##XUNITS=Wavelength (nm)
##YUNITS=Logarithm epsilon
##XFACTOR=1.0
##YFACTOR=1.0
##FIRSTX=232.66
##LASTX=455.89
##FIRSTY=3.228
##MAXX=455.89
##MINX=232.66
##MAXY=4.14
##MINY=3.113
##NPOINTS=109
##$REF AUTHOR=Belyaev, E.Y.; et al.
##$REF JOURNAL=Zhur. Organ. Khim. (English translation)
##$REF VOLUME=12
##$REF PAGE=1451
##$REF DATE=1976
##XYPOINTS=(XY..XY)
232.66,3.228
233.08,3.232
233.51,3.236
233.93,3.243
235.63,3.274
237.74,3.312
239.86,3.346
241.98,3.374
244.10,3.378
246.22,3.378
248.33,3.376
250.45,3.365
252.57,3.355
254.69,3.346
256.80,3.340
258.92,3.334
261.04,3.331
263.16,3.334
265.28,3.336
267.39,3.340
269.51,3.346
271.63,3.363
273.75,3.391
275.87,3.425
277.98,3.459
280.10,3.492
282.22,3.520
284.34,3.545
286.46,3.569
288.57,3.590
290.69,3.615
292.81,3.641
294.93,3.664
297.05,3.685
299.16,3.711
301.28,3.732
303.40,3.749
305.52,3.766
307.64,3.778
309.75,3.785
311.87,3.787
313.99,3.783
316.11,3.774
318.23,3.740
320.34,3.672
322.46,3.643
324.58,3.628
326.70,3.619
328.81,3.617
330.93,3.617
333.05,3.619
335.17,3.628
337.29,3.636
339.40,3.649
341.52,3.662
343.64,3.675
345.76,3.696
347.88,3.727
349.99,3.753
352.11,3.789
354.23,3.821
356.35,3.852
358.47,3.884
360.58,3.907
362.70,3.939
364.82,3.967
366.94,3.992
369.06,4.020
371.17,4.045
373.29,4.068
375.41,4.085
377.53,4.106
379.65,4.121
381.76,4.130
383.88,4.136
386.00,4.138
388.12,4.140
390.24,4.140
392.35,4.140
394.47,4.134
396.59,4.126
398.71,4.111
400.82,4.094
402.94,4.073
405.06,4.051
407.18,4.032
409.30,4.009
411.41,3.984
413.53,3.958
415.65,3.918
417.77,3.869
419.89,3.829
422.00,3.791
424.12,3.753
426.24,3.702
428.36,3.662
430.48,3.622
432.59,3.581
434.71,3.533
436.83,3.492
438.95,3.450
441.07,3.410
443.18,3.361
445.30,3.319
447.42,3.276
449.54,3.236
451.66,3.188
453.77,3.152
455.89,3.113
##END=
