##TITLE=Acetic acid
##JCAMP-DX=4.24
##DATA TYPE=UV/VIS SPECTRUM
##ORIGIN=INSTITUTE OF ENERGY PROBLEMS OF CHEMICAL PHYSICS, RAS
##OWNER=INEP CP RAS, NIST OSRD
Collection (C) 2007 copyright by the U.S. Secretary of Commerce
on behalf of the United States of America. All rights reserved.
##CAS REGISTRY NO=64-19-7
##MOLFORM=C2H4O2
##MP=16.6
##BP=117.9
##SOURCE REFERENCE=RAS UV No. 2843
##$NIST SQUIB=1946BRI/STR344-345
##$NIST SOURCE=TSGMTE
##SPECTROMETER/DATA SYSTEM=n.i.g.
##PRESSURE=309 mm Hg
##TEMPERATURE=210
##XUNITS=Wavelength (nm)
##YUNITS=Logarithm epsilon
##XFACTOR=1.000000
##YFACTOR=1.000000
##FIRSTX=205.2567
##LASTX=239.3953
##FIRSTY=1.87509
##MAXX=239.395
##MINX=205.257
##MAXY=1.90256
##MINY=1.23218
##NPOINTS=129
##$REF AUTHOR=Briegleb, G.; Strohmeier, W.
##$REF TITLE=Einfluss einer Wasserstoff-Bruckenbindung auf die lichtabsorption der COOH-Gruppe
##$REF JOURNAL=Naturwissenschaften
##$REF VOLUME=33
##$REF PAGE=344-345
##$REF DATE=1946
##XYPOINTS=(XY..XY)
205.2567,1.875088
205.4056,1.878186
205.4844,1.880580
205.5605,1.884325
205.5605,1.884325
205.7221,1.885297
205.8891,1.886270
206.0588,1.887242
208.3431,1.899872
208.7447,1.902555
208.7447,1.902555
209.5454,1.902117
210.3438,1.901679
211.1405,1.901242
211.5156,1.899395
211.8887,1.899395
211.9360,1.900804
212.2565,1.899395
212.6216,1.899395
212.7309,1.900367
212.7309,1.900367
212.8367,1.898881
213.1234,1.897558
213.8369,1.891374
213.8369,1.891374
213.8369,1.892598
213.8369,1.893877
213.8369,1.895263
213.8369,1.895263
214.2618,1.888952
214.6840,1.886584
215.1008,1.884325
215.1008,1.884325
215.5230,1.879184
216.0884,1.873180
216.5106,1.868040
216.5106,1.868040
216.8702,1.863871
217.2083,1.859001
217.4707,1.856130
217.4707,1.856130
217.8786,1.849642
218.2728,1.842518
219.9500,1.808488
219.9500,1.808488
220.4082,1.794643
220.8610,1.780851
221.3111,1.767167
221.3111,1.767167
221.6468,1.752469
221.9006,1.740734
222.1998,1.725809
222.6723,1.701540
222.6723,1.701540
222.7961,1.684771
222.9194,1.668013
223.0415,1.651277
223.1220,1.632996
223.1220,1.634949
223.1220,1.636957
223.1220,1.639073
223.1619,1.634579
223.2800,1.617926
223.2800,1.617926
223.4623,1.605358
223.6446,1.592898
223.8269,1.580494
223.8269,1.580494
224.0073,1.575300
224.2419,1.566323
224.6897,1.551083
224.6897,1.551083
224.9053,1.547824
225.3208,1.539595
226.2089,1.522887
226.2089,1.522887
226.3426,1.521916
226.4763,1.520943
226.6100,1.519971
226.6100,1.519971
227.2077,1.511905
228.1026,1.502271
228.6760,1.497608
228.6760,1.497608
228.7215,1.494754
228.8128,1.492927
229.0285,1.490560
229.0285,1.490560
229.8413,1.488012
230.5976,1.484761
231.5077,1.481566
231.5077,1.481566
231.7143,1.478434
232.0262,1.475786
232.7109,1.471358
232.7109,1.471358
232.8166,1.469242
232.9170,1.467234
233.0147,1.465280
233.0147,1.465280
233.2209,1.463894
233.4243,1.462615
233.6224,1.461392
233.6224,1.461392
233.6584,1.459691
233.6917,1.457989
233.7196,1.456287
233.7196,1.456287
233.9987,1.453444
234.1328,1.452156
234.1328,1.452156
234.2912,1.448051
234.5415,1.442973
234.8377,1.436113
234.8377,1.436113
235.3279,1.424779
236.0287,1.405884
236.5513,1.392604
236.5513,1.392604
237.1284,1.367201
237.5056,1.351897
237.9125,1.335241
237.9125,1.335241
238.1174,1.321957
238.3722,1.304333
238.6520,1.284456
238.9322,1.264412
239.1882,1.246289
239.3953,1.232178
##END=
