##TITLE=Urea, phenyl-
##JCAMP-DX=4.24
##DATA TYPE=UV/VIS SPECTRUM
##ORIGIN=INSTITUTE OF ENERGY PROBLEMS OF CHEMICAL PHYSICS, RAS
##OWNER=INEP CP RAS, NIST OSRD
Collection (C) 2007 copyright by the U.S. Secretary of Commerce
on behalf of the United States of America. All rights reserved.
##CAS REGISTRY NO=64-10-8
##MOLFORM=C7H8N2O
##MP=147
##BP=238
##SOURCE REFERENCE=RAS UV No. 12267
##$NIST SQUIB=1953GRA86
##$NIST SOURCE=TYUGLMTE
##SPECTROMETER/DATA SYSTEM=n.i.g.
##XUNITS=Wavelength (nm)
##YUNITS=Logarithm epsilon
##XFACTOR=1.0
##YFACTOR=1.0
##FIRSTX=222.73
##LASTX=296.63
##FIRSTY=3.553
##MAXX=296.63
##MINX=222.73
##MAXY=4.154
##MINY=0.47
##NPOINTS=121
##$REF AUTHOR=Grammaticakis, P.
##$REF JOURNAL=Bull. soc. chim. France
##$REF VOLUME=Series 5, 20
##$REF PAGE=86
##$REF DATE=1953
##XYPOINTS=(XY..XY)
222.73,3.553
223.57,3.613
224.46,3.673
225.40,3.744
226.30,3.813
227.21,3.877
228.13,3.920
229.05,3.978
229.98,4.016
230.92,4.058
231.87,4.085
232.83,4.101
233.79,4.127
234.76,4.143
235.74,4.154
236.73,4.154
237.72,4.149
238.73,4.133
239.74,4.101
240.76,4.080
241.79,4.042
242.83,4.005
243.88,3.952
244.94,3.893
246.00,3.808
247.08,3.718
247.96,3.618
249.26,3.452
249.90,3.320
250.50,3.188
251.48,3.079
252.60,3.015
253.73,2.978
254.88,2.946
256.03,2.914
257.20,2.887
258.34,2.864
259.55,2.847
260.76,2.840
261.97,2.840
263.19,2.840
264.42,2.850
265.66,2.882
265.91,2.887
266.16,2.887
266.42,2.893
266.67,2.898
266.92,2.898
267.17,2.903
267.42,2.909
267.68,2.909
267.93,2.914
268.19,2.919
268.44,2.919
268.70,2.925
268.95,2.930
269.21,2.935
269.46,2.935
270.24,2.941
270.50,2.941
270.76,2.946
271.01,2.951
271.28,2.957
271.54,2.957
271.80,2.962
272.06,2.962
272.32,2.962
272.58,2.962
272.85,2.962
273.11,2.962
273.37,2.962
273.64,2.962
273.90,2.962
274.17,2.957
274.44,2.957
274.70,2.951
274.96,2.944
275.24,2.930
275.48,2.903
275.58,2.869
275.65,2.843
275.74,2.804
275.86,2.753
276.05,2.712
276.27,2.686
276.51,2.668
276.79,2.652
277.13,2.643
277.39,2.640
277.67,2.637
277.95,2.637
278.22,2.637
278.49,2.643
278.78,2.648
279.06,2.654
279.32,2.662
279.60,2.669
279.87,2.680
280.15,2.691
280.43,2.706
280.74,2.731
280.99,2.754
281.22,2.776
281.49,2.788
281.85,2.782
282.11,2.765
282.39,2.722
282.65,2.672
282.96,2.611
283.36,2.542
283.82,2.471
284.28,2.402
284.95,2.291
286.40,2.047
287.86,1.818
289.33,1.584
290.82,1.349
292.33,1.110
293.85,0.876
295.38,0.636
296.63,0.470
##END=
