##TITLE=2,5-digydro-2,2,5,5-tetramethyl-4-[(methylhydrazino)methyl]- 1H- imidazol-1-oxyl
##JCAMP-DX=4.24
##DATA TYPE=UV/VIS SPECTRUM
##ORIGIN=INSTITUTE OF ENERGY PROBLEMS OF CHEMICAL PHYSICS, RAS
##OWNER=INEP CP RAS, NIST OSRD
Collection (C) 2007 copyright by the U.S. Secretary of Commerce
on behalf of the United States of America. All rights reserved.
##CAS REGISTRY NO=64180-45-6
##MOLFORM=C9H17N4O
##MP=117-118
##SOURCE REFERENCE=RAS UV No. 22475
##$NIST SQUIB=1977MIT/1538
##$NIST SOURCE=TYUGLMTE
##SPECTROMETER/DATA SYSTEM=Specord UV-Vis
##XUNITS=Wavelength (nm)
##YUNITS=Logarithm epsilon
##XFACTOR=1.0
##YFACTOR=1.0
##FIRSTX=238.893
##LASTX=358.979
##FIRSTY=3.454
##MAXX=358.979
##MINX=238.893
##MAXY=4.054
##MINY=2.807
##NPOINTS=123
##$REF AUTHOR=Mitasov, M.M.; et al.
##$REF JOURNAL=Zhur. Organ. Khim.
##$REF VOLUME=13
##$REF PAGE=1538
##$REF DATE=1977
##XYPOINTS=(XY..XY)
238.893,3.454
239.893,3.481
240.893,3.505
241.893,3.525
242.893,3.542
243.893,3.557
244.893,3.571
245.893,3.584
246.893,3.599
247.893,3.614
248.893,3.631
249.893,3.650
250.893,3.671
251.893,3.695
252.893,3.720
253.893,3.747
254.893,3.775
255.893,3.804
256.893,3.832
257.893,3.860
258.893,3.886
259.893,3.911
260.893,3.932
261.893,3.950
262.893,3.965
263.893,3.977
264.893,3.986
265.864,3.992
266.864,4.003
267.864,4.013
268.864,4.023
269.864,4.032
270.864,4.039
271.864,4.045
272.864,4.050
273.864,4.053
274.864,4.054
275.864,4.054
276.864,4.053
277.864,4.050
278.864,4.046
279.864,4.041
280.864,4.035
281.864,4.028
282.864,4.021
283.864,4.013
284.864,4.005
285.864,3.996
286.864,3.988
287.864,3.979
288.864,3.971
289.864,3.963
290.864,3.955
291.864,3.946
292.864,3.938
293.785,3.929
294.785,3.923
295.785,3.919
296.785,3.916
297.785,3.913
298.785,3.912
299.785,3.911
300.785,3.910
301.785,3.910
302.785,3.910
303.785,3.910
304.785,3.911
305.785,3.911
306.785,3.912
307.785,3.914
308.785,3.915
309.785,3.917
310.785,3.919
311.785,3.922
312.785,3.925
313.785,3.928
314.785,3.932
315.785,3.936
316.785,3.940
317.785,3.944
318.785,3.949
319.785,3.953
319.807,3.954
320.807,3.959
321.807,3.961
322.807,3.960
323.807,3.958
324.807,3.953
325.807,3.946
326.807,3.937
327.807,3.925
328.807,3.911
329.807,3.895
330.807,3.876
331.807,3.854
332.807,3.830
333.807,3.803
334.807,3.773
335.807,3.741
336.807,3.706
337.807,3.670
338.807,3.633
339.807,3.596
340.807,3.560
341.807,3.526
342.807,3.496
342.979,3.492
343.979,3.457
344.979,3.417
345.979,3.374
346.979,3.330
347.979,3.286
348.979,3.243
349.979,3.201
350.979,3.160
351.979,3.119
352.979,3.078
353.979,3.036
354.979,2.994
355.979,2.949
356.979,2.904
357.979,2.856
358.979,2.807
##END=
