##TITLE=2-(2-pyridinyl)-1H-indene-1,3(2H)-dione
##JCAMP-DX=4.24
##DATA TYPE=UV/VIS SPECTRUM
##ORIGIN=INSTITUTE OF ENERGY PROBLEMS OF CHEMICAL PHYSICS, RAS
##OWNER=INEP CP RAS, NIST OSRD
Collection (C) 2007 copyright by the U.S. Secretary of Commerce
on behalf of the United States of America. All rights reserved.
##CAS REGISTRY NO=641-63-4
##MOLFORM=C14H9NO2
##MP=287
##SOURCE REFERENCE=RAS UV No. 23461
##$NIST SQUIB=1975NEI/KAT435
##$NIST SOURCE=TYUGLMTE
##SPECTROMETER/DATA SYSTEM=unknown
##XUNITS=Wavelength (nm)
##YUNITS=Logarithm epsilon
##XFACTOR=1.0
##YFACTOR=1.0
##FIRSTX=277.757
##LASTX=441.441
##FIRSTY=3.844
##MAXX=441.441
##MINX=277.757
##MAXY=4.358
##MINY=3.033
##NPOINTS=329
##$REF AUTHOR=Neiland, O.Ya.; Katsen, Ya.Ya.
##$REF JOURNAL=Khin. Geterosikl. Soedin.
##$REF PAGE=435
##$REF DATE=1975
##XYPOINTS=(XY..XY)
277.757,3.844
278.257,3.867
278.757,3.886
279.257,3.904
279.757,3.920
280.257,3.934
280.757,3.949
281.257,3.963
281.757,3.978
282.257,3.993
282.757,4.008
283.257,4.025
283.757,4.042
284.257,4.060
284.757,4.078
285.257,4.096
285.757,4.115
286.257,4.134
286.757,4.153
287.257,4.171
287.757,4.188
288.257,4.205
288.757,4.221
289.257,4.236
289.757,4.250
290.257,4.263
290.662,4.275
291.162,4.284
291.662,4.295
292.162,4.308
292.662,4.321
293.162,4.332
293.662,4.341
294.162,4.347
294.662,4.348
295.162,4.346
295.662,4.339
296.162,4.329
296.662,4.314
297.162,4.297
297.662,4.277
298.162,4.256
298.662,4.236
298.921,4.227
299.421,4.202
299.921,4.175
300.421,4.148
300.921,4.121
301.421,4.095
301.921,4.071
302.421,4.048
302.921,4.028
303.421,4.010
303.921,3.995
304.421,3.983
304.921,3.973
305.421,3.966
305.921,3.960
306.670,3.953
307.187,3.953
307.681,3.953
308.181,3.956
308.681,3.960
309.181,3.965
309.681,3.969
310.181,3.971
310.681,3.970
311.181,3.966
311.681,3.959
312.181,3.948
312.681,3.935
313.181,3.920
313.681,3.904
314.391,3.885
314.891,3.869
315.391,3.854
315.891,3.842
316.391,3.832
316.891,3.825
317.391,3.822
317.891,3.823
318.391,3.826
318.891,3.833
319.391,3.841
319.979,3.853
320.570,3.860
321.070,3.868
321.570,3.874
322.070,3.877
322.570,3.878
323.070,3.876
323.570,3.872
324.070,3.866
324.570,3.857
325.070,3.845
325.570,3.831
326.070,3.816
326.570,3.798
327.070,3.778
327.570,3.756
327.571,3.756
328.071,3.734
328.571,3.714
329.071,3.695
329.571,3.676
330.071,3.657
330.571,3.637
331.071,3.617
331.571,3.597
332.201,3.575
332.701,3.553
333.201,3.537
333.701,3.525
334.201,3.518
334.701,3.513
335.201,3.512
335.701,3.512
336.201,3.514
336.701,3.517
337.201,3.522
337.701,3.527
338.201,3.533
338.701,3.539
339.201,3.547
339.701,3.555
340.201,3.563
340.701,3.573
341.201,3.583
341.701,3.594
342.201,3.605
342.701,3.618
343.201,3.631
343.701,3.646
344.201,3.660
344.701,3.676
345.201,3.692
345.638,3.706
346.138,3.721
346.638,3.735
347.138,3.749
347.638,3.762
348.138,3.775
348.638,3.788
349.138,3.801
349.638,3.813
350.138,3.825
350.638,3.836
351.138,3.848
351.638,3.859
352.138,3.871
352.638,3.882
353.138,3.893
353.638,3.904
354.138,3.914
354.638,3.925
355.138,3.936
355.638,3.947
356.138,3.957
356.638,3.968
357.138,3.978
357.638,3.989
358.138,3.999
358.638,4.009
359.138,4.019
359.638,4.030
360.138,4.040
360.638,4.050
361.138,4.060
361.638,4.070
362.138,4.079
362.638,4.089
363.138,4.099
363.638,4.108
364.138,4.117
364.638,4.126
365.138,4.135
365.638,4.144
366.138,4.153
366.638,4.162
367.138,4.170
367.638,4.178
368.138,4.186
368.638,4.194
369.138,4.202
369.638,4.209
370.138,4.216
370.638,4.224
371.138,4.230
371.638,4.237
372.138,4.244
372.638,4.250
373.138,4.257
373.638,4.263
374.138,4.269
374.638,4.275
375.138,4.281
375.638,4.287
376.138,4.292
376.634,4.298
377.002,4.304
377.611,4.309
378.111,4.315
378.611,4.321
379.111,4.326
379.611,4.331
380.111,4.335
380.611,4.339
381.111,4.343
381.611,4.346
382.111,4.349
382.611,4.351
383.111,4.353
383.611,4.355
384.111,4.356
384.611,4.357
385.111,4.358
385.611,4.358
386.111,4.358
386.611,4.358
387.111,4.357
387.611,4.357
388.111,4.356
388.611,4.355
389.111,4.353
389.611,4.352
390.111,4.350
390.611,4.348
391.111,4.346
391.611,4.344
392.111,4.341
392.611,4.339
393.111,4.336
393.611,4.333
394.111,4.330
394.611,4.327
395.111,4.323
395.611,4.320
396.111,4.316
396.611,4.312
397.111,4.309
397.611,4.304
398.111,4.300
398.611,4.296
399.111,4.291
399.611,4.287
400.111,4.282
400.611,4.277
401.111,4.272
401.611,4.266
402.111,4.261
402.611,4.255
403.111,4.249
403.611,4.242
404.111,4.236
404.611,4.229
405.111,4.222
405.611,4.214
406.111,4.206
406.611,4.198
407.067,4.194
407.567,4.183
408.067,4.172
408.567,4.162
409.067,4.152
409.567,4.142
410.067,4.132
410.567,4.123
411.067,4.113
411.567,4.103
412.067,4.093
412.567,4.082
413.067,4.071
413.567,4.060
414.067,4.049
414.567,4.037
415.067,4.025
415.567,4.012
416.067,3.999
416.567,3.985
417.067,3.971
417.567,3.957
418.067,3.942
418.567,3.926
419.067,3.911
419.567,3.894
420.067,3.878
420.567,3.861
421.067,3.843
421.567,3.825
422.067,3.807
422.567,3.788
423.067,3.768
423.567,3.748
424.067,3.727
424.567,3.706
425.067,3.684
425.567,3.661
426.067,3.637
426.567,3.612
426.941,3.593
427.441,3.568
427.941,3.543
428.441,3.520
428.941,3.498
429.441,3.476
429.941,3.455
430.441,3.434
430.941,3.414
431.441,3.394
431.941,3.374
432.441,3.355
432.941,3.336
433.441,3.317
433.941,3.298
434.441,3.280
434.941,3.261
435.441,3.243
435.941,3.224
436.441,3.206
436.941,3.188
437.441,3.170
437.941,3.153
438.441,3.135
438.941,3.118
439.441,3.100
439.941,3.083
440.441,3.067
440.941,3.050
441.441,3.033
##END=
