##TITLE=9-Anthraldehyde
##JCAMP-DX=4.24
##DATA TYPE=UV/VIS SPECTRUM
##ORIGIN=INSTITUTE OF ENERGY PROBLEMS OF CHEMICAL PHYSICS, RAS
##OWNER=INEP CP RAS, NIST OSRD
Collection (C) 2007 copyright by the U.S. Secretary of Commerce
on behalf of the United States of America. All rights reserved.
##CAS REGISTRY NO=642-31-9
##MOLFORM=C15H10O
##SOURCE REFERENCE=RAS UV No. 3914
##$NIST SQUIB=1954MET/DAT615-621
##$NIST SOURCE=TSGMTE
##SPECTROMETER/DATA SYSTEM=n.i.g.
##XUNITS=Wavelength (nm)
##YUNITS=Logarithm epsilon
##XFACTOR=1.000000
##YFACTOR=1.000000
##FIRSTX=247.2871
##LASTX=448.1383
##FIRSTY=4.84802
##MAXX=448.138
##MINX=247.287
##MAXY=5.4573
##MINY=2.59025
##NPOINTS=468
##$REF AUTHOR=Metayer, M.; Dat-Xuong, N.
##$REF TITLE=Etude sur l'amminolyse de quelques aldehydes aromatiques
##$REF JOURNAL=Bull. Soc. Chim. Fr.
##$REF VOLUME=21
##$REF PAGE=615-621
##$REF DATE=1954
##XYPOINTS=(XY..XY)
247.2871,4.848016
247.3934,4.853695
247.5180,4.859371
247.6517,4.865045
248.5896,4.900283
248.7484,4.902483
249.0593,4.902844
249.7889,4.901675
250.4175,4.967511
250.6425,4.969970
251.0328,5.006477
251.2207,4.970278
251.3849,5.016571
251.7459,5.026574
252.1249,5.036391
252.6479,4.968699
252.9226,5.104230
253.2101,5.096045
253.6175,5.088198
253.9050,5.080013
254.7158,5.134005
254.7207,5.136432
254.7255,5.138769
254.7298,5.140924
254.7298,5.140924
254.9482,5.140881
255.1850,5.140835
255.4309,5.140786
255.4309,5.140786
255.4449,5.147690
255.4587,5.154504
255.4722,5.161136
256.9149,5.201160
257.0351,5.213743
257.1211,5.302910
257.1277,5.306166
257.1343,5.309422
257.1409,5.312678
257.1735,5.226233
257.3207,5.238539
258.0763,5.265262
258.5299,5.265173
258.9836,5.265083
259.3853,5.320785
259.4373,5.264994
259.4429,5.328103
259.5097,5.335418
259.5948,5.342730
259.9042,5.332490
259.9428,5.330432
259.9904,5.328281
260.0559,5.325946
262.5157,5.440280
262.6509,5.445953
262.7862,5.451627
262.9215,5.457300
265.6022,5.436413
265.9337,5.436348
266.2743,5.436280
266.6061,5.422779
266.6152,5.427256
266.6242,5.431733
266.6333,5.436210
266.6333,5.436210
267.1835,5.361590
267.3600,5.367256
267.5365,5.372921
267.7130,5.378587
267.7130,5.378587
267.8640,5.371635
271.8957,4.816286
271.9064,4.740145
271.9064,4.740145
272.0355,4.294971
272.1315,4.423736
272.1925,4.290974
272.2677,4.674113
272.3492,4.286887
272.5241,4.291738
273.1015,4.291624
273.1023,4.230957
273.1393,4.228100
273.1854,4.225240
273.2499,4.222378
273.6789,4.291510
274.2563,4.291396
274.4236,4.027930
274.5107,4.024128
274.5400,4.085317
274.5751,4.081525
274.6157,4.020141
274.6189,4.077550
274.6810,4.073481
274.7297,4.016062
275.4035,3.941418
275.6936,3.942055
275.9834,3.942510
276.2729,3.942876
277.7444,3.813922
277.9628,3.813879
278.1996,3.813832
278.4117,3.797097
278.4232,3.802780
278.4346,3.808372
278.4455,3.813784
278.4455,3.813784
279.9863,3.739376
280.3178,3.739311
280.6584,3.739244
281.0174,3.739173
284.9016,3.619922
285.2331,3.619857
285.5737,3.619789
285.9327,3.619719
285.9327,3.619719
285.9697,3.616861
286.0158,3.614002
286.0803,3.611139
288.3091,3.562564
288.3701,3.560199
288.6218,3.563769
289.1297,3.507525
289.4872,3.505932
289.5760,3.564847
289.6948,3.502830
289.9307,3.495560
290.0371,3.446272
290.2448,3.446231
290.4617,3.446188
290.6837,3.439630
290.6885,3.441951
290.6928,3.444092
290.6969,3.446142
290.6969,3.446142
291.2958,3.395536
291.3871,3.393874
291.4967,3.392118
291.6150,3.390180
293.7571,3.266387
294.2516,3.265354
294.4648,3.269504
294.4745,3.274268
294.4838,3.278850
294.4929,3.283342
294.7550,3.264139
295.2765,3.262830
295.2765,3.262830
295.3208,3.258327
295.3833,3.253731
295.4546,3.248951
297.0367,3.194893
297.3673,3.194406
297.4417,3.211507
297.5287,3.207705
297.6337,3.203718
297.7069,3.193826
297.7477,3.199639
298.0644,3.193062
298.0644,3.193062
298.0851,3.203237
298.1509,3.188973
298.2557,3.184881
298.3696,3.180787
298.5420,3.204775
298.9990,3.206314
299.4560,3.207852
300.3394,3.134796
300.3394,3.134796
300.4670,3.136686
300.5520,3.131904
300.5942,3.138395
300.7213,3.140014
300.7830,3.129008
301.0232,3.126111
304.0479,3.091719
304.4661,3.085469
305.1614,3.080159
306.7295,3.071239
310.8331,3.060250
310.8422,3.064727
310.8512,3.069204
310.8603,3.073681
310.8603,3.073681
311.1630,3.060185
311.6214,3.062417
311.9155,3.071784
312.0794,3.064468
312.5372,3.066428
312.8093,3.071728
313.9601,3.076326
316.5724,3.103090
317.0677,3.108451
317.3936,3.116199
317.8295,3.132972
318.1190,3.112964
318.3374,3.112921
318.5742,3.112874
318.8201,3.112826
319.6029,3.173338
319.7719,3.174511
319.9498,3.175592
320.1457,3.176488
320.1457,3.176488
320.3007,3.171557
320.4556,3.166535
320.6101,3.161332
320.6406,3.176391
320.9260,3.174706
321.0225,3.181608
321.1205,3.183218
321.1429,3.159598
321.1627,3.250798
321.2114,3.173021
321.2368,3.184823
321.3623,3.186427
321.3782,3.161075
321.4699,3.164118
321.4968,3.171336
321.4968,3.171336
321.8290,3.247816
322.5137,3.244831
323.0385,3.341632
323.2075,3.241844
323.2182,3.247135
323.3220,3.251593
323.4441,3.256048
323.4831,3.337065
323.5754,3.260501
323.9276,3.332499
324.3450,3.314501
324.3541,3.318978
324.3632,3.323455
324.3722,3.327932
324.3722,3.327932
324.7368,3.324603
324.9956,3.324130
325.2726,3.323562
325.3447,3.380264
325.5584,3.322812
325.8577,3.386798
326.0955,3.393296
326.2620,3.405327
326.5581,3.388575
326.7237,3.388120
326.8984,3.387573
327.0910,3.386841
327.7055,3.445758
327.9402,3.453735
328.1928,3.461526
328.4545,3.469226
329.5886,3.519897
329.8079,3.525539
330.0361,3.531089
330.2823,3.536454
334.1551,3.676160
334.2143,3.678998
334.2919,3.681833
334.3786,3.684666
340.5815,3.793375
341.3343,3.798399
342.0868,3.803242
342.8391,3.807995
346.8363,3.846293
346.8931,3.847910
346.9682,3.849524
347.0525,3.851136
355.3718,3.950802
355.4791,3.957778
355.5876,3.944938
356.1390,3.937289
360.8440,3.978705
361.3462,3.981441
361.8573,3.984085
362.3864,3.986544
363.8365,4.030231
364.0550,4.030188
364.2917,4.030141
364.5377,4.030093
364.5377,4.030093
364.5473,4.034856
364.5566,4.039439
364.5657,4.043931
366.3870,4.087545
366.9836,4.092388
367.2490,4.096664
367.4106,4.104036
369.2459,4.154569
369.4101,4.154115
369.5740,4.153570
369.7376,4.152843
374.4145,4.160064
374.4145,4.160064
374.5638,4.167393
374.7430,4.171369
374.9125,4.160764
375.1057,4.175399
375.3241,4.175356
375.4195,4.161373
375.5609,4.175309
375.8068,4.175261
375.8405,4.170775
375.8834,4.166288
375.9446,4.161797
380.8689,4.148610
380.9040,4.144819
380.9479,4.140844
381.0099,4.136775
381.5634,4.145216
381.5706,4.148759
381.5774,4.152120
381.5840,4.155391
387.6879,4.133828
387.6929,4.136255
387.6976,4.138592
387.7020,4.140747
398.7822,4.192712
398.7869,4.195034
398.7912,4.197174
398.7954,4.199224
413.9462,4.061056
414.4440,4.061652
414.9507,4.062064
415.3245,4.069334
415.4755,4.062383
415.4755,4.062383
415.5231,4.059523
415.5443,4.069985
415.5892,4.056660
415.6643,4.053795
415.7822,4.070450
416.0289,4.070824
418.3459,4.033315
418.5600,4.031116
418.7920,4.028733
419.0330,4.026258
423.0269,3.981496
423.0269,3.981496
423.0360,3.985973
423.0451,3.990450
423.0542,3.994927
423.4835,3.982099
423.5604,3.994405
423.9489,3.982520
424.0849,3.993788
424.4325,3.982847
424.4824,3.986381
424.5412,3.989732
424.6181,3.992989
429.0145,3.882188
429.0194,3.884615
429.0242,3.886952
429.0285,3.889107
430.0637,3.809506
430.1147,3.813553
430.1746,3.817507
430.2526,3.821277
432.7279,3.699047
432.7649,3.696189
432.8111,3.693330
432.8756,3.690467
433.9586,3.614114
433.9676,3.618591
433.9767,3.623068
433.9858,3.627545
434.8527,3.546349
434.8527,3.546349
434.8599,3.549892
434.8667,3.553253
434.8733,3.556524
435.1842,3.546284
435.5248,3.546216
435.8631,3.535971
435.8703,3.539513
435.8771,3.542875
435.8838,3.546146
435.8838,3.546146
436.4067,3.478454
436.4139,3.481996
436.4207,3.485358
436.4273,3.488629
437.3214,3.420863
437.5399,3.420820
437.7766,3.420774
438.0085,3.413806
438.0135,3.416233
438.0182,3.418570
438.0226,3.420725
438.0226,3.420725
438.5447,3.352626
438.7631,3.352583
438.9999,3.352536
439.2326,3.345976
439.2373,3.348297
439.2416,3.350438
439.2458,3.352488
439.2458,3.352488
439.8446,3.301881
439.9444,3.269696
439.9796,3.293063
440.1147,3.279811
440.9037,3.152651
441.0753,3.237307
441.2212,3.227898
441.3670,3.218400
441.4340,3.088622
441.4545,3.153764
441.5124,3.208719
441.5776,3.159440
441.5825,3.161867
441.5872,3.164204
441.5916,3.166359
441.6525,3.088579
441.8892,3.088533
441.9974,3.020515
442.0237,3.154873
442.1352,3.088484
442.1352,3.088484
442.1418,3.091740
442.1484,3.094996
442.1550,3.098252
442.3289,3.020450
442.4132,3.144210
442.4641,3.148257
442.5241,3.152211
442.6021,3.155981
442.6021,3.155981
442.6695,3.020383
442.7266,3.034215
442.8122,3.029704
442.8709,2.942575
442.9159,3.025099
443.0285,3.020312
443.0285,3.020312
443.3246,2.942486
443.3724,3.027166
443.4108,3.025002
443.4580,3.022655
443.5234,3.020214
443.5926,2.972970
443.7782,2.942396
443.7904,2.962752
444.0066,2.952530
444.2319,2.942306
444.2319,2.942306
444.4249,2.874680
444.4321,2.878222
444.4389,2.881583
444.4455,2.884855
444.7961,2.874606
444.8728,2.749593
445.1300,2.875762
445.3264,2.749503
445.4731,2.876916
445.7801,2.749414
445.8346,2.878066
446.2131,2.739149
446.2203,2.742692
446.2271,2.746053
446.2338,2.749324
446.2338,2.749324
446.9357,2.668160
447.3215,2.669291
447.6442,2.590253
447.6557,2.595936
447.6671,2.601528
447.6780,2.606940
447.7255,2.670327
448.1383,2.671180
##END=
