##TITLE=2-Methylbiphenyl
##JCAMP-DX=4.24
##DATA TYPE=UV/VIS SPECTRUM
##ORIGIN=INSTITUTE OF ENERGY PROBLEMS OF CHEMICAL PHYSICS, RAS
##OWNER=INEP CP RAS, NIST OSRD
Collection (C) 2007 copyright by the U.S. Secretary of Commerce
on behalf of the United States of America. All rights reserved.
##CAS REGISTRY NO=643-58-3
##MOLFORM=C13H12
##MP=-0.2
##BP=255.5
##SOURCE REFERENCE=RAS UV No. 660
##$NIST SQUIB=1948FRI/ORC199-204
##$NIST SOURCE=TSGMTE
##SPECTROMETER/DATA SYSTEM=Beckman spectrophotometer
##XUNITS=Wavelength (nm)
##YUNITS=Logarithm epsilon
##XFACTOR=1.000000
##YFACTOR=1.000000
##FIRSTX=207.9002
##LASTX=309.7426
##FIRSTY=4.46685
##MAXX=309.743
##MINX=207.9
##MAXY=4.46685
##MINY=2.60856
##NPOINTS=280
##$REF AUTHOR=Friedel, R.A.; Orchin, M.; Reggel, L.
##$REF TITLE=Steric hindrance and short wave length bands in the ultraviolet spectra of some naphthalene and diphenyl derivatives
##$REF JOURNAL=J. Am. Chem. Soc.
##$REF VOLUME=70
##$REF PAGE=199-204
##$REF DATE=1948
##XYPOINTS=(XY..XY)
207.9002,4.466853
208.2839,4.462497
208.2890,4.466654
209.6211,4.450090
210.0099,4.449891
210.9495,4.445630
211.3383,4.445431
211.5373,4.441548
211.7173,4.437295
211.7224,4.441453
212.8559,4.429150
213.2396,4.424794
213.2447,4.428952
213.4387,4.420910
213.4433,4.424690
214.5722,4.408607
214.9513,4.400471
216.0704,4.376451
216.0751,4.380231
216.2509,4.372577
216.2556,4.376357
216.4495,4.368316
216.4546,4.372473
216.6300,4.364441
217.5640,4.340516
217.5687,4.344296
217.7441,4.336264
217.7492,4.340422
217.9385,4.328601
217.9431,4.332380
218.6684,4.304401
218.8674,4.300517
218.8720,4.304297
219.2419,4.288602
219.2465,4.292382
220.1476,4.256749
220.1574,4.264686
220.3416,4.248707
220.3513,4.256645
221.2659,4.216844
221.2756,4.224782
221.4418,4.209191
221.4510,4.216750
222.1856,4.181202
222.1953,4.189139
222.3614,4.173548
222.3661,4.177328
222.5600,4.169287
222.8969,4.141884
223.0909,4.133843
223.0955,4.137622
223.6167,4.094241
223.6310,4.105958
224.3424,4.066640
224.3470,4.070419
224.5410,4.062378
225.0816,4.034871
225.0862,4.038651
225.2570,4.026840
225.2667,4.034777
226.0013,3.999229
226.1767,3.991197
226.1813,3.994977
226.3706,3.983156
226.3803,3.991093
226.5511,3.979282
227.1056,3.963114
227.1107,3.967272
227.3000,3.955451
227.3046,3.959230
228.0350,3.935409
228.0396,3.939188
228.2340,3.931525
228.4141,3.927273
228.4192,3.931431
228.7885,3.915358
228.8029,3.927075
228.9690,3.911483
229.5332,3.903253
229.7369,3.903149
229.9174,3.899275
231.4490,3.894333
231.4541,3.898490
231.8429,3.898292
232.8149,3.905360
233.0051,3.909423
233.0097,3.913203
234.2002,3.932262
234.3853,3.932167
234.5751,3.935852
235.3670,3.947172
235.7655,3.954911
235.9507,3.954817
236.7426,3.966137
236.9324,3.969822
236.9375,3.973979
237.1226,3.973885
239.2948,4.007949
239.4799,4.007855
239.4846,4.011634
239.6697,4.011540
240.6565,4.030703
240.8602,4.030599
240.8653,4.034756
241.0504,4.034662
242.2172,4.049573
242.2219,4.053352
242.4255,4.053248
242.4306,4.057406
243.5928,4.068537
243.9816,4.068338
244.1714,4.072024
245.7132,4.075397
246.1020,4.075198
249.1605,4.061534
249.3595,4.057651
249.5446,4.057556
249.7437,4.053673
250.6920,4.041464
250.8772,4.041370
251.2563,4.033234
253.8783,3.980838
254.0773,3.976954
254.0819,3.980734
254.2527,3.968922
254.2578,3.973080
255.3719,3.944902
255.3765,3.948682
255.7417,3.929207
255.7510,3.936767
257.9888,3.873220
257.9888,3.873220
257.9935,3.877000
258.9131,3.841358
259.0839,3.829546
259.0932,3.837105
259.8231,3.797778
259.8324,3.805337
259.9985,3.789746
260.0082,3.797683
260.9228,3.757883
260.9325,3.765820
261.6435,3.726124
261.8328,3.714303
261.8425,3.722241
262.0082,3.706272
262.0133,3.710429
262.5488,3.678765
262.5534,3.682545
262.7478,3.674881
262.7524,3.678661
262.9279,3.670629
263.4731,3.646902
263.6670,3.638861
263.6721,3.643018
264.3974,3.615039
264.5913,3.606998
264.5964,3.611156
264.7765,3.606903
264.9570,3.603029
265.7105,3.582978
265.8956,3.582883
266.0947,3.579000
266.2798,3.578905
266.4603,3.575031
268.0058,3.566300
268.0058,3.566300
268.0104,3.570080
268.1909,3.566205
268.1955,3.569985
268.5843,3.569787
269.9271,3.577043
270.1354,3.580719
270.5242,3.580521
271.8715,3.591557
271.8812,3.599494
276.5866,3.659874
276.5866,3.659874
276.5912,3.663654
277.9437,3.678848
278.1520,3.682524
278.3371,3.682429
278.3417,3.686209
279.7076,3.697236
279.8978,3.701299
280.1015,3.701195
281.4489,3.712232
281.6571,3.715908
282.0459,3.715709
283.3840,3.719186
283.9580,3.718893
285.1193,3.714140
285.5081,3.713942
286.8313,3.705324
287.0350,3.705220
287.2155,3.701346
287.4006,3.701251
287.5997,3.697368
288.7378,3.688844
289.1169,3.680709
290.6202,3.652710
290.6249,3.656490
290.8003,3.648458
290.8054,3.652616
290.9993,3.644575
293.0284,3.576975
293.0381,3.584912
294.1235,3.533300
294.1332,3.541238
294.3225,3.529417
294.3272,3.533197
294.5026,3.525165
295.0478,3.501438
295.2468,3.497554
295.2515,3.501334
295.4269,3.493302
296.1661,3.461534
296.1758,3.469471
296.5271,3.453785
297.0908,3.430049
297.2662,3.422017
297.2709,3.425797
297.4468,3.418143
297.9823,3.386478
297.9869,3.390258
298.1808,3.382217
299.6360,3.314910
299.6411,3.319068
299.8165,3.311036
300.5511,3.275488
300.5557,3.279268
300.7214,3.263298
300.7311,3.271236
301.4559,3.227750
301.4656,3.235688
301.6364,3.223876
302.1576,3.180495
302.1673,3.188432
302.7070,3.145041
302.8778,3.133230
302.8870,3.140789
303.4036,3.093628
303.4133,3.101566
303.6026,3.089745
303.9344,3.058184
304.1284,3.050143
304.1330,3.053923
304.4459,3.006866
304.4602,3.018583
304.7962,2.975296
304.9809,2.959695
304.9953,2.971412
305.5211,2.931810
305.5308,2.939748
305.6965,2.923779
305.7062,2.931716
305.8714,2.900241
305.8765,2.904398
306.0422,2.888429
306.0519,2.896366
306.2176,2.880397
306.2274,2.888335
306.5685,2.849205
306.5777,2.856765
306.7439,2.841174
306.7536,2.849111
307.2882,2.801562
307.2979,2.809500
307.4687,2.797688
308.3305,2.714800
308.3356,2.718957
308.5064,2.707146
308.5110,2.710926
308.8470,2.667639
308.8568,2.675576
309.0461,2.663755
309.5621,2.616216
309.5719,2.624153
309.7380,2.608562
309.7426,2.612342
##END=
