##TITLE=Phthalaldehyde
##JCAMP-DX=4.24
##DATA TYPE=UV/VIS SPECTRUM
##ORIGIN=INSTITUTE OF ENERGY PROBLEMS OF CHEMICAL PHYSICS, RAS
##OWNER=INEP CP RAS, NIST OSRD
Collection (C) 2007 copyright by the U.S. Secretary of Commerce
on behalf of the United States of America. All rights reserved.
##CAS REGISTRY NO=643-79-8
##MOLFORM=C8H6O2
##MP=53-55
##SOURCE REFERENCE=RAS UV No. 19005
##$NIST SQUIB=1975LAN27
##$NIST SOURCE=TYUGLMTE
##SPECTROMETER/DATA SYSTEM=Unicam SP 800
##XUNITS=Wavelength (nm)
##YUNITS=Logarithm epsilon
##XFACTOR=1.0
##YFACTOR=1.0
##FIRSTX=210.64
##LASTX=318.72
##FIRSTY=4.368
##MAXX=318.72
##MINX=210.64
##MAXY=4.485
##MINY=2.027
##NPOINTS=115
##$REF AUTHOR=Lang (editor), L.
##$REF JOURNAL=Absorption Spectra in the Ultraviolet and Visible Region
##$REF VOLUME=20
##$REF PAGE=27
##$REF DATE=1975
##XYPOINTS=(XY..XY)
210.64,4.368
210.81,4.372
210.98,4.375
211.15,4.375
211.32,4.379
211.49,4.382
211.67,4.386
211.84,4.386
212.01,4.389
212.18,4.392
212.35,4.396
212.69,4.403
213.72,4.430
214.75,4.450
215.78,4.478
216.81,4.481
217.84,4.485
218.87,4.478
219.90,4.467
220.93,4.447
221.96,4.409
222.99,4.345
224.02,4.280
225.05,4.208
226.08,4.119
227.11,4.007
228.13,3.938
229.16,3.887
230.19,3.839
231.22,3.795
232.25,3.761
233.28,3.727
234.31,3.696
235.18,3.680
236.37,3.679
237.40,3.693
238.43,3.713
239.46,3.733
240.49,3.754
241.52,3.774
242.55,3.792
243.57,3.809
244.60,3.826
245.63,3.832
246.66,3.846
247.69,3.863
248.72,3.873
249.75,3.877
250.78,3.877
251.81,3.884
252.84,3.891
253.87,3.901
254.90,3.908
255.93,3.908
256.96,3.897
257.99,3.891
259.01,3.873
260.04,3.856
261.07,3.839
262.10,3.822
263.13,3.798
264.16,3.771
265.19,3.737
266.22,3.699
267.25,3.631
268.28,3.573
269.31,3.498
270.34,3.375
271.37,3.228
272.40,3.153
273.43,3.081
274.45,3.030
275.48,3.000
276.51,2.993
277.54,2.996
278.57,3.013
279.60,3.030
280.63,3.047
281.66,3.064
282.69,3.081
283.72,3.102
284.75,3.119
285.78,3.143
286.81,3.163
287.84,3.184
288.87,3.201
289.89,3.218
290.92,3.238
291.95,3.256
292.98,3.273
294.01,3.286
295.04,3.293
296.07,3.303
297.10,3.303
298.13,3.303
299.16,3.290
300.19,3.273
301.22,3.252
302.25,3.232
303.28,3.211
304.30,3.198
305.33,3.198
306.36,3.191
307.39,3.163
308.42,3.126
309.45,3.044
310.48,2.901
311.38,2.763
312.35,2.634
313.58,2.511
314.51,2.412
315.63,2.289
316.66,2.194
317.69,2.091
318.72,2.027
##END=
