##TITLE=7-chlorobenzo[3,4]cyclobuta[1,2]cyclohepten-6-one
##JCAMP-DX=4.24
##DATA TYPE=UV/VIS SPECTRUM
##ORIGIN=INSTITUTE OF ENERGY PROBLEMS OF CHEMICAL PHYSICS, RAS
##OWNER=INEP CP RAS, NIST OSRD
Collection (C) 2007 copyright by the U.S. Secretary of Commerce
on behalf of the United States of America. All rights reserved.
##CAS REGISTRY NO=64605-86-3
##MOLFORM=C13H7ClO
##MP=157-158
##SOURCE REFERENCE=RAS UV No. 22645
##$NIST SQUIB=1977SAT/1282
##$NIST SOURCE=TYUGLMTE
##SPECTROMETER/DATA SYSTEM=unknown
##XUNITS=Wavelength (nm)
##YUNITS=Logarithm epsilon
##XFACTOR=1.0
##YFACTOR=1.0
##FIRSTX=236.326
##LASTX=409.971
##FIRSTY=4.235
##MAXX=409.971
##MINX=236.326
##MAXY=4.677
##MINY=3.35
##NPOINTS=119
##$REF AUTHOR=Sato, M.; et al.
##$REF JOURNAL=J. Chem. Soc.., Perkin Trans. I
##$REF PAGE=1282
##$REF DATE=1977
##XYPOINTS=(XY..XY)
236.326,4.235
237.826,4.244
239.326,4.248
240.826,4.244
242.326,4.232
243.826,4.213
245.326,4.187
246.826,4.156
248.320,4.122
249.820,4.099
251.320,4.072
252.820,4.052
254.320,4.047
255.820,4.054
257.320,4.073
258.820,4.100
260.320,4.138
262.709,4.200
264.209,4.234
265.709,4.268
267.209,4.302
268.709,4.337
270.209,4.373
271.709,4.409
273.209,4.445
274.709,4.481
276.166,4.516
277.666,4.547
279.166,4.577
280.666,4.598
282.166,4.608
283.666,4.606
285.020,4.600
286.520,4.596
288.020,4.610
289.520,4.632
291.020,4.655
292.767,4.677
294.267,4.676
295.767,4.641
297.267,4.594
298.767,4.545
300.267,4.499
301.767,4.452
303.267,4.402
304.767,4.348
304.942,4.340
306.442,4.295
307.942,4.259
309.442,4.226
310.942,4.196
312.442,4.169
313.942,4.147
315.442,4.133
316.942,4.127
318.442,4.126
319.884,4.125
321.384,4.107
322.884,4.075
324.384,4.036
325.884,4.000
327.384,3.974
328.884,3.964
330.384,3.971
331.884,3.992
332.058,3.995
333.558,4.013
335.058,4.015
336.558,4.005
338.058,3.984
339.558,3.958
341.058,3.931
342.558,3.908
344.058,3.896
345.558,3.902
345.617,3.902
347.117,3.927
348.617,3.943
350.117,3.957
351.617,3.969
353.117,3.981
354.617,3.991
356.117,3.998
357.617,4.001
359.117,4.001
360.558,3.998
362.058,4.007
363.558,4.018
365.058,4.030
366.558,4.040
368.058,4.048
369.558,4.051
371.058,4.051
372.558,4.048
374.058,4.040
375.558,4.030
377.058,4.017
378.558,4.002
380.005,3.988
381.505,3.975
383.005,3.956
384.505,3.935
386.005,3.913
387.505,3.892
389.005,3.871
390.505,3.849
392.005,3.823
393.505,3.792
395.005,3.756
396.505,3.715
398.005,3.671
399.505,3.629
400.971,3.584
402.471,3.540
403.971,3.497
405.471,3.456
406.971,3.419
408.471,3.384
409.971,3.350
##END=
