##TITLE=Acetic acid, iodo-
##JCAMP-DX=4.24
##DATA TYPE=UV/VIS SPECTRUM
##ORIGIN=INSTITUTE OF ENERGY PROBLEMS OF CHEMICAL PHYSICS, RAS
##OWNER=INEP CP RAS, NIST OSRD
Collection (C) 2007 copyright by the U.S. Secretary of Commerce
on behalf of the United States of America. All rights reserved.
##CAS REGISTRY NO=64-69-7
##MOLFORM=C2H3IO2
##MP=82.5
##BP=dec
##SOURCE REFERENCE=RAS UV No. 10194
##$NIST SQUIB=1950DUR/JAR1181
##$NIST SOURCE=TYUGLMTE
##SPECTROMETER/DATA SYSTEM=Beckman spectrophotometer
##XUNITS=Wavelength (nm)
##YUNITS=Logarithm epsilon
##XFACTOR=1.0
##YFACTOR=1.0
##FIRSTX=229.52
##LASTX=307.32
##FIRSTY=2.774
##MAXX=307.32
##MINX=229.52
##MAXY=2.774
##MINY=1.908
##NPOINTS=116
##$REF AUTHOR=Durie, R.A.; Jarvie, J.M.S.
##$REF JOURNAL=J. Chem. Soc.
##$REF PAGE=1181
##$REF DATE=1950
##XYPOINTS=(XY..XY)
229.52,2.774
230.19,2.758
230.33,2.757
230.86,2.744
231.54,2.728
232.21,2.716
232.88,2.702
233.55,2.691
234.22,2.682
234.89,2.671
235.56,2.661
236.23,2.654
236.90,2.643
237.57,2.634
238.24,2.626
238.91,2.620
239.58,2.613
240.25,2.608
240.92,2.605
241.59,2.603
242.27,2.601
242.94,2.599
243.61,2.596
244.28,2.595
244.95,2.593
245.62,2.592
246.29,2.590
246.96,2.589
247.63,2.586
248.30,2.583
248.97,2.583
249.64,2.583
250.31,2.581
250.98,2.582
251.65,2.584
252.32,2.586
253.00,2.590
253.67,2.593
254.34,2.599
255.01,2.606
255.68,2.613
256.35,2.617
257.02,2.622
257.69,2.627
258.36,2.632
259.03,2.635
259.70,2.638
260.37,2.640
261.04,2.642
261.71,2.642
262.38,2.644
263.06,2.645
263.73,2.644
264.40,2.644
265.07,2.643
265.74,2.642
266.41,2.638
267.08,2.632
267.75,2.625
268.42,2.618
269.09,2.612
269.76,2.605
270.43,2.597
271.10,2.590
271.77,2.583
272.44,2.575
273.11,2.568
273.79,2.561
274.46,2.553
275.13,2.546
275.80,2.539
276.47,2.529
277.14,2.521
277.81,2.513
278.48,2.504
279.15,2.495
279.82,2.486
280.49,2.479
281.16,2.474
281.83,2.465
282.50,2.456
283.17,2.446
283.85,2.435
284.52,2.425
285.19,2.414
285.86,2.404
286.53,2.393
287.20,2.384
287.87,2.371
288.54,2.361
289.21,2.351
289.88,2.337
290.55,2.325
291.22,2.308
291.89,2.292
292.56,2.284
293.90,2.260
294.58,2.247
295.25,2.230
295.92,2.218
296.59,2.203
297.26,2.188
297.93,2.175
298.60,2.159
299.27,2.142
299.94,2.127
300.61,2.109
301.28,2.095
302.62,2.060
303.29,2.036
303.96,2.020
304.63,1.994
305.31,1.975
305.98,1.953
306.65,1.933
307.32,1.908
##END=
