##TITLE=2-quinoxalinamine-4-oxide
##JCAMP-DX=4.24
##DATA TYPE=UV/VIS SPECTRUM
##ORIGIN=INSTITUTE OF ENERGY PROBLEMS OF CHEMICAL PHYSICS, RAS
##OWNER=INEP CP RAS, NIST OSRD
Collection (C) 2007 copyright by the U.S. Secretary of Commerce
on behalf of the United States of America. All rights reserved.
##CAS REGISTRY NO=6530-47-8
##MOLFORM=C8H7N3O
##BP=278 (dec.)
##SOURCE REFERENCE=RAS UV No. 23727
##$NIST SQUIB=1974DVO/1554
##$NIST SOURCE=TYUGLMTE
##SPECTROMETER/DATA SYSTEM=Hitasci EPS-3
##XUNITS=Wavelength (nm)
##YUNITS=Logarithm epsilon
##XFACTOR=1.0
##YFACTOR=1.0
##FIRSTX=213.179
##LASTX=395.503
##FIRSTY=4.026
##MAXX=395.503
##MINX=213.179
##MAXY=4.363
##MINY=3.17
##NPOINTS=187
##$REF AUTHOR=Dvoryantseva, G.G.; et al.
##$REF JOURNAL=Khim. Geterosikl. Soedin.
##$REF PAGE=1554
##$REF DATE=1974
##XYPOINTS=(XY..XY)
213.179,4.026
214.179,4.047
215.179,4.068
216.179,4.090
217.179,4.112
218.179,4.136
219.179,4.160
220.179,4.186
221.179,4.211
222.179,4.237
223.179,4.262
224.179,4.286
225.179,4.308
226.179,4.328
227.179,4.344
228.179,4.355
229.179,4.362
230.179,4.363
231.179,4.358
232.179,4.347
233.179,4.328
234.163,4.300
235.163,4.278
236.163,4.229
237.163,4.170
237.222,4.169
238.222,4.104
239.222,4.056
240.222,4.023
241.222,4.002
242.222,3.991
243.222,3.988
244.222,3.991
245.222,3.998
246.222,4.007
247.222,4.018
248.222,4.030
249.222,4.042
250.222,4.054
251.222,4.067
252.222,4.080
253.222,4.097
254.087,4.114
255.087,4.131
256.087,4.146
256.112,4.144
257.112,4.157
258.112,4.172
259.112,4.174
260.112,4.157
261.112,4.117
262.112,4.056
263.112,3.980
264.112,3.896
265.112,3.811
266.112,3.735
266.130,3.734
267.130,3.674
268.130,3.638
269.130,3.620
270.130,3.613
271.130,3.614
272.130,3.620
273.130,3.628
274.130,3.638
275.130,3.649
276.130,3.661
277.130,3.674
278.130,3.687
279.130,3.702
280.130,3.718
281.130,3.734
282.130,3.749
283.658,3.771
284.658,3.785
285.658,3.798
286.658,3.810
287.658,3.822
288.658,3.832
289.658,3.841
290.505,3.849
291.505,3.854
292.505,3.860
293.505,3.867
294.505,3.873
295.505,3.880
296.505,3.886
297.505,3.891
298.505,3.896
299.505,3.899
300.505,3.902
301.505,3.904
302.505,3.904
303.505,3.904
304.505,3.903
305.505,3.901
306.505,3.899
307.505,3.896
308.505,3.892
309.505,3.887
310.505,3.882
311.505,3.877
312.505,3.871
313.505,3.865
314.505,3.859
315.505,3.852
316.505,3.844
317.505,3.836
318.505,3.828
319.505,3.819
320.505,3.810
321.505,3.800
322.505,3.789
323.505,3.777
324.505,3.765
325.505,3.752
326.505,3.737
327.505,3.722
328.505,3.706
329.505,3.690
330.505,3.673
331.505,3.655
332.505,3.638
333.505,3.620
334.485,3.601
335.485,3.584
336.485,3.570
337.485,3.559
338.485,3.551
339.485,3.545
340.485,3.542
341.485,3.540
342.485,3.540
343.485,3.542
344.485,3.544
345.485,3.548
346.485,3.553
347.485,3.559
348.485,3.565
349.485,3.571
350.485,3.578
351.485,3.585
352.485,3.592
353.485,3.599
354.485,3.605
355.485,3.612
356.485,3.618
357.485,3.624
358.485,3.629
359.485,3.634
360.485,3.638
361.485,3.641
362.485,3.644
363.485,3.646
364.485,3.648
365.485,3.648
366.485,3.648
367.485,3.648
368.485,3.646
369.485,3.644
370.485,3.641
371.485,3.637
372.485,3.632
373.485,3.627
374.485,3.620
375.485,3.613
376.485,3.605
377.485,3.595
378.485,3.585
379.485,3.573
380.485,3.560
381.485,3.546
382.485,3.530
383.485,3.512
384.485,3.493
384.503,3.493
385.503,3.472
386.503,3.451
387.503,3.431
388.503,3.410
389.503,3.386
390.503,3.360
391.503,3.330
392.503,3.296
393.503,3.258
394.503,3.216
395.503,3.170
##END=
