##TITLE=7-methoxy-1-nitroso-2-naphthalenol
##JCAMP-DX=4.24
##DATA TYPE=UV/VIS SPECTRUM
##ORIGIN=INSTITUTE OF ENERGY PROBLEMS OF CHEMICAL PHYSICS, RAS
##OWNER=INEP CP RAS, NIST OSRD
Collection (C) 2007 copyright by the U.S. Secretary of Commerce
on behalf of the United States of America. All rights reserved.
##CAS REGISTRY NO=65300-88-1
##MOLFORM=C11H9NO3
##MP=126-127
##SOURCE REFERENCE=RAS UV No. 22652
##$NIST SQUIB=1977DUD/2185
##$NIST SOURCE=TYUGLMTE
##SPECTROMETER/DATA SYSTEM=SF-16
##XUNITS=Wavelength (nm)
##YUNITS=Logarithm epsilon
##XFACTOR=1.0
##YFACTOR=1.0
##FIRSTX=221.474
##LASTX=473.071
##FIRSTY=4.207
##MAXX=473.071
##MINX=221.474
##MAXY=4.21
##MINY=3.216
##NPOINTS=138
##$REF AUTHOR=Dudenas, G.; et al.
##$REF JOURNAL=Zhur. Organ. Khim.
##$REF VOLUME=13
##$REF PAGE=2185
##$REF DATE=1977
##XYPOINTS=(XY..XY)
221.474,4.207
223.474,4.194
225.474,4.179
227.474,4.164
229.474,4.148
231.474,4.131
233.474,4.112
235.474,4.088
237.474,4.061
239.474,4.031
241.474,4.001
243.474,3.972
245.474,3.949
247.474,3.935
249.474,3.933
251.474,3.944
253.998,3.966
256.005,3.989
258.013,4.017
260.021,4.046
262.021,4.076
264.021,4.106
266.021,4.136
268.021,4.163
270.021,4.185
272.021,4.200
274.021,4.209
276.021,4.210
278.021,4.203
280.021,4.189
282.021,4.168
284.021,4.142
286.021,4.113
288.021,4.083
289.517,4.059
290.517,4.038
291.517,4.013
292.517,3.986
293.517,3.955
294.517,3.922
295.517,3.886
296.517,3.847
297.517,3.807
298.517,3.766
299.517,3.723
300.517,3.681
301.517,3.638
302.517,3.597
303.517,3.557
304.517,3.520
305.517,3.485
306.517,3.452
307.517,3.422
308.517,3.396
309.517,3.372
310.517,3.350
311.397,3.336
313.397,3.291
315.397,3.258
317.397,3.235
319.397,3.222
321.397,3.216
323.397,3.217
325.397,3.222
327.397,3.230
329.397,3.241
331.397,3.254
333.878,3.270
335.878,3.290
337.878,3.308
339.878,3.325
341.878,3.341
343.878,3.356
345.878,3.370
347.878,3.384
349.878,3.397
351.878,3.409
353.878,3.421
355.878,3.433
357.878,3.443
359.878,3.453
361.878,3.463
363.878,3.471
365.878,3.478
367.878,3.483
369.878,3.487
371.878,3.489
374.015,3.492
376.015,3.497
378.015,3.504
380.015,3.512
382.015,3.519
384.015,3.525
386.015,3.529
388.015,3.530
390.015,3.528
392.015,3.523
394.015,3.514
396.015,3.502
398.580,3.491
400.580,3.488
402.580,3.486
404.580,3.487
406.580,3.490
408.580,3.493
410.580,3.498
412.580,3.503
414.580,3.509
416.580,3.516
418.580,3.523
420.580,3.530
422.580,3.536
424.580,3.543
424.604,3.544
426.604,3.550
428.604,3.556
430.604,3.562
432.604,3.566
434.604,3.568
436.604,3.569
438.604,3.566
441.020,3.556
443.071,3.544
445.071,3.532
447.071,3.524
449.071,3.519
451.071,3.515
453.071,3.511
455.071,3.506
457.071,3.500
459.071,3.492
461.071,3.482
463.071,3.469
465.071,3.455
467.071,3.439
469.071,3.423
471.071,3.408
473.071,3.394
##END=
