##TITLE=(E)-3-(2-cyano-4-methoxyphenyl)-2-propenoic acid, methyl ester
##JCAMP-DX=4.24
##DATA TYPE=UV/VIS SPECTRUM
##ORIGIN=INSTITUTE OF ENERGY PROBLEMS OF CHEMICAL PHYSICS, RAS
##OWNER=INEP CP RAS, NIST OSRD
Collection (C) 2007 copyright by the U.S. Secretary of Commerce
on behalf of the United States of America. All rights reserved.
##CAS REGISTRY NO=65300-93-8
##MOLFORM=C12H11NO3
##MP=154.5-155.5
##SOURCE REFERENCE=RAS UV No. 22658
##$NIST SQUIB=1977DUD/2185
##$NIST SOURCE=TYUGLMTE
##SPECTROMETER/DATA SYSTEM=SF-16
##XUNITS=Wavelength (nm)
##YUNITS=Logarithm epsilon
##XFACTOR=1.0
##YFACTOR=1.0
##FIRSTX=202.318
##LASTX=333.783
##FIRSTY=4.049
##MAXX=333.783
##MINX=202.318
##MAXY=4.322
##MINY=2.94
##NPOINTS=136
##$REF AUTHOR=Dudenas, G.; et al.
##$REF JOURNAL=Zhur. Organ. Khim.
##$REF VOLUME=13
##$REF PAGE=2185
##$REF DATE=1977
##XYPOINTS=(XY..XY)
202.318,4.049
203.318,4.070
204.318,4.088
205.318,4.106
206.318,4.123
207.318,4.139
208.318,4.155
209.318,4.170
210.318,4.184
211.318,4.197
212.318,4.209
213.318,4.220
214.318,4.230
215.318,4.237
216.318,4.242
217.318,4.245
218.318,4.245
219.318,4.242
220.318,4.235
221.318,4.225
222.318,4.210
223.318,4.192
224.318,4.169
224.607,4.160
225.607,4.134
226.607,4.096
227.607,4.048
228.607,3.990
229.607,3.923
230.607,3.851
231.607,3.779
232.607,3.708
233.607,3.645
234.607,3.591
235.607,3.551
236.607,3.525
237.815,3.519
238.815,3.515
239.815,3.518
240.815,3.527
241.815,3.541
242.815,3.559
243.815,3.582
244.815,3.608
245.815,3.636
246.815,3.667
247.815,3.699
248.547,3.718
249.547,3.757
250.547,3.792
251.547,3.822
252.547,3.849
253.547,3.874
254.547,3.897
255.547,3.920
256.547,3.942
257.547,3.965
258.547,3.988
259.547,4.011
260.547,4.035
261.547,4.058
262.547,4.082
263.547,4.105
264.547,4.128
265.547,4.150
266.547,4.170
267.547,4.189
268.547,4.206
269.547,4.220
270.547,4.233
271.547,4.244
272.547,4.255
273.313,4.266
274.313,4.274
275.313,4.282
276.313,4.290
277.313,4.298
278.313,4.305
279.313,4.311
280.313,4.316
281.313,4.319
282.313,4.322
283.313,4.322
284.313,4.322
285.313,4.320
286.313,4.316
287.313,4.312
288.313,4.306
289.313,4.299
290.313,4.292
291.313,4.284
292.313,4.275
293.313,4.266
294.313,4.256
295.313,4.247
296.313,4.237
297.313,4.228
298.313,4.219
299.313,4.210
300.313,4.200
301.313,4.191
301.381,4.195
302.381,4.180
303.381,4.167
304.381,4.155
305.381,4.145
306.381,4.134
307.381,4.122
308.381,4.108
309.381,4.092
310.381,4.073
311.381,4.051
312.381,4.025
313.381,3.995
314.381,3.960
315.381,3.920
316.381,3.875
317.381,3.824
318.381,3.767
319.381,3.704
320.381,3.635
321.381,3.559
321.400,3.561
322.400,3.480
323.400,3.415
324.400,3.359
325.400,3.309
326.400,3.262
327.400,3.214
328.400,3.165
329.400,3.115
330.400,3.065
331.400,3.017
332.400,2.976
333.400,2.947
333.783,2.940
##END=
