##TITLE=(E)-3-(2-cyano-4-methoxyphenyl)-2-propenoic acid
##JCAMP-DX=4.24
##DATA TYPE=UV/VIS SPECTRUM
##ORIGIN=INSTITUTE OF ENERGY PROBLEMS OF CHEMICAL PHYSICS, RAS
##OWNER=INEP CP RAS, NIST OSRD
Collection (C) 2007 copyright by the U.S. Secretary of Commerce
on behalf of the United States of America. All rights reserved.
##CAS REGISTRY NO=65300-91-6
##MOLFORM=C11H9NO3
##MP=274-275
##SOURCE REFERENCE=RAS UV No. 22655
##$NIST SQUIB=1977DUD/2185
##$NIST SOURCE=TYUGLMTE
##SPECTROMETER/DATA SYSTEM=SF-16
##XUNITS=Wavelength (nm)
##YUNITS=Logarithm epsilon
##XFACTOR=1.0
##YFACTOR=1.0
##FIRSTX=201.447
##LASTX=345.395
##FIRSTY=4.157
##MAXX=345.395
##MINX=201.447
##MAXY=4.166
##MINY=2.498
##NPOINTS=148
##$REF AUTHOR=Dudenas, G.; et al.
##$REF JOURNAL=Zhur. Organ. Khim.
##$REF VOLUME=13
##$REF PAGE=2185
##$REF DATE=1977
##XYPOINTS=(XY..XY)
201.447,4.157
201.674,4.157
202.674,4.156
203.674,4.153
204.674,4.148
205.674,4.142
206.674,4.137
207.674,4.134
208.674,4.133
209.674,4.136
210.674,4.142
211.674,4.149
212.674,4.157
213.674,4.163
214.674,4.166
215.674,4.165
216.674,4.158
217.674,4.149
218.674,4.139
218.719,4.142
219.719,4.130
220.719,4.124
221.719,4.121
222.719,4.122
223.719,4.125
224.719,4.130
225.719,4.136
226.719,4.143
227.719,4.149
228.719,4.155
229.719,4.159
230.719,4.161
231.719,4.161
232.719,4.159
233.719,4.154
234.719,4.147
235.719,4.136
236.719,4.123
237.719,4.107
238.718,4.084
239.718,4.076
240.718,4.047
241.718,4.004
242.718,3.950
243.718,3.890
244.718,3.826
245.718,3.762
246.718,3.701
247.718,3.645
248.718,3.595
249.718,3.554
250.718,3.522
251.718,3.501
252.718,3.489
253.718,3.488
254.718,3.496
255.535,3.505
256.535,3.526
257.535,3.548
258.535,3.571
259.535,3.595
260.535,3.620
261.535,3.646
262.535,3.671
263.535,3.698
264.535,3.724
265.535,3.750
266.535,3.777
267.535,3.804
268.535,3.830
269.535,3.857
270.535,3.884
271.535,3.910
272.535,3.935
273.535,3.960
274.535,3.983
275.535,4.004
276.535,4.023
277.352,4.037
278.352,4.046
279.352,4.055
280.352,4.062
281.352,4.069
282.352,4.077
283.352,4.084
284.352,4.090
285.352,4.096
286.352,4.101
287.352,4.105
288.352,4.108
289.352,4.109
290.352,4.108
291.352,4.105
292.352,4.101
293.352,4.095
294.352,4.089
295.352,4.081
296.352,4.074
297.352,4.066
298.352,4.059
299.352,4.052
300.352,4.045
301.352,4.038
301.442,4.033
302.442,4.030
303.442,4.024
304.442,4.017
305.442,4.008
306.442,3.997
307.442,3.986
308.442,3.974
309.442,3.962
310.442,3.950
311.442,3.938
312.442,3.926
313.442,3.914
314.442,3.903
315.442,3.892
316.442,3.881
317.442,3.870
318.442,3.859
319.442,3.848
320.442,3.837
321.442,3.825
322.442,3.812
323.442,3.798
324.442,3.782
325.442,3.765
326.442,3.744
327.442,3.721
328.442,3.694
329.442,3.662
330.442,3.626
331.442,3.585
332.442,3.537
333.442,3.482
334.395,3.415
335.395,3.365
336.395,3.293
337.395,3.205
338.395,3.110
339.395,3.012
340.395,2.916
341.395,2.824
342.395,2.737
343.395,2.655
344.395,2.577
345.395,2.498
##END=
