##TITLE=Benzamide, 2-hydroxy-
##JCAMP-DX=4.24
##DATA TYPE=UV/VIS SPECTRUM
##ORIGIN=INSTITUTE OF ENERGY PROBLEMS OF CHEMICAL PHYSICS, RAS
##OWNER=INEP CP RAS, NIST OSRD
Collection (C) 2007 copyright by the U.S. Secretary of Commerce
on behalf of the United States of America. All rights reserved.
##CAS REGISTRY NO=65-45-2
##MOLFORM=C7H7NO2
##MP=140
##SOURCE REFERENCE=RAS UV No. 16932
##$NIST SQUIB=1974NUH/STR689
##$NIST SOURCE=TYUGLMTE
##SPECTROMETER/DATA SYSTEM=SF-8
##XUNITS=Wavelength (nm)
##YUNITS=Logarithm epsilon
##XFACTOR=1.0
##YFACTOR=1.0
##FIRSTX=239.61
##LASTX=330.65
##FIRSTY=3.836
##MAXX=330.65
##MINX=239.61
##MAXY=3.836
##MINY=2.682
##NPOINTS=112
##$REF AUTHOR=Nuhn, P.; Strecker, M.
##$REF JOURNAL=Die Pharmazine
##$REF VOLUME=29
##$REF PAGE=689
##$REF DATE=1974
##XYPOINTS=(XY..XY)
239.61,3.836
239.78,3.835
239.95,3.835
240.12,3.835
240.45,3.828
241.30,3.815
242.14,3.798
242.98,3.778
243.82,3.749
244.67,3.706
245.51,3.662
246.35,3.624
247.20,3.589
248.04,3.554
248.88,3.508
249.72,3.470
250.57,3.430
251.41,3.383
252.25,3.328
253.10,3.276
253.94,3.219
254.78,3.144
255.62,3.067
256.47,2.982
257.31,2.935
258.15,2.900
259.00,2.870
259.84,2.839
260.68,2.816
261.53,2.803
262.37,2.798
263.21,2.796
264.05,2.801
264.90,2.815
265.74,2.831
266.58,2.853
267.43,2.871
268.27,2.903
269.11,2.936
269.95,2.968
270.80,3.003
271.64,3.027
272.48,3.055
273.33,3.084
274.17,3.114
275.01,3.142
275.86,3.169
276.70,3.192
277.54,3.217
278.38,3.241
279.23,3.268
280.07,3.293
280.91,3.316
281.76,3.340
282.60,3.356
283.44,3.378
284.28,3.400
285.13,3.420
285.97,3.437
286.81,3.453
287.66,3.473
288.50,3.487
289.34,3.498
290.18,3.512
291.03,3.522
291.87,3.534
292.71,3.544
293.56,3.552
294.40,3.560
295.24,3.567
296.09,3.572
296.93,3.575
297.77,3.579
298.61,3.580
299.46,3.579
300.30,3.577
301.14,3.574
301.99,3.567
302.83,3.559
303.67,3.549
304.51,3.535
305.36,3.518
306.20,3.500
307.04,3.482
307.89,3.463
308.73,3.442
309.57,3.420
310.41,3.400
311.26,3.378
312.10,3.355
312.94,3.324
313.79,3.299
314.63,3.274
315.47,3.249
316.32,3.219
317.16,3.191
318.00,3.156
318.84,3.124
319.69,3.095
320.53,3.065
321.37,3.033
322.22,2.997
323.06,2.960
323.90,2.928
324.74,2.896
325.59,2.864
326.43,2.824
327.27,2.786
328.12,2.754
328.96,2.724
329.80,2.692
330.65,2.682
##END=
