##TITLE=Thymine
##JCAMP-DX=4.24
##DATA TYPE=UV/VIS SPECTRUM
##ORIGIN=INSTITUTE OF ENERGY PROBLEMS OF CHEMICAL PHYSICS, RAS
##OWNER=INEP CP RAS, NIST OSRD
Collection (C) 2007 copyright by the U.S. Secretary of Commerce
on behalf of the United States of America. All rights reserved.
##CAS REGISTRY NO=65-71-4
##MOLFORM=C5H6N2O2
##MP=316
##SOURCE REFERENCE=RAS UV No. 11048
##$NIST SQUIB=1948WIL1157
##$NIST SOURCE=TYUGLMTE
##SPECTROMETER/DATA SYSTEM=n.i.g.
##XUNITS=Wavelength (nm)
##YUNITS=Logarithm epsilon
##XFACTOR=1.0
##YFACTOR=1.0
##FIRSTX=224.3
##LASTX=294.49
##FIRSTY=3.551
##MAXX=294.49
##MINX=224.3
##MAXY=3.904
##MINY=2.924
##NPOINTS=105
##$REF AUTHOR=Wilson, W.
##$REF JOURNAL=J. Chem. Soc.
##$REF PAGE=1157
##$REF DATE=1948
##XYPOINTS=(XY..XY)
224.30,3.551
224.59,3.530
224.99,3.503
225.33,3.486
225.68,3.476
226.08,3.457
227.05,3.423
227.74,3.401
228.43,3.377
228.95,3.363
229.81,3.345
230.38,3.336
231.18,3.325
231.87,3.318
232.50,3.319
233.30,3.331
233.94,3.345
234.62,3.358
235.31,3.377
236.00,3.389
236.69,3.407
237.38,3.418
238.06,3.434
238.75,3.445
239.44,3.460
240.13,3.475
240.82,3.490
241.51,3.504
242.14,3.514
242.88,3.530
243.57,3.547
244.26,3.559
244.95,3.571
245.63,3.586
246.32,3.609
247.01,3.626
247.70,3.640
248.39,3.656
249.08,3.669
249.76,3.684
250.45,3.696
251.14,3.710
251.83,3.724
252.51,3.738
253.20,3.751
253.89,3.764
254.58,3.776
255.27,3.788
255.96,3.805
256.65,3.818
257.33,3.829
258.02,3.842
258.71,3.852
259.40,3.862
260.09,3.874
260.77,3.882
261.46,3.891
262.15,3.898
262.84,3.902
263.53,3.904
264.22,3.904
264.90,3.904
265.59,3.902
266.28,3.893
266.97,3.884
267.66,3.868
268.34,3.858
269.03,3.846
269.72,3.825
270.41,3.805
271.10,3.781
271.78,3.761
272.47,3.733
273.16,3.710
273.85,3.684
274.54,3.656
275.23,3.633
275.91,3.609
276.60,3.583
277.29,3.555
277.98,3.534
278.83,3.504
279.52,3.482
280.04,3.465
280.73,3.440
281.42,3.418
282.10,3.395
282.80,3.371
283.48,3.339
284.17,3.311
284.86,3.282
285.55,3.258
286.06,3.240
286.81,3.218
287.38,3.196
288.30,3.159
288.99,3.128
289.56,3.106
290.37,3.070
290.82,3.052
291.45,3.032
292.25,3.003
292.88,2.979
293.81,2.941
294.49,2.924
##END=
