##TITLE=Benzoic Acid
##JCAMP-DX=4.24
##DATA TYPE=UV/VIS SPECTRUM
##ORIGIN=INSTITUTE OF ENERGY PROBLEMS OF CHEMICAL PHYSICS, RAS
##OWNER=INEP CP RAS, NIST OSRD
Collection (C) 2007 copyright by the U.S. Secretary of Commerce
on behalf of the United States of America. All rights reserved.
##CAS REGISTRY NO=65-85-0
##MOLFORM=C7H6O2
##MP=122.4
##BP=249.2
##SOURCE REFERENCE=RAS UV No. 221
##$NIST SQUIB=1951NEW/DEN3651-3653
##$NIST SOURCE=TSGMTE
##SPECTROMETER/DATA SYSTEM=Beckman spectrophotometer
##XUNITS=Wavelength (nm)
##YUNITS=Logarithm epsilon
##XFACTOR=1.000000
##YFACTOR=1.000000
##FIRSTX=210.7999
##LASTX=291.7723
##FIRSTY=3.87657
##MAXX=291.772
##MINX=210.8
##MAXY=3.99351
##MINY=2.04277
##NPOINTS=153
##$REF AUTHOR=Newman, M.S.; Deno, N.C.
##$REF TITLE=Behavior of organic compounds in 100% sulfuric acid
##$REF JOURNAL=J. Am. Chem. Soc.
##$REF VOLUME=73
##$REF PAGE=3651-3653
##$REF DATE=1951
##XYPOINTS=(XY..XY)
210.7999,3.876569
211.7584,3.899440
212.8221,3.924344
214.0357,3.949507
215.4440,3.973155
217.0918,3.993512
217.0918,3.993512
218.9901,3.992584
220.8882,3.991514
222.7863,3.990374
222.7863,3.990374
223.9461,3.972370
225.0158,3.952770
225.9970,3.931894
226.8913,3.910062
227.7002,3.887595
228.4255,3.864812
229.0687,3.842033
229.6315,3.819580
229.8607,3.766510
229.9028,3.768318
229.9531,3.769984
230.0202,3.771578
230.0202,3.771578
230.1154,3.797772
230.3265,3.772170
230.5222,3.776929
230.6411,3.772691
230.9723,3.773068
230.9723,3.773068
231.1933,3.761828
231.5044,3.745129
231.8931,3.724020
232.3475,3.699554
232.8551,3.672779
233.4038,3.644748
233.9814,3.616511
234.5756,3.589118
235.1741,3.563621
235.7649,3.541069
236.3355,3.522514
236.8739,3.509007
237.3677,3.501598
237.3677,3.501598
237.7987,3.482580
238.2530,3.463291
238.7278,3.443749
239.2199,3.423975
239.7262,3.403987
240.2437,3.383805
240.7694,3.363449
241.3002,3.342937
241.8330,3.322290
242.3647,3.301525
242.8925,3.280664
243.4131,3.259724
243.9235,3.238727
244.4207,3.217689
244.9016,3.196632
245.3631,3.175575
245.8023,3.154537
246.2160,3.133536
246.6012,3.112594
246.9548,3.091728
247.2738,3.070959
247.5552,3.050305
247.7958,3.029786
249.4043,2.911697
249.5269,2.917405
249.6494,2.923114
249.7719,2.928822
249.7719,2.928822
249.9881,2.961467
250.0125,2.929739
250.0858,2.935464
250.2699,2.930583
250.5355,2.931285
250.5355,2.931285
250.7723,2.921552
251.0714,2.909099
251.4405,2.894565
251.8870,2.878592
252.4186,2.861822
253.0429,2.844895
253.7673,2.828453
254.5996,2.813136
255.5473,2.799586
256.6179,2.788444
257.8190,2.780351
259.1582,2.775948
260.6431,2.775876
262.2813,2.780776
264.0803,2.791290
264.0803,2.791290
264.6728,2.805483
265.3490,2.819174
266.3430,2.830783
266.3430,2.830783
267.4264,2.852535
268.5143,2.869918
269.6022,2.883203
270.6858,2.892660
271.7605,2.898560
272.8220,2.901172
273.8658,2.900769
274.8876,2.897619
275.8830,2.891993
276.8474,2.884163
277.7766,2.874397
278.6660,2.862967
279.5114,2.850143
280.3081,2.836196
281.0520,2.821396
281.7384,2.806013
282.3631,2.790318
282.9215,2.774581
283.4094,2.759073
283.4094,2.759073
283.6852,2.738780
283.9574,2.718472
284.2259,2.698147
284.4910,2.677808
284.7529,2.657455
285.0116,2.637088
285.2672,2.616708
285.5201,2.596315
285.7701,2.575910
286.0176,2.555493
286.2626,2.535065
286.5053,2.514626
286.7458,2.494178
286.9843,2.473719
287.2210,2.453251
287.4558,2.432775
287.6891,2.412291
287.9209,2.391799
288.1513,2.371300
288.3806,2.350794
288.6088,2.330282
288.8361,2.309765
289.0627,2.289243
289.2886,2.268716
289.5140,2.248185
289.7391,2.227650
289.9640,2.207113
290.1888,2.186573
290.4137,2.166031
290.6388,2.145488
290.8642,2.124944
291.0901,2.104400
291.3167,2.083855
291.5441,2.063311
291.7723,2.042768
##END=
