##TITLE=alpha-amino-2-oxo-(2H-1-benzopyran)-3-propanoic acid
##JCAMP-DX=4.24
##DATA TYPE=UV/VIS SPECTRUM
##ORIGIN=INSTITUTE OF ENERGY PROBLEMS OF CHEMICAL PHYSICS, RAS
##OWNER=INEP CP RAS, NIST OSRD
Collection (C) 2007 copyright by the U.S. Secretary of Commerce
on behalf of the United States of America. All rights reserved.
##CAS REGISTRY NO=66127-87-5
##MOLFORM=C12H11NO4
##MP=243-244(hydrochloride)
##SOURCE REFERENCE=RAS UV No. 22575
##$NIST SQUIB=1977BEL/2536
##$NIST SOURCE=TYUGLMTE
##SPECTROMETER/DATA SYSTEM=Hitachi EPS-3
##XUNITS=Wavelength (nm)
##YUNITS=Logarithm epsilon
##XFACTOR=1.0
##YFACTOR=1.0
##FIRSTX=222.267
##LASTX=349.313
##FIRSTY=3.9
##MAXX=349.313
##MINX=222.267
##MAXY=4
##MINY=2.488
##NPOINTS=87
##$REF AUTHOR=Belokon, Yu.N.; et al.
##$REF JOURNAL=Izvest. Akad. Nauk SSSR,ser. khim.
##$REF PAGE=2536
##$REF DATE=1977
##XYPOINTS=(XY..XY)
222.267,3.900
223.767,3.873
225.267,3.844
226.767,3.810
228.267,3.771
229.767,3.728
231.267,3.681
232.767,3.633
234.267,3.586
235.767,3.540
237.267,3.499
238.767,3.462
240.267,3.430
241.767,3.404
243.267,3.383
244.767,3.368
246.267,3.357
247.767,3.349
249.267,3.346
250.767,3.348
252.267,3.358
253.805,3.384
255.162,3.421
256.662,3.469
258.162,3.517
259.662,3.563
261.162,3.608
262.662,3.651
264.162,3.694
265.662,3.734
267.162,3.774
268.662,3.812
270.162,3.848
271.662,3.882
273.162,3.913
274.662,3.940
276.162,3.962
277.662,3.980
279.162,3.992
280.662,3.999
282.162,4.000
283.372,4.000
284.872,3.995
286.372,3.992
287.872,3.989
289.372,3.984
290.872,3.975
292.372,3.962
293.872,3.944
295.372,3.923
296.872,3.899
298.372,3.874
299.872,3.850
301.372,3.828
302.872,3.812
304.232,3.804
305.732,3.804
307.232,3.803
308.732,3.802
310.232,3.802
311.732,3.802
313.232,3.801
314.732,3.800
316.232,3.797
317.732,3.793
319.232,3.786
320.732,3.777
322.232,3.763
323.732,3.745
325.232,3.723
326.732,3.695
328.232,3.663
329.732,3.625
331.232,3.582
332.732,3.534
334.232,3.479
335.732,3.419
337.232,3.351
337.313,3.350
338.813,3.265
340.313,3.189
341.813,3.102
343.313,2.996
344.813,2.872
346.313,2.740
347.813,2.609
349.313,2.488
##END=
