##TITLE=N-(1H-perimidin-2-yl)acetamide
##JCAMP-DX=4.24
##DATA TYPE=UV/VIS SPECTRUM
##ORIGIN=INSTITUTE OF ENERGY PROBLEMS OF CHEMICAL PHYSICS, RAS
##OWNER=INEP CP RAS, NIST OSRD
Collection (C) 2007 copyright by the U.S. Secretary of Commerce
on behalf of the United States of America. All rights reserved.
##CAS REGISTRY NO=66336-14-9
##MOLFORM=C13H11N3O
##MP=219-221
##SOURCE REFERENCE=RAS UV No. 22338
##$NIST SQUIB=1978LOP/843
##$NIST SOURCE=TYUGLMTE
##SPECTROMETER/DATA SYSTEM=Specord UV-Vis
##XUNITS=Wavelength (nm)
##YUNITS=Logarithm epsilon
##XFACTOR=1.0
##YFACTOR=1.0
##FIRSTX=205.459
##LASTX=392.876
##FIRSTY=4.376
##MAXX=392.876
##MINX=205.459
##MAXY=4.635
##MINY=3.15
##NPOINTS=159
##$REF AUTHOR=Lopatin, B.V.; et al.
##$REF JOURNAL=Khim. Geterosikl. Soedin.
##$REF PAGE=843
##$REF DATE=1978
##XYPOINTS=(XY..XY)
205.459,4.376
206.659,4.377
207.859,4.382
209.059,4.389
210.259,4.398
211.459,4.407
212.659,4.416
213.859,4.426
215.059,4.435
216.259,4.445
217.459,4.456
218.659,4.468
219.859,4.480
221.059,4.495
222.259,4.510
223.459,4.527
224.659,4.545
225.859,4.563
227.059,4.581
228.259,4.598
229.459,4.613
230.659,4.625
231.859,4.633
233.059,4.635
234.259,4.630
235.459,4.617
236.659,4.595
237.357,4.573
238.213,4.554
238.225,4.554
239.425,4.522
240.625,4.479
241.825,4.424
243.025,4.359
244.225,4.287
245.425,4.214
246.625,4.144
247.825,4.083
249.025,4.036
250.225,4.004
251.425,3.985
252.625,3.976
253.825,3.964
254.984,3.950
256.484,3.930
257.610,3.909
258.986,3.885
260.736,3.854
262.237,3.824
263.524,3.793
265.012,3.749
266.239,3.704
267.240,3.649
268.240,3.588
268.991,3.533
269.991,3.478
270.775,3.447
271.492,3.420
272.692,3.386
273.892,3.358
275.092,3.337
276.292,3.322
277.492,3.313
278.692,3.309
279.892,3.310
281.092,3.316
282.292,3.326
283.492,3.340
284.692,3.357
285.892,3.377
287.092,3.400
288.292,3.424
289.492,3.451
290.692,3.479
291.892,3.509
293.092,3.538
294.292,3.569
295.492,3.598
296.692,3.628
298.005,3.655
299.205,3.688
300.405,3.718
301.605,3.746
302.805,3.773
304.005,3.797
305.205,3.821
306.405,3.844
307.605,3.867
308.805,3.889
310.005,3.911
311.205,3.932
312.405,3.952
313.605,3.972
314.805,3.992
316.005,4.010
317.205,4.028
318.405,4.044
319.605,4.059
320.805,4.072
322.005,4.083
323.205,4.092
324.405,4.098
325.605,4.103
326.805,4.104
328.005,4.102
329.205,4.098
330.405,4.090
331.605,4.080
332.805,4.066
334.005,4.049
335.205,4.030
336.405,4.008
337.605,3.984
338.805,3.958
340.005,3.930
341.280,3.901
342.476,3.875
343.676,3.852
344.876,3.826
346.076,3.800
347.276,3.772
348.476,3.743
349.676,3.714
350.876,3.685
352.076,3.656
353.276,3.628
354.476,3.600
355.676,3.574
356.876,3.548
358.076,3.523
359.276,3.500
360.476,3.478
361.676,3.457
362.876,3.437
364.076,3.419
365.276,3.402
366.476,3.386
367.676,3.371
368.876,3.356
370.076,3.343
371.276,3.331
372.476,3.319
373.676,3.308
374.876,3.298
376.076,3.287
377.276,3.277
378.476,3.268
379.676,3.258
380.876,3.248
382.076,3.238
383.276,3.229
384.476,3.219
385.676,3.209
386.876,3.199
388.076,3.188
389.276,3.178
390.476,3.168
391.676,3.159
392.876,3.150
##END=
