##TITLE=1-Naphthalenecarboxaldehyde
##JCAMP-DX=4.24
##DATA TYPE=UV/VIS SPECTRUM
##ORIGIN=INSTITUTE OF ENERGY PROBLEMS OF CHEMICAL PHYSICS, RAS
##OWNER=INEP CP RAS, NIST OSRD
Collection (C) 2007 copyright by the U.S. Secretary of Commerce
on behalf of the United States of America. All rights reserved.
##CAS REGISTRY NO=66-77-3
##MOLFORM=C11H8O
##MP=33.5
##BP=292
##SOURCE REFERENCE=RAS UV No. 6710
##$NIST SQUIB=1969GRA248-251
##$NIST SOURCE=TSGMTE
##SPECTROMETER/DATA SYSTEM=n.i.g.
##XUNITS=Wavelength (nm)
##YUNITS=Logarithm epsilon
##XFACTOR=1.000000
##YFACTOR=1.000000
##FIRSTX=375.9228
##LASTX=205.9652
##FIRSTY=1.57024
##MAXX=375.923
##MINX=205.965
##MAXY=4.63273
##MINY=1.57024
##NPOINTS=215
##$REF AUTHOR=Grammaticakis, P.
##$REF TITLE=Remarques sur la preparation et l'absorption dans l'ultraviolet moyen des naphtalenealdehydes-1 et -2 et de leurs derives fonctionnels azotes
##$REF JOURNAL=C.R. Acad. Sci. Paris, Ser. C
##$REF VOLUME=269
##$REF PAGE=248-251
##$REF DATE=1969
##XYPOINTS=(XY..XY)
375.9228,1.570236
375.3377,1.617301
374.8410,1.654211
374.4155,1.684652
374.0439,1.712311
373.7093,1.740873
373.3947,1.774025
373.3947,1.774025
373.0035,1.798379
372.6187,1.819802
372.1928,1.840892
371.6788,1.864239
371.0302,1.892437
370.2016,1.928083
369.1487,1.973769
367.8289,2.032087
366.2023,2.105634
366.2023,2.105634
365.0476,2.146728
364.1797,2.188557
363.4498,2.230420
362.7122,2.271614
361.8234,2.311439
360.6432,2.349194
360.6432,2.349194
359.8078,2.402204
358.8655,2.445086
358.1622,2.465728
358.1622,2.465728
357.6244,2.498620
357.0753,2.531512
356.5154,2.564403
355.9448,2.597289
355.3641,2.630170
354.7735,2.663043
354.1734,2.695907
353.5642,2.728759
352.9461,2.761599
352.3195,2.794423
351.6849,2.827231
351.0424,2.860020
350.3925,2.892788
349.7354,2.925534
349.0715,2.958256
348.4012,2.990952
347.7247,3.023619
347.0424,3.056257
346.3545,3.088863
345.6615,3.121436
344.9635,3.153973
344.2610,3.186474
343.5541,3.218935
342.8433,3.251355
342.1287,3.283732
341.4108,3.316064
340.6896,3.348350
339.9657,3.380588
339.2391,3.412775
338.5103,3.444910
337.7794,3.476992
337.0468,3.509017
336.3127,3.540985
335.5773,3.572894
334.8409,3.604741
334.1038,3.636524
334.1038,3.636524
333.0465,3.672567
331.8812,3.710357
330.5242,3.746960
328.8947,3.779439
326.9167,3.804858
326.9167,3.804858
325.0126,3.804108
323.1306,3.803135
321.2704,3.802051
321.2704,3.802051
319.3583,3.821217
316.8345,3.839435
314.1127,3.851607
311.5821,3.852638
309.6081,3.837432
309.6081,3.837432
307.1382,3.825267
304.8290,3.805034
302.6090,3.781754
300.4106,3.760443
298.1701,3.746120
298.1701,3.746120
296.1984,3.715120
294.2525,3.683980
292.3321,3.652745
290.4367,3.621463
290.4367,3.621463
287.7155,3.562559
286.4481,3.533233
285.7476,3.519520
285.7476,3.519520
285.6335,3.508220
285.4525,3.501588
285.0499,3.493940
285.0499,3.493940
284.5181,3.484965
283.4156,3.462337
281.9175,3.429956
280.1960,3.391724
278.4175,3.351541
276.7403,3.313309
275.3154,3.280929
274.2885,3.258301
273.8035,3.249327
273.8035,3.249327
272.2345,3.210445
270.9787,3.179118
269.9408,3.153266
269.0299,3.130810
268.1582,3.109671
267.2399,3.087770
266.1919,3.063028
264.9338,3.033365
263.3891,2.996702
263.3891,2.996702
261.7378,2.989947
260.6578,3.008936
259.8373,3.045969
259.8373,3.045969
259.5842,3.080696
259.3064,3.115537
259.0121,3.150464
258.7094,3.185444
258.4065,3.220446
258.1113,3.255440
257.8316,3.290394
257.5754,3.325278
257.3504,3.360061
257.1644,3.394712
257.0252,3.429200
257.0252,3.429200
256.8026,3.448399
256.4283,3.492281
255.9794,3.548506
255.5320,3.604731
255.1614,3.648613
254.9420,3.667812
254.9420,3.667812
254.8746,3.679821
254.8024,3.691829
254.7207,3.703837
254.2668,3.719316
254.0534,3.756142
253.7922,3.792780
253.4929,3.829259
253.1652,3.865606
252.8188,3.901850
252.4632,3.938017
252.1078,3.974136
251.7621,4.010235
251.4351,4.046341
251.1361,4.082483
251.1361,4.082483
250.7781,4.094466
250.4165,4.106448
250.0467,4.118429
250.0467,4.118429
249.7265,4.154185
249.1509,4.186691
248.6281,4.219424
248.6281,4.219424
247.5658,4.233795
246.1118,4.245255
244.4288,4.253094
242.6732,4.256597
240.9932,4.255052
239.5292,4.247747
238.4154,4.233968
238.4154,4.233968
236.9508,4.225136
235.6505,4.216490
234.4693,4.209554
233.3642,4.205859
232.2941,4.206929
231.2191,4.214293
230.1012,4.229477
228.9034,4.254008
228.9034,4.254008
227.7971,4.263666
226.6581,4.282095
225.5447,4.306643
224.5128,4.334661
223.6164,4.363501
222.9082,4.390511
222.9082,4.390511
222.2286,4.395792
221.5459,4.400850
220.8638,4.405796
220.8638,4.405796
220.0532,4.426199
219.0565,4.448762
217.9594,4.472720
216.8453,4.497309
215.7939,4.521762
214.8822,4.545317
214.1848,4.567207
213.7752,4.586669
213.7752,4.586669
212.5770,4.611410
211.6570,4.626762
210.9073,4.632730
210.2240,4.629318
209.5060,4.616531
208.6554,4.594374
207.5775,4.562851
207.5775,4.562851
207.1831,4.542941
206.6766,4.525019
205.9652,4.513077
##END=
