##TITLE=trans-4,5-dihydroxy-4,5-dihydrobenzo[e]pyrene
##JCAMP-DX=4.24
##DATA TYPE=UV/VIS SPECTRUM
##ORIGIN=INSTITUTE OF ENERGY PROBLEMS OF CHEMICAL PHYSICS, RAS
##OWNER=INEP CP RAS, NIST OSRD
Collection (C) 2007 copyright by the U.S. Secretary of Commerce
on behalf of the United States of America. All rights reserved.
##CAS REGISTRY NO=66788-09-8
##MOLFORM=C20H14O2
##MP=> 185 dec.
##SOURCE REFERENCE=RAS UV No. 22122
##$NIST SQUIB=1978LEH/3462
##$NIST SOURCE=TYUGLMTE
##SPECTROMETER/DATA SYSTEM=Cary 16
##XUNITS=Wavelength (nm)
##YUNITS=Logarithm epsilon
##XFACTOR=1.0
##YFACTOR=1.0
##FIRSTX=201.902
##LASTX=300.01
##FIRSTY=4.285
##MAXX=300.01
##MINX=201.902
##MAXY=4.89
##MINY=3.681
##NPOINTS=86
##$REF AUTHOR=Lehr, R.E.; et al.
##$REF JOURNAL=J. Org. Chem.
##$REF VOLUME=43
##$REF PAGE=3462
##$REF DATE=1978
##XYPOINTS=(XY..XY)
201.902,4.285
203.102,4.269
204.302,4.256
205.502,4.243
206.702,4.231
207.902,4.218
209.102,4.206
210.302,4.193
211.502,4.181
212.702,4.169
213.902,4.158
215.102,4.149
216.302,4.143
217.502,4.140
218.702,4.140
219.902,4.145
221.102,4.154
222.302,4.167
223.502,4.185
224.702,4.206
225.902,4.230
227.102,4.257
228.302,4.285
229.502,4.313
230.702,4.341
231.902,4.366
233.102,4.389
234.302,4.408
235.502,4.425
236.452,4.444
237.541,4.461
238.942,4.478
240.142,4.496
241.342,4.516
242.542,4.531
243.742,4.548
244.942,4.569
246.142,4.595
247.342,4.626
248.542,4.659
249.742,4.693
250.942,4.725
252.142,4.752
253.342,4.774
254.542,4.791
255.905,4.806
257.105,4.825
258.305,4.850
259.505,4.875
260.705,4.890
261.905,4.888
263.105,4.862
264.305,4.802
264.309,4.800
265.509,4.678
266.709,4.573
267.909,4.484
269.109,4.412
270.309,4.355
271.509,4.314
272.709,4.290
273.909,4.282
274.581,4.280
275.781,4.274
276.981,4.257
278.181,4.232
279.381,4.203
280.581,4.175
281.781,4.153
282.395,4.145
283.530,4.150
284.341,4.169
285.541,4.165
286.741,4.141
287.941,4.103
289.141,4.056
289.210,4.053
290.410,4.003
291.610,3.959
292.810,3.919
294.010,3.881
295.210,3.843
296.410,3.805
297.610,3.766
298.810,3.724
300.010,3.681
##END=
