##TITLE=2-Naphthaldehyde
##JCAMP-DX=4.24
##DATA TYPE=UV/VIS SPECTRUM
##ORIGIN=INSTITUTE OF ENERGY PROBLEMS OF CHEMICAL PHYSICS, RAS
##OWNER=INEP CP RAS, NIST OSRD
Collection (C) 2007 copyright by the U.S. Secretary of Commerce
on behalf of the United States of America. All rights reserved.
##CAS REGISTRY NO=66-99-9
##MOLFORM=C11H8O
##MP=208.5
##SOURCE REFERENCE=RAS UV No. 6711
##$NIST SQUIB=1969GRA248-251
##$NIST SOURCE=TSGMTE
##SPECTROMETER/DATA SYSTEM=Uvispec spectrophotometer
##XUNITS=Wavelength (nm)
##YUNITS=Logarithm epsilon
##XFACTOR=1.000000
##YFACTOR=1.000000
##FIRSTX=374.2038
##LASTX=211.1389
##FIRSTY=1.56403
##MAXX=374.204
##MINX=211.139
##MAXY=4.61907
##MINY=1.56403
##NPOINTS=218
##$REF AUTHOR=Grammaticakis, P.
##$REF TITLE=Remarques sur la preparation et l'absorption dans l'ultraviolet moyen des naphtalenealdehydes-1 et -2 et de leurs derives fonctionnels azotes
##$REF JOURNAL=C.R. Acad. Sci. Paris, Ser. C
##$REF VOLUME=269
##$REF PAGE=248-251
##$REF DATE=1969
##XYPOINTS=(XY..XY)
374.2038,1.564030
372.0842,1.632125
371.5226,1.701943
371.0986,1.753259
370.7759,1.789894
370.5184,1.815671
370.2905,1.834409
370.0566,1.849931
369.7813,1.866057
369.2763,1.892157
369.0280,1.957843
368.8309,2.002601
368.6171,2.037429
368.3195,2.073325
367.8711,2.121288
367.8711,2.121288
367.2019,2.157656
366.3933,2.220552
365.7294,2.256920
365.7294,2.256920
364.8687,2.323089
364.0896,2.382396
363.3838,2.435485
362.7432,2.482999
362.1599,2.525583
361.6261,2.563882
361.1342,2.598540
360.6766,2.630200
360.2460,2.659508
359.8349,2.687106
359.4362,2.713640
359.0426,2.739754
358.6470,2.766093
358.2423,2.793299
357.8216,2.822018
357.3777,2.852894
356.9040,2.886570
356.9040,2.886570
356.3020,2.908040
355.5924,2.943265
354.9948,2.964735
354.9948,2.964735
353.8101,3.029609
353.0280,3.071185
352.5027,3.104983
352.0917,3.146518
352.0917,3.146518
351.2898,3.160157
349.9579,3.189226
347.7189,3.232045
347.7189,3.232045
345.5607,3.244394
344.1719,3.250009
342.3569,3.253702
339.9494,3.263585
336.2637,3.246827
332.5461,3.228240
328.8442,3.215798
328.8442,3.215798
327.1067,3.196265
325.2151,3.172418
324.0161,3.143635
324.0161,3.143635
322.4719,3.122505
321.4730,3.111976
320.1607,3.103021
320.1607,3.103021
320.1259,3.096957
320.0760,3.090888
320.0185,3.084816
320.0185,3.084816
318.7713,3.078588
317.3043,3.067014
315.3754,3.059535
314.8457,3.061874
314.3402,3.064576
313.8222,3.067049
313.2988,3.069407
313.2988,3.069407
311.8244,3.105603
310.7229,3.134035
309.6480,3.164241
308.2636,3.205759
306.2468,3.268129
306.2468,3.268129
305.6541,3.307676
304.6847,3.345981
303.4646,3.383404
302.1179,3.420309
300.7649,3.457057
299.5220,3.494010
298.5016,3.531530
298.5016,3.531530
298.3360,3.560482
298.0682,3.594999
297.6991,3.633608
297.2298,3.674836
296.6617,3.717209
295.9962,3.759254
295.2349,3.799499
294.3798,3.836470
293.4327,3.868693
292.3958,3.894696
291.2715,3.913006
291.2715,3.913006
289.6796,3.912696
288.3525,3.910134
286.4136,3.907984
286.4136,3.907984
285.1735,3.926630
283.9441,3.945275
282.7252,3.963921
282.7252,3.963921
282.0405,3.962095
281.3593,3.960157
280.6816,3.957995
280.6816,3.957995
279.0963,3.928553
277.5289,3.899111
275.9789,3.869669
274.4461,3.840227
272.9303,3.810785
272.9303,3.810785
272.5124,3.809061
272.0905,3.807222
271.6593,3.805154
271.6593,3.805154
270.6705,3.779987
269.5521,3.750415
268.3190,3.719204
266.9860,3.689122
265.5677,3.662936
264.0783,3.643414
262.5316,3.633321
262.5316,3.633321
261.3971,3.653489
260.7289,3.666827
260.2522,3.671518
260.2522,3.671518
260.0529,3.686146
259.5226,3.715973
258.7393,3.763732
257.7815,3.832157
257.7815,3.832157
257.6663,3.836618
257.5464,3.840965
257.4171,3.845082
257.4171,3.845082
257.2460,3.883467
257.0706,3.921838
256.8898,3.960181
256.7023,3.998485
256.5071,4.036735
256.3029,4.074921
256.0887,4.113028
255.8633,4.151044
255.6256,4.188956
255.3745,4.226752
255.1090,4.264419
254.8279,4.301944
254.5302,4.339314
254.2149,4.376517
254.2149,4.376517
253.6665,4.417006
253.0806,4.458733
252.4308,4.500158
251.6913,4.539741
250.8371,4.575943
249.2921,4.611410
249.1626,4.611339
249.0242,4.611263
248.8813,4.611184
248.5462,4.619068
248.5462,4.619068
248.5252,4.613004
248.4951,4.606935
248.4605,4.600863
246.9789,4.610171
245.6534,4.591470
244.3057,4.571992
242.6835,4.560762
242.6835,4.560762
241.9517,4.549800
241.2348,4.541533
240.8018,4.520319
240.8018,4.520319
240.1937,4.507854
239.5801,4.495384
238.9655,4.482911
238.9655,4.482911
238.2755,4.461013
237.4406,4.434425
236.4882,4.404590
235.4456,4.372950
234.3394,4.340949
233.1953,4.310029
232.0381,4.281634
230.8920,4.257206
229.7797,4.238188
228.7235,4.226022
227.7447,4.222153
227.7447,4.222153
226.9965,4.236769
226.2495,4.251271
225.5001,4.265544
225.5001,4.265544
224.0433,4.263865
222.3307,4.249106
221.0705,4.225681
221.0705,4.225681
219.9465,4.213367
218.7259,4.204381
217.4421,4.198129
216.1267,4.194017
214.8104,4.191454
213.5220,4.189846
212.2894,4.188599
211.1389,4.187120
##END=
