##TITLE=4-amino-1,5-dihydro-6,7-pteridinedione
##JCAMP-DX=4.24
##DATA TYPE=UV/VIS SPECTRUM
##ORIGIN=INSTITUTE OF ENERGY PROBLEMS OF CHEMICAL PHYSICS, RAS
##OWNER=INEP CP RAS, NIST OSRD
Collection (C) 2007 copyright by the U.S. Secretary of Commerce
on behalf of the United States of America. All rights reserved.
##CAS REGISTRY NO=67074-68-4
##MOLFORM=C6H5N5O2
##MP=> 360
##SOURCE REFERENCE=RAS UV No. 22275
##$NIST SQUIB=1978GOT/PFL1763
##$NIST SOURCE=TYUGLMTE
##SPECTROMETER/DATA SYSTEM=Cary 15
##XUNITS=Wavelength (nm)
##YUNITS=Logarithm epsilon
##XFACTOR=1.0
##YFACTOR=1.0
##FIRSTX=225.642
##LASTX=351.416
##FIRSTY=4.141
##MAXX=351.416
##MINX=225.642
##MAXY=4.141
##MINY=3.476
##NPOINTS=128
##$REF AUTHOR=Gottlieb, R.; Pfleiderer, W.
##$REF JOURNAL=Chem. Ber.
##$REF VOLUME=111
##$REF PAGE=1763
##$REF DATE=1978
##XYPOINTS=(XY..XY)
225.642,4.141
226.642,4.122
227.642,4.106
228.642,4.092
229.642,4.081
230.642,4.073
231.642,4.067
232.642,4.063
233.642,4.060
234.642,4.059
235.642,4.058
236.642,4.056
237.642,4.054
238.642,4.050
239.642,4.045
240.642,4.039
241.614,4.034
242.614,4.029
243.614,4.022
244.614,4.014
245.614,4.005
246.614,3.995
247.614,3.984
248.614,3.972
249.614,3.958
250.614,3.944
251.614,3.929
252.614,3.913
253.614,3.896
254.614,3.879
255.614,3.861
256.614,3.844
257.614,3.828
258.614,3.813
259.614,3.799
260.614,3.788
261.614,3.779
262.614,3.773
263.614,3.770
264.614,3.770
265.614,3.774
266.614,3.779
267.614,3.786
268.614,3.793
268.631,3.793
269.631,3.798
270.631,3.803
271.631,3.810
272.631,3.817
273.631,3.824
274.631,3.831
275.631,3.838
276.631,3.845
277.631,3.852
278.631,3.858
279.631,3.864
280.631,3.869
281.631,3.875
282.631,3.879
283.631,3.883
284.631,3.887
285.631,3.890
286.631,3.893
287.631,3.895
288.631,3.897
289.631,3.897
290.380,3.897
291.380,3.897
292.380,3.898
293.380,3.900
294.380,3.902
295.380,3.905
296.380,3.908
297.380,3.911
298.380,3.915
299.380,3.919
300.380,3.923
301.380,3.927
302.380,3.931
303.380,3.935
304.380,3.939
305.380,3.943
306.380,3.947
307.380,3.950
308.380,3.953
309.380,3.956
310.380,3.957
311.380,3.959
312.380,3.959
313.380,3.959
314.380,3.958
315.380,3.957
316.380,3.954
317.380,3.951
318.380,3.947
319.380,3.943
320.380,3.938
321.380,3.933
322.380,3.927
323.495,3.918
324.495,3.908
325.495,3.899
326.495,3.889
327.495,3.879
328.495,3.869
329.495,3.858
330.495,3.847
331.495,3.835
332.495,3.823
333.495,3.810
334.495,3.797
335.495,3.783
336.495,3.769
337.495,3.754
338.495,3.739
339.495,3.722
340.416,3.707
341.416,3.689
342.416,3.670
343.416,3.650
344.416,3.629
345.416,3.607
346.416,3.584
347.416,3.562
348.416,3.539
349.416,3.517
350.416,3.495
351.416,3.476
##END=
