##TITLE=1,5-dihydro-4-methoxy-6,7-pteridinedione
##JCAMP-DX=4.24
##DATA TYPE=UV/VIS SPECTRUM
##ORIGIN=INSTITUTE OF ENERGY PROBLEMS OF CHEMICAL PHYSICS, RAS
##OWNER=INEP CP RAS, NIST OSRD
Collection (C) 2007 copyright by the U.S. Secretary of Commerce
on behalf of the United States of America. All rights reserved.
##CAS REGISTRY NO=67074-67-3
##MOLFORM=C7H6N4O3
##MP=> 350
##SOURCE REFERENCE=RAS UV No. 22278
##$NIST SQUIB=1978GOT/PFL1763
##$NIST SOURCE=TYUGLMTE
##SPECTROMETER/DATA SYSTEM=Cary 15
##XUNITS=Wavelength (nm)
##YUNITS=Logarithm epsilon
##XFACTOR=1.0
##YFACTOR=1.0
##FIRSTX=221.208
##LASTX=349.388
##FIRSTY=3.961
##MAXX=349.388
##MINX=221.208
##MAXY=4.032
##MINY=3.069
##NPOINTS=131
##$REF AUTHOR=Gottlieb, R.; Pfleiderer, W.
##$REF JOURNAL=Chem. Ber.
##$REF VOLUME=111
##$REF PAGE=1763
##$REF DATE=1978
##XYPOINTS=(XY..XY)
221.208,3.961
222.208,3.948
223.208,3.935
224.208,3.921
225.208,3.907
226.208,3.892
227.208,3.877
228.208,3.861
229.208,3.845
230.208,3.829
231.208,3.812
232.208,3.795
233.208,3.778
234.208,3.761
235.208,3.743
236.208,3.726
237.208,3.709
238.208,3.692
239.208,3.675
240.208,3.659
241.208,3.644
242.208,3.630
243.208,3.618
244.208,3.608
245.208,3.600
246.208,3.595
247.208,3.593
248.208,3.595
249.208,3.602
250.273,3.619
251.273,3.640
252.273,3.659
253.273,3.677
254.273,3.695
255.273,3.712
256.273,3.728
257.273,3.744
258.273,3.759
259.273,3.773
260.273,3.786
261.273,3.798
262.273,3.809
263.273,3.819
264.273,3.828
265.273,3.837
266.273,3.846
266.355,3.847
267.355,3.856
268.355,3.867
269.355,3.879
270.355,3.889
271.355,3.894
272.355,3.893
273.355,3.884
274.201,3.877
274.871,3.875
275.542,3.875
276.213,3.875
277.512,3.880
278.512,3.883
279.512,3.888
280.512,3.895
281.512,3.903
282.512,3.913
283.512,3.923
284.512,3.933
285.512,3.944
286.512,3.954
287.512,3.964
288.512,3.973
289.512,3.982
290.512,3.990
291.512,3.997
292.512,4.004
293.512,4.010
294.512,4.015
295.512,4.020
296.512,4.023
297.512,4.026
298.512,4.029
299.512,4.030
300.512,4.031
301.512,4.032
302.512,4.032
303.512,4.031
304.512,4.030
305.512,4.028
306.512,4.025
307.512,4.021
308.512,4.016
309.540,4.008
310.540,4.001
311.540,3.991
312.540,3.979
313.540,3.966
314.540,3.953
315.540,3.939
316.540,3.926
317.540,3.914
318.540,3.901
319.540,3.889
320.540,3.876
321.540,3.863
322.540,3.849
323.540,3.832
324.540,3.814
325.540,3.793
326.540,3.770
327.540,3.743
328.540,3.714
329.540,3.682
330.540,3.648
331.540,3.612
332.540,3.576
333.540,3.542
334.540,3.512
335.388,3.493
336.388,3.468
337.388,3.446
338.388,3.427
339.388,3.407
340.388,3.386
341.388,3.362
342.388,3.334
343.388,3.302
344.388,3.266
345.388,3.227
346.388,3.185
347.388,3.143
348.388,3.104
349.388,3.069
##END=
