##TITLE=N-(4-butylphenyl)-3-oxo-2-(phenylhedrazono)butanamide
##JCAMP-DX=4.24
##DATA TYPE=UV/VIS SPECTRUM
##ORIGIN=INSTITUTE OF ENERGY PROBLEMS OF CHEMICAL PHYSICS, RAS
##OWNER=INEP CP RAS, NIST OSRD
Collection (C) 2007 copyright by the U.S. Secretary of Commerce
on behalf of the United States of America. All rights reserved.
##CAS REGISTRY NO=67058-87-1
##MOLFORM=C20H23N3O2
##MP=92-93
##SOURCE REFERENCE=RAS UV No. 22351
##$NIST SQUIB=1978DYU/562
##$NIST SOURCE=TYUGLMTE
##SPECTROMETER/DATA SYSTEM=Specord UV-Vis
##XUNITS=Wavelength (nm)
##YUNITS=Logarithm epsilon
##XFACTOR=1.0
##YFACTOR=1.0
##FIRSTX=232.05
##LASTX=409.51
##FIRSTY=4.097
##MAXX=409.51
##MINX=232.05
##MAXY=4.495
##MINY=3.628
##NPOINTS=91
##$REF AUTHOR=Dyumaev, K.M.; et al.
##$REF JOURNAL=Zhur. Organ. Khim.
##$REF VOLUME=14
##$REF PAGE=562
##$REF DATE=1978
##XYPOINTS=(XY..XY)
232.050,4.097
233.237,4.108
235.237,4.124
237.237,4.137
239.237,4.143
241.237,4.142
243.237,4.133
245.237,4.120
247.237,4.099
249.197,4.073
251.197,4.030
253.197,3.988
255.197,3.945
257.197,3.901
259.197,3.859
261.197,3.821
263.197,3.789
265.197,3.764
267.197,3.744
269.197,3.728
271.197,3.713
271.203,3.713
273.203,3.694
275.203,3.677
277.203,3.659
279.203,3.643
281.203,3.632
283.203,3.628
285.203,3.635
287.203,3.650
289.203,3.670
291.208,3.691
292.922,3.711
295.208,3.730
297.208,3.747
299.208,3.766
301.208,3.786
303.208,3.807
305.208,3.828
307.208,3.849
309.208,3.871
311.208,3.891
313.208,3.912
315.208,3.932
317.208,3.951
319.208,3.969
321.208,3.987
323.208,4.005
325.208,4.022
327.208,4.038
329.208,4.055
331.208,4.071
333.208,4.087
335.208,4.103
337.208,4.120
339.208,4.136
341.208,4.153
343.208,4.171
345.208,4.189
347.208,4.207
349.208,4.226
351.208,4.246
353.208,4.266
355.208,4.286
357.510,4.311
359.510,4.330
361.510,4.349
363.510,4.368
365.510,4.388
367.510,4.408
369.510,4.427
371.510,4.445
373.510,4.461
375.510,4.475
377.510,4.485
379.510,4.492
381.510,4.495
383.510,4.494
385.510,4.489
387.510,4.479
389.510,4.467
391.510,4.451
393.510,4.432
395.510,4.411
397.510,4.388
399.510,4.363
401.510,4.336
403.510,4.307
405.510,4.274
407.510,4.236
409.510,4.190
##END=
