##TITLE=2,3,5,6,7,8-hexahydro-5-methyl-(phenylmethyl)-4(1H)-quinolinone
##JCAMP-DX=4.24
##DATA TYPE=UV/VIS SPECTRUM
##ORIGIN=INSTITUTE OF ENERGY PROBLEMS OF CHEMICAL PHYSICS, RAS
##OWNER=INEP CP RAS, NIST OSRD
Collection (C) 2007 copyright by the U.S. Secretary of Commerce
on behalf of the United States of America. All rights reserved.
##CAS REGISTRY NO=67152-25-4
##MOLFORM=C17H21NO
##SOURCE REFERENCE=RAS UV No. 22313
##$NIST SQUIB=1978POT/508
##$NIST SOURCE=TYUGLMTE
##SPECTROMETER/DATA SYSTEM=Cary 15
##XUNITS=Wavelength (nm)
##YUNITS=Logarithm epsilon
##XFACTOR=1.0
##YFACTOR=1.0
##FIRSTX=222.812
##LASTX=361.805
##FIRSTY=3.743
##MAXX=361.805
##MINX=222.812
##MAXY=4.03
##MINY=2.137
##NPOINTS=142
##$REF AUTHOR=Potapov, V.M.; et al.
##$REF JOURNAL=Khim. Geterosikl. Soedin.
##$REF PAGE=508
##$REF DATE=1978
##XYPOINTS=(XY..XY)
222.812,3.743
222.997,3.733
223.997,3.682
224.997,3.638
225.997,3.600
226.997,3.568
227.997,3.540
228.997,3.515
229.997,3.494
230.997,3.476
231.997,3.460
232.997,3.447
233.997,3.434
234.997,3.423
235.997,3.413
236.997,3.404
237.997,3.396
238.997,3.388
239.997,3.380
240.997,3.373
241.997,3.366
242.997,3.359
243.997,3.351
244.997,3.344
245.997,3.336
246.997,3.329
247.997,3.321
248.997,3.312
249.997,3.304
250.997,3.295
251.997,3.285
252.997,3.275
253.997,3.265
254.997,3.255
255.997,3.244
256.997,3.233
257.997,3.221
258.997,3.210
259.997,3.198
260.997,3.187
261.997,3.175
262.997,3.164
263.997,3.153
264.997,3.142
265.997,3.132
266.997,3.123
267.997,3.115
268.997,3.108
269.997,3.103
270.997,3.099
271.997,3.097
272.997,3.097
273.997,3.100
274.997,3.104
275.997,3.112
276.997,3.122
277.997,3.135
278.997,3.151
279.997,3.170
280.997,3.192
281.997,3.217
282.997,3.244
283.997,3.273
284.997,3.304
285.081,3.305
286.081,3.341
287.081,3.373
288.081,3.403
289.081,3.431
290.081,3.456
291.081,3.481
292.081,3.504
293.081,3.526
294.081,3.548
295.081,3.570
296.081,3.591
297.081,3.612
298.081,3.633
299.081,3.654
300.081,3.675
301.081,3.696
302.081,3.717
303.081,3.739
304.081,3.760
305.081,3.781
306.081,3.803
307.081,3.824
308.081,3.845
309.081,3.865
310.081,3.885
311.081,3.904
312.081,3.923
313.081,3.940
314.081,3.956
315.081,3.971
316.081,3.985
317.081,3.997
318.081,4.008
319.081,4.016
320.081,4.023
321.081,4.028
322.081,4.030
323.081,4.030
324.081,4.028
325.081,4.023
326.081,4.016
327.081,4.007
328.081,3.995
329.081,3.980
330.081,3.962
331.081,3.943
332.081,3.920
333.081,3.895
334.081,3.868
335.081,3.839
336.081,3.807
337.081,3.774
338.081,3.738
339.081,3.701
340.081,3.662
341.081,3.622
342.081,3.581
343.081,3.539
344.087,3.492
345.087,3.445
346.087,3.397
347.087,3.344
348.087,3.283
349.087,3.211
350.087,3.129
351.087,3.038
352.087,2.941
353.087,2.839
354.087,2.737
355.087,2.637
356.087,2.542
357.087,2.454
358.087,2.375
359.087,2.304
360.087,2.239
361.087,2.176
361.805,2.137
##END=
