##TITLE=2,3,5,6,7,8-hexahydro-8-methyl-(phenylmethyl)-4(1H)-quinolinone
##JCAMP-DX=4.24
##DATA TYPE=UV/VIS SPECTRUM
##ORIGIN=INSTITUTE OF ENERGY PROBLEMS OF CHEMICAL PHYSICS, RAS
##OWNER=INEP CP RAS, NIST OSRD
Collection (C) 2007 copyright by the U.S. Secretary of Commerce
on behalf of the United States of America. All rights reserved.
##CAS REGISTRY NO=67152-26-5
##MOLFORM=C17H21NO
##SOURCE REFERENCE=RAS UV No. 22314
##$NIST SQUIB=1978POT/508
##$NIST SOURCE=TYUGLMTE
##SPECTROMETER/DATA SYSTEM=Cary 15
##XUNITS=Wavelength (nm)
##YUNITS=Logarithm epsilon
##XFACTOR=1.0
##YFACTOR=1.0
##FIRSTX=223.618
##LASTX=359.799
##FIRSTY=3.746
##MAXX=359.799
##MINX=223.618
##MAXY=4.048
##MINY=2.036
##NPOINTS=137
##$REF AUTHOR=Potapov, V.M.; et al.
##$REF JOURNAL=Khim. Geterosikl. Soedin.
##$REF PAGE=508
##$REF DATE=1978
##XYPOINTS=(XY..XY)
223.618,3.746
224.618,3.685
225.618,3.636
226.618,3.595
227.618,3.563
228.618,3.535
229.618,3.513
230.618,3.494
231.618,3.478
232.618,3.464
233.618,3.452
234.618,3.441
235.618,3.431
236.618,3.421
237.618,3.412
238.618,3.403
239.618,3.394
240.618,3.386
241.618,3.377
242.618,3.369
243.618,3.361
244.618,3.353
245.618,3.345
246.618,3.336
247.618,3.328
248.618,3.320
249.618,3.312
250.618,3.303
251.618,3.294
252.618,3.285
253.618,3.275
254.618,3.266
255.618,3.255
256.618,3.245
257.618,3.233
258.618,3.222
259.618,3.210
260.618,3.198
261.618,3.186
262.618,3.174
263.618,3.162
264.618,3.150
265.618,3.140
266.618,3.130
267.618,3.121
268.618,3.114
269.618,3.109
270.618,3.106
271.618,3.106
272.618,3.109
273.618,3.115
274.618,3.124
275.618,3.137
276.618,3.154
277.618,3.174
278.618,3.197
279.618,3.223
280.618,3.251
281.618,3.280
282.618,3.308
283.630,3.343
284.630,3.383
285.630,3.419
286.630,3.451
287.630,3.480
288.630,3.507
289.630,3.533
290.630,3.558
291.630,3.582
292.630,3.606
293.630,3.630
294.630,3.654
295.630,3.678
296.630,3.702
297.630,3.727
298.630,3.751
299.630,3.775
300.630,3.799
301.630,3.823
302.630,3.847
303.630,3.870
304.630,3.892
305.630,3.913
306.630,3.933
307.630,3.952
308.630,3.970
309.630,3.986
310.630,4.001
311.630,4.013
312.630,4.024
313.630,4.033
314.630,4.040
315.630,4.045
316.630,4.047
317.630,4.048
318.630,4.046
319.630,4.041
320.630,4.035
321.630,4.026
322.630,4.015
323.630,4.001
324.630,3.985
325.630,3.967
326.630,3.946
327.630,3.922
328.630,3.897
329.630,3.868
330.630,3.837
331.630,3.804
332.630,3.768
333.630,3.729
334.630,3.688
335.630,3.644
336.630,3.597
337.630,3.547
338.630,3.494
339.630,3.439
340.630,3.380
341.630,3.318
342.630,3.254
343.630,3.186
344.630,3.116
345.630,3.043
346.630,2.968
347.630,2.891
348.630,2.811
349.630,2.731
350.630,2.650
351.630,2.568
352.630,2.488
353.630,2.410
354.630,2.334
355.630,2.264
356.630,2.199
357.630,2.143
358.630,2.098
359.799,2.036
##END=
