##TITLE=2-Piperidinone
##JCAMP-DX=4.24
##DATA TYPE=UV/VIS SPECTRUM
##ORIGIN=INSTITUTE OF ENERGY PROBLEMS OF CHEMICAL PHYSICS, RAS
##OWNER=INEP CP RAS, NIST OSRD
Collection (C) 2007 copyright by the U.S. Secretary of Commerce
on behalf of the United States of America. All rights reserved.
##CAS REGISTRY NO=675-20-7
##MOLFORM=C5H9NO
##MP=39.5
##BP=256
##SOURCE REFERENCE=RAS UV No. 1124
##$NIST SQUIB=1957HUI/BRA1437-1447
##$NIST SOURCE=TSGMTE
##SPECTROMETER/DATA SYSTEM=n.i.g.
##XUNITS=Wavelength (nm)
##YUNITS=Logarithm epsilon
##XFACTOR=1.000000
##YFACTOR=1.000000
##FIRSTX=216.0314
##LASTX=235.5215
##FIRSTY=2.98542
##MAXX=235.522
##MINX=216.031
##MAXY=2.98738
##MINY=1.01811
##NPOINTS=188
##$REF AUTHOR=Huisgen, R.; Brade, H.; Walz, H.; Glogger, I.
##$REF TITLE=Die eigenschaften aliphatischer lactame und die cis-trans-isomerie der saureamidgruppe
##$REF JOURNAL=Chem. Ber.
##$REF VOLUME=90
##$REF PAGE=1437-1447
##$REF DATE=1957
##XYPOINTS=(XY..XY)
216.0314,2.985423
216.0319,2.986094
216.0323,2.986750
216.0327,2.987378
216.1337,2.975817
216.1343,2.976690
216.1348,2.977548
216.1353,2.978376
216.2364,2.966633
216.2370,2.967525
216.2375,2.968401
216.2380,2.969246
216.3351,2.959272
216.3354,2.959724
216.3357,2.960162
216.3359,2.960570
216.4374,2.948995
216.4377,2.949461
216.4379,2.949926
216.4382,2.950391
216.5401,2.939219
216.5405,2.939948
216.5409,2.940645
216.5413,2.941326
216.6440,2.931374
216.6594,2.931025
216.6760,2.930676
216.6949,2.930327
216.9005,2.909952
216.9070,2.909587
216.9157,2.909221
216.9257,2.908855
217.0547,2.899240
217.0550,2.899762
217.0553,2.900284
217.0555,2.900805
217.2557,2.878648
217.2560,2.879193
217.2563,2.879720
217.2565,2.880212
217.3608,2.872088
217.3672,2.871427
217.3758,2.870729
217.3856,2.870013
217.5138,2.857765
217.5141,2.858340
217.5144,2.858914
217.5146,2.859487
218.0317,2.816712
218.0381,2.815961
218.0467,2.815169
218.0565,2.814354
218.1855,2.802369
218.1859,2.803367
218.1863,2.804321
218.1867,2.805253
218.3406,2.790616
218.3409,2.791283
218.3411,2.791928
218.3414,2.792530
218.4452,2.781491
218.4615,2.779496
218.4799,2.777448
218.4996,2.775368
218.6570,2.769142
218.6634,2.768305
218.6720,2.767420
218.6818,2.766511
218.8113,2.754257
218.8265,2.753207
218.8430,2.752130
218.8616,2.751004
219.8015,2.678651
219.8030,2.676849
219.8174,2.675844
219.8570,2.674776
219.9569,2.664238
219.9909,2.661620
220.0368,2.656755
220.0856,2.645869
220.0856,2.645869
220.1621,2.643837
220.1964,2.642224
220.2179,2.639642
220.5371,2.619287
220.5375,2.620844
220.5379,2.622364
220.5383,2.623816
220.6933,2.605815
220.6966,2.603531
220.7229,2.601954
220.7949,2.599734
220.8995,2.585489
220.8998,2.586564
220.9001,2.587637
220.9004,2.588707
221.0566,2.574236
221.0630,2.572923
221.0716,2.571535
221.0814,2.570107
221.3187,2.548823
221.3190,2.549993
221.3193,2.551160
221.3195,2.552323
221.7954,2.512596
221.8106,2.510038
221.8268,2.507464
221.8454,2.504874
222.0584,2.487243
222.0838,2.485633
222.1093,2.483930
222.1347,2.482178
222.3221,2.464605
222.3374,2.462556
222.3538,2.460452
222.3725,2.458245
222.6878,2.433983
222.6941,2.432169
222.7028,2.430248
222.7126,2.428270
222.7126,2.428270
222.8859,2.426525
222.9698,2.425001
223.0079,2.405964
223.0155,2.411507
223.0254,2.416979
223.0364,2.422383
223.0364,2.422383
223.3751,2.380950
223.3919,2.379710
223.4110,2.378467
223.4313,2.377219
224.3282,2.302498
224.3541,2.302104
224.3812,2.301578
224.4105,2.300984
225.6573,2.202409
225.6638,2.200544
225.6726,2.198669
225.6825,2.196786
226.0817,2.166151
226.0971,2.164103
226.1138,2.161954
226.1326,2.159610
228.3151,1.972218
228.3409,1.971376
228.3666,1.970249
228.3923,1.968979
228.9002,1.922899
228.9359,1.915705
228.9716,1.908227
229.0073,1.900286
230.0766,1.832227
230.0992,1.819058
230.1402,1.809350
230.2349,1.794725
230.8204,1.730491
230.8563,1.726788
230.8923,1.722552
230.9282,1.718025
231.5141,1.654873
231.5568,1.653089
231.6019,1.650705
231.6480,1.648010
232.2594,1.561512
232.2955,1.561426
232.3316,1.561340
232.3677,1.561255
232.9024,1.487370
232.9281,1.484791
232.9538,1.481328
232.9796,1.477401
233.4886,1.395733
233.5314,1.392488
233.5764,1.388131
233.6225,1.383185
234.1832,1.282055
234.2259,1.277834
234.2709,1.272155
234.3171,1.265683
234.8266,1.169983
234.8693,1.164510
234.9143,1.157124
234.9605,1.148671
235.4132,1.019000
235.4493,1.018700
235.4854,1.018405
235.5215,1.018105
##END=
