##TITLE=Acetone
##JCAMP-DX=4.24
##DATA TYPE=UV/VIS SPECTRUM
##ORIGIN=INSTITUTE OF ENERGY PROBLEMS OF CHEMICAL PHYSICS, RAS
##OWNER=INEP CP RAS, NIST OSRD
Collection (C) 2007 copyright by the U.S. Secretary of Commerce
on behalf of the United States of America. All rights reserved.
##CAS REGISTRY NO=67-64-1
##MOLFORM=C3H6O
##MP=-94.8
##BP=56.0
##SOURCE REFERENCE=RAS UV No. 2803
##$NIST SQUIB=1954BAY/MCR1006-1011
##$NIST SOURCE=TSGMTE
##SPECTROMETER/DATA SYSTEM=Beckman spectrophotometer
##XUNITS=Wavelength (nm)
##YUNITS=Logarithm epsilon
##XFACTOR=1.000000
##YFACTOR=1.000000
##FIRSTX=307.2472
##LASTX=222.6761
##FIRSTY=2.72653
##MAXX=307.247
##MINX=222.676
##MAXY=4.25281
##MINY=2.72653
##NPOINTS=247
##$REF AUTHOR=Bayliss, N.S.; McRae, E.G.
##$REF TITLE=Solvent effects in the spectra of acetone, crotonaldehyde, nitromethane and nitrobenzene
##$REF JOURNAL=J. Phys. Chem.
##$REF VOLUME=58
##$REF PAGE=1006-1011
##$REF DATE=1954
##XYPOINTS=(XY..XY)
307.2472,2.726525
306.1694,2.842443
305.1800,2.933576
304.2708,3.008780
303.4338,3.072916
302.6611,3.128948
301.9454,3.178809
301.2793,3.223836
300.6556,3.264989
300.0673,3.302982
299.5076,3.338356
298.9696,3.371536
298.4469,3.402858
297.9327,3.432591
297.4208,3.460957
296.9046,3.488137
296.9046,3.488137
296.5037,3.511896
296.1036,3.534422
295.7042,3.555837
295.3056,3.576246
294.9077,3.595738
294.5107,3.614393
294.1145,3.632279
293.7191,3.649458
293.3246,3.665983
292.9309,3.681903
292.5381,3.697259
292.1462,3.712091
291.7552,3.726433
291.3651,3.740317
290.9760,3.753770
290.5878,3.766819
290.2006,3.779488
289.8144,3.791797
289.4291,3.803767
289.0449,3.815416
289.0449,3.815416
288.7651,3.826537
288.4887,3.837383
288.2156,3.847965
287.9454,3.858297
287.6781,3.868389
287.4136,3.878253
287.1516,3.887899
286.8920,3.897335
286.6346,3.906571
286.3792,3.915614
286.1258,3.924473
285.8741,3.933155
285.6240,3.941666
285.3753,3.950013
285.1280,3.958202
284.8817,3.966238
284.6364,3.974128
284.3920,3.981876
284.1482,3.989487
283.9049,3.996966
283.6620,4.004317
283.4194,4.011544
283.1768,4.018651
282.9342,4.025642
282.6913,4.032521
282.4481,4.039291
282.2045,4.045955
281.9602,4.052517
281.7151,4.058979
281.4691,4.065343
281.2221,4.071614
280.9738,4.077794
280.7243,4.083884
280.4733,4.089888
280.2207,4.095808
279.9664,4.101645
279.7102,4.107402
279.4521,4.113082
279.1918,4.118685
278.9293,4.124215
278.6644,4.129672
278.3971,4.135058
278.1271,4.140376
277.8543,4.145626
277.5787,4.150811
277.3001,4.155931
277.0184,4.160989
276.7335,4.165985
276.4452,4.170921
276.1535,4.175799
275.8582,4.180619
275.5592,4.185383
275.2564,4.190091
274.9497,4.194746
274.6390,4.199348
274.3241,4.203898
274.3241,4.203898
274.0752,4.219213
273.7272,4.207913
273.6760,4.219502
273.4993,4.212446
273.3725,4.216819
273.3725,4.216819
273.3725,4.220369
273.3725,4.220799
273.3725,4.221213
273.3725,4.221594
273.3725,4.221594
273.2687,4.219791
273.2077,4.214997
273.2069,4.216819
273.2069,4.221594
273.0370,4.216819
273.0370,4.221594
273.0301,4.215259
272.9395,4.215732
272.8581,4.216819
272.8581,4.216819
272.8581,4.220080
272.8581,4.220080
272.8581,4.221594
272.3600,4.224176
272.0315,4.226340
271.5906,4.228447
271.5906,4.228447
270.9455,4.233934
270.1033,4.238510
269.1913,4.242807
268.3338,4.247431
268.3338,4.247431
267.4189,4.249802
266.5419,4.251454
265.7020,4.252441
264.8981,4.252812
264.1292,4.252614
263.3944,4.251892
262.6929,4.250690
262.0239,4.249049
261.3864,4.247011
260.7798,4.244615
260.2033,4.241903
259.6562,4.238916
259.1378,4.235695
258.6473,4.232284
258.1843,4.228725
257.7481,4.225064
257.3380,4.221347
256.9536,4.217623
256.5942,4.213941
256.2593,4.210353
255.9485,4.206912
255.6611,4.203672
255.3968,4.200690
255.1551,4.198023
254.9355,4.195728
254.9355,4.195728
254.7896,4.193859
254.6159,4.191573
254.4160,4.188886
254.1915,4.185813
253.9440,4.182370
253.6750,4.178572
253.3863,4.174433
253.0793,4.169966
252.7557,4.165188
252.4171,4.160111
252.0650,4.154752
251.7010,4.149125
251.3267,4.143246
250.9435,4.137131
250.5530,4.130798
250.1567,4.124265
249.7561,4.117550
249.3526,4.110676
248.9477,4.103662
248.5427,4.096533
248.1393,4.089313
247.7386,4.082029
247.3421,4.074709
246.9511,4.067385
246.5670,4.060089
246.1912,4.052855
245.8248,4.045720
245.8248,4.045720
245.7365,4.045149
245.6409,4.044528
245.5417,4.043883
245.5417,4.043883
245.2794,4.037181
245.0109,4.030373
244.7365,4.023457
244.4564,4.016427
244.1711,4.009280
243.8807,4.002014
243.5856,3.994622
243.2861,3.987102
242.9825,3.979449
242.6751,3.971658
242.3641,3.963723
242.0499,3.955641
241.7328,3.947404
241.4130,3.939007
241.0908,3.930445
240.7665,3.921709
240.4404,3.912794
240.1127,3.903692
239.7837,3.894394
239.4538,3.884892
239.1230,3.875178
238.7918,3.865241
238.4604,3.855071
238.1289,3.844657
237.7978,3.833987
237.4672,3.823048
237.4672,3.823048
237.1147,3.812412
236.7635,3.801444
236.4125,3.790136
236.0609,3.778479
235.7077,3.766462
235.3522,3.754077
234.9933,3.741311
234.6304,3.728154
234.2624,3.714593
233.8886,3.700615
233.5081,3.686205
233.1202,3.671349
232.7240,3.656032
232.3188,3.640235
231.9037,3.623942
231.4781,3.607133
231.0411,3.589787
230.5920,3.571883
230.1302,3.553397
229.6550,3.534305
229.1655,3.514580
229.1655,3.514580
228.7938,3.496198
228.0273,3.461823
227.3831,3.427190
227.3831,3.427190
226.9134,3.414798
226.6816,3.406348
226.4881,3.394627
226.4881,3.394627
226.1216,3.385783
225.4142,3.363725
224.2889,3.325243
222.6761,3.264352
##END=
