##TITLE=N-(4-ethyl-3,4-dimethyl-5-methylene-2-selenazolidinylidene)benzenamine
##JCAMP-DX=4.24
##DATA TYPE=UV/VIS SPECTRUM
##ORIGIN=INSTITUTE OF ENERGY PROBLEMS OF CHEMICAL PHYSICS, RAS
##OWNER=INEP CP RAS, NIST OSRD
Collection (C) 2007 copyright by the U.S. Secretary of Commerce
on behalf of the United States of America. All rights reserved.
##CAS REGISTRY NO=67766-78-3
##MOLFORM=C14H18N2Se
##MP=72
##SOURCE REFERENCE=RAS UV No. 22297
##$NIST SQUIB=1978AZE/917
##$NIST SOURCE=TYUGLMTE
##SPECTROMETER/DATA SYSTEM=Specord UV-Vis
##XUNITS=Wavelength (nm)
##YUNITS=Logarithm epsilon
##XFACTOR=1.0
##YFACTOR=1.0
##FIRSTX=202.852
##LASTX=303.06
##FIRSTY=3.601
##MAXX=303.06
##MINX=202.852
##MAXY=3.605
##MINY=1.578
##NPOINTS=101
##$REF AUTHOR=Azerbayev, I.N.; et al.
##$REF JOURNAL=Khim. Geterosikl. Soedin.
##$REF PAGE=917
##$REF DATE=1978
##XYPOINTS=(XY..XY)
202.852,3.601
203.852,3.605
204.852,3.603
205.852,3.597
206.852,3.587
207.852,3.574
208.852,3.558
209.852,3.539
210.852,3.517
211.852,3.492
212.852,3.465
213.852,3.437
214.852,3.411
215.914,3.390
216.914,3.371
217.914,3.352
218.914,3.335
219.914,3.321
220.914,3.311
221.914,3.305
222.914,3.302
223.914,3.303
224.914,3.306
225.914,3.312
226.914,3.318
227.914,3.326
228.914,3.333
229.925,3.339
230.925,3.347
231.925,3.353
232.925,3.359
233.925,3.364
234.925,3.368
235.925,3.371
236.925,3.374
237.925,3.377
238.925,3.379
239.925,3.380
240.925,3.380
241.925,3.379
242.925,3.377
243.925,3.372
244.925,3.366
245.925,3.358
246.925,3.347
247.925,3.334
248.925,3.319
249.925,3.301
250.925,3.282
251.925,3.261
252.925,3.239
253.925,3.217
254.925,3.195
255.925,3.174
257.060,3.154
258.060,3.140
259.060,3.124
260.060,3.107
261.060,3.089
262.060,3.070
263.060,3.052
264.060,3.035
265.060,3.017
266.060,3.000
267.060,2.983
268.060,2.967
269.060,2.950
270.060,2.934
271.060,2.917
272.060,2.900
273.060,2.883
274.060,2.865
275.060,2.847
276.060,2.828
277.060,2.808
278.060,2.787
279.060,2.766
280.060,2.744
281.060,2.721
282.060,2.697
283.060,2.673
284.060,2.648
285.060,2.623
286.060,2.597
287.060,2.571
288.060,2.543
289.060,2.515
290.060,2.486
291.060,2.456
292.060,2.423
293.060,2.388
294.060,2.349
295.060,2.306
296.060,2.257
297.060,2.201
298.060,2.135
299.060,2.058
300.060,1.967
301.060,1.859
302.060,1.730
303.060,1.578
##END=
