##TITLE=2-Chloro-N-(1H-perimidin-2-yl)acetamide
##JCAMP-DX=4.24
##DATA TYPE=UV/VIS SPECTRUM
##ORIGIN=INSTITUTE OF ENERGY PROBLEMS OF CHEMICAL PHYSICS, RAS
##OWNER=INEP CP RAS, NIST OSRD
Collection (C) 2007 copyright by the U.S. Secretary of Commerce
on behalf of the United States of America. All rights reserved.
##CAS REGISTRY NO=67818-87-5
##MOLFORM=C13H10ClN3O
##MP=207 dec.
##SOURCE REFERENCE=RAS UV No. 22335
##$NIST SQUIB=1978LOP/843
##$NIST SOURCE=TYUGLMTE
##SPECTROMETER/DATA SYSTEM=Specord UV-Vis
##XUNITS=Wavelength (nm)
##YUNITS=Logarithm epsilon
##XFACTOR=1.0
##YFACTOR=1.0
##FIRSTX=215.62
##LASTX=363.879
##FIRSTY=4.544
##MAXX=363.879
##MINX=215.62
##MAXY=4.657
##MINY=3.202
##NPOINTS=123
##$REF AUTHOR=Lopatin, B.V.; et al.
##$REF JOURNAL=Khim. Geterosikl. Soedin.
##$REF PAGE=843
##$REF DATE=1978
##XYPOINTS=(XY..XY)
215.620,4.544
216.820,4.556
218.020,4.570
219.220,4.585
220.420,4.600
221.620,4.614
222.820,4.628
224.020,4.640
225.220,4.649
226.420,4.655
227.620,4.657
228.820,4.655
230.020,4.647
231.220,4.633
232.420,4.613
233.620,4.585
234.820,4.549
235.892,4.514
237.092,4.463
238.292,4.416
239.492,4.373
240.692,4.335
241.892,4.301
243.092,4.273
244.292,4.250
245.492,4.232
246.692,4.220
247.892,4.215
249.092,4.216
250.292,4.223
251.492,4.238
252.692,4.260
253.892,4.290
255.369,4.328
256.966,4.357
258.166,4.379
259.366,4.397
260.566,4.415
261.766,4.433
262.966,4.449
264.166,4.461
265.366,4.467
266.566,4.463
267.766,4.448
268.966,4.423
270.274,4.388
271.474,4.352
272.674,4.310
273.874,4.265
275.074,4.222
276.274,4.183
277.474,4.148
278.674,4.116
279.874,4.087
281.074,4.059
282.274,4.030
283.474,4.001
284.674,3.970
285.776,3.944
286.976,3.905
288.176,3.879
289.376,3.863
290.576,3.855
291.776,3.852
292.976,3.853
294.176,3.858
295.376,3.865
296.576,3.874
297.776,3.883
298.976,3.894
300.176,3.906
301.376,3.919
302.576,3.934
303.862,3.952
305.062,3.971
306.262,3.990
307.462,4.008
308.662,4.026
309.862,4.045
311.062,4.065
312.262,4.086
313.462,4.108
314.662,4.131
315.862,4.154
317.003,4.171
318.408,4.184
319.900,4.178
321.227,4.165
322.233,4.134
323.239,4.114
324.378,4.102
325.871,4.083
327.363,4.071
328.856,4.052
330.279,4.032
331.479,4.000
332.679,3.969
333.879,3.938
335.079,3.909
336.279,3.880
337.479,3.852
338.679,3.825
339.879,3.799
341.079,3.773
342.279,3.748
343.479,3.722
344.679,3.696
345.879,3.670
347.079,3.643
348.279,3.616
349.479,3.587
350.679,3.558
351.879,3.527
353.079,3.495
354.279,3.462
355.479,3.428
356.679,3.393
357.879,3.358
359.079,3.324
360.279,3.290
361.479,3.258
362.679,3.228
363.879,3.202
##END=
