##TITLE=2,2,2-Trichloro-N-(1H-perimidin-2-yl)acetamide
##JCAMP-DX=4.24
##DATA TYPE=UV/VIS SPECTRUM
##ORIGIN=INSTITUTE OF ENERGY PROBLEMS OF CHEMICAL PHYSICS, RAS
##OWNER=INEP CP RAS, NIST OSRD
Collection (C) 2007 copyright by the U.S. Secretary of Commerce
on behalf of the United States of America. All rights reserved.
##CAS REGISTRY NO=67818-88-6
##MOLFORM=C13H8Cl3N3O
##MP=214
##SOURCE REFERENCE=RAS UV No. 22336
##$NIST SQUIB=1978LOP/843
##$NIST SOURCE=TYUGLMTE
##SPECTROMETER/DATA SYSTEM=Specord UV-Vis
##XUNITS=Wavelength (nm)
##YUNITS=Logarithm epsilon
##XFACTOR=1.0
##YFACTOR=1.0
##FIRSTX=210.973
##LASTX=353.112
##FIRSTY=4.27
##MAXX=353.112
##MINX=210.973
##MAXY=4.534
##MINY=3.094
##NPOINTS=122
##$REF AUTHOR=Lopatin, B.V.; et al.
##$REF JOURNAL=Khim. Geterosikl. Soedin.
##$REF PAGE=843
##$REF DATE=1978
##XYPOINTS=(XY..XY)
210.973,4.270
212.173,4.275
213.373,4.286
214.573,4.300
215.773,4.317
216.973,4.335
218.173,4.355
219.373,4.376
220.573,4.398
221.773,4.421
222.973,4.446
224.173,4.471
225.373,4.494
226.573,4.515
227.773,4.530
228.973,4.534
230.173,4.523
231.373,4.489
232.041,4.457
232.579,4.429
233.779,4.335
234.979,4.255
236.179,4.188
237.379,4.131
238.579,4.083
239.779,4.043
240.979,4.009
242.179,3.983
243.379,3.961
244.579,3.946
245.779,3.935
246.979,3.929
248.179,3.929
249.379,3.934
250.579,3.943
251.779,3.957
252.979,3.976
254.179,3.998
255.379,4.025
256.579,4.053
257.779,4.083
258.979,4.113
260.250,4.141
261.450,4.167
262.650,4.190
263.850,4.212
265.050,4.236
266.250,4.260
267.450,4.286
268.650,4.313
269.850,4.337
271.050,4.358
272.250,4.374
273.450,4.381
274.650,4.380
275.850,4.367
277.050,4.345
278.250,4.312
279.450,4.272
280.223,4.245
280.908,4.220
282.108,4.181
283.308,4.148
284.508,4.120
285.708,4.094
286.908,4.070
288.108,4.048
289.308,4.026
290.508,4.005
291.708,3.986
292.908,3.968
294.108,3.952
295.308,3.939
296.508,3.930
297.708,3.924
298.908,3.923
300.108,3.928
301.308,3.938
302.508,3.954
303.708,3.974
304.908,4.000
306.115,4.031
307.315,4.058
308.515,4.092
309.715,4.128
310.915,4.163
312.115,4.189
313.315,4.198
314.515,4.181
315.328,4.152
315.903,4.123
317.103,4.080
318.303,4.050
319.503,4.030
320.703,4.018
321.903,4.013
323.103,4.011
324.303,4.010
325.700,4.012
326.900,4.009
328.100,3.997
329.300,3.975
330.500,3.944
331.436,3.912
332.712,3.858
333.912,3.812
335.112,3.763
336.312,3.713
337.512,3.662
338.712,3.611
339.912,3.559
341.112,3.508
342.312,3.457
343.512,3.408
344.712,3.359
345.912,3.313
347.112,3.269
348.312,3.227
349.512,3.188
350.712,3.153
351.912,3.121
353.112,3.094
##END=
