##TITLE=[7S-(7alpha,10alpha,12a alpha)]-N-(6,7,9,10-tetrahydro-1,2,3,10-tetramethoxy-9-oxo-5H-10,12a-epoxybenzo[a]heptalen-7-yl-acetamide
##JCAMP-DX=4.24
##DATA TYPE=UV/VIS SPECTRUM
##ORIGIN=INSTITUTE OF ENERGY PROBLEMS OF CHEMICAL PHYSICS, RAS
##OWNER=INEP CP RAS, NIST OSRD
Collection (C) 2007 copyright by the U.S. Secretary of Commerce
on behalf of the United States of America. All rights reserved.
##CAS REGISTRY NO=6788-02-9
##MOLFORM=C22H25NO7
##MP=251-253
##SOURCE REFERENCE=RAS UV No. 22582
##$NIST SQUIB=1977POT/1571
##$NIST SOURCE=TYUGLMTE
##SPECTROMETER/DATA SYSTEM=Unicam SP-700
##XUNITS=Wavelength (nm)
##YUNITS=Logarithm epsilon
##XFACTOR=1.0
##YFACTOR=1.0
##FIRSTX=205.933
##LASTX=371.384
##FIRSTY=4.633
##MAXX=371.384
##MINX=205.933
##MAXY=4.678
##MINY=2.286
##NPOINTS=112
##$REF AUTHOR=Potesilova, H.; et al.
##$REF JOURNAL=Coll. Czech. Chem. Comm.
##$REF VOLUME=42
##$REF PAGE=1571
##$REF DATE=1977
##XYPOINTS=(XY..XY)
205.933,4.633
207.433,4.643
208.933,4.648
210.433,4.663
211.933,4.678
213.433,4.677
214.933,4.650
216.433,4.595
217.933,4.526
219.200,4.467
220.700,4.423
222.200,4.381
223.700,4.345
225.200,4.316
226.700,4.295
228.200,4.278
229.700,4.266
231.200,4.253
232.700,4.239
234.200,4.221
235.700,4.198
237.200,4.168
238.700,4.132
240.200,4.090
241.700,4.042
243.200,3.989
244.700,3.930
245.956,3.873
247.456,3.796
248.956,3.714
250.456,3.632
251.956,3.554
253.456,3.484
254.956,3.424
256.456,3.374
257.956,3.335
259.456,3.306
260.956,3.287
262.456,3.275
263.956,3.270
265.456,3.269
266.956,3.271
268.456,3.274
269.956,3.277
271.456,3.279
272.956,3.278
274.207,3.276
275.707,3.264
277.207,3.252
278.707,3.240
280.207,3.226
281.707,3.212
283.207,3.197
284.707,3.181
286.207,3.164
287.707,3.146
289.207,3.129
290.707,3.111
292.207,3.093
293.707,3.075
295.207,3.057
296.707,3.040
298.207,3.023
299.707,3.006
301.207,2.989
302.707,2.973
304.207,2.957
305.707,2.940
307.207,2.924
308.707,2.907
310.207,2.890
311.707,2.873
313.207,2.855
314.707,2.837
316.207,2.818
317.707,2.799
319.207,2.779
320.707,2.760
322.207,2.740
323.384,2.725
324.884,2.708
326.384,2.690
327.884,2.671
329.384,2.652
330.884,2.633
332.384,2.613
333.884,2.594
335.384,2.574
336.884,2.556
338.384,2.538
339.884,2.521
341.384,2.506
342.884,2.492
344.384,2.479
345.884,2.468
347.384,2.458
348.884,2.449
350.384,2.441
351.884,2.434
353.384,2.427
354.884,2.420
356.384,2.413
357.884,2.405
359.384,2.396
360.884,2.385
362.384,2.373
363.884,2.359
365.384,2.345
366.884,2.329
368.384,2.313
369.884,2.298
371.384,2.286
##END=
