##TITLE=N-Butyl-1H-perimidin-2-amine
##JCAMP-DX=4.24
##DATA TYPE=UV/VIS SPECTRUM
##ORIGIN=INSTITUTE OF ENERGY PROBLEMS OF CHEMICAL PHYSICS, RAS
##OWNER=INEP CP RAS, NIST OSRD
Collection (C) 2007 copyright by the U.S. Secretary of Commerce
on behalf of the United States of America. All rights reserved.
##CAS REGISTRY NO=67818-85-3
##MOLFORM=C15H17N3
##MP=100-101
##SOURCE REFERENCE=RAS UV No. 22332
##$NIST SQUIB=1978LOP/843
##$NIST SOURCE=TYUGLMTE
##SPECTROMETER/DATA SYSTEM=Specord UV-Vis
##XUNITS=Wavelength (nm)
##YUNITS=Logarithm epsilon
##XFACTOR=1.0
##YFACTOR=1.0
##FIRSTX=219.362
##LASTX=396.522
##FIRSTY=4.687
##MAXX=396.522
##MINX=219.362
##MAXY=4.859
##MINY=3.288
##NPOINTS=150
##$REF AUTHOR=Lopatin, B.V.; et al.
##$REF JOURNAL=Khim. Geterosikl. Soedin.
##$REF PAGE=843
##$REF DATE=1978
##XYPOINTS=(XY..XY)
219.362,4.687
219.591,4.692
220.791,4.721
221.991,4.747
223.191,4.772
224.391,4.795
225.591,4.817
226.791,4.836
227.991,4.850
229.191,4.858
230.391,4.859
231.591,4.851
232.791,4.834
233.991,4.807
235.181,4.780
236.363,4.751
238.016,4.700
238.744,4.669
239.944,4.620
241.144,4.547
242.344,4.458
243.544,4.358
244.744,4.253
245.944,4.146
247.144,4.042
248.344,3.942
249.544,3.848
250.744,3.761
251.944,3.682
253.144,3.612
254.344,3.550
255.544,3.497
256.744,3.451
257.944,3.413
259.144,3.381
260.344,3.355
261.544,3.334
262.744,3.318
263.944,3.306
265.144,3.297
266.344,3.291
267.544,3.288
268.744,3.288
269.944,3.289
271.144,3.293
272.433,3.298
273.544,3.308
274.744,3.320
275.944,3.334
277.144,3.352
278.344,3.372
279.544,3.395
280.744,3.421
281.944,3.448
283.144,3.476
284.576,3.523
285.776,3.568
286.976,3.612
288.176,3.653
289.376,3.692
290.576,3.729
291.776,3.765
292.976,3.799
294.176,3.831
295.376,3.861
296.576,3.890
297.776,3.917
298.976,3.943
300.176,3.968
301.376,3.991
302.576,4.012
303.776,4.033
304.976,4.052
306.176,4.069
307.376,4.086
308.576,4.101
309.776,4.115
310.976,4.128
312.176,4.140
313.376,4.150
314.576,4.160
315.776,4.168
316.976,4.175
318.176,4.181
319.376,4.186
320.576,4.190
321.776,4.194
322.976,4.196
324.176,4.197
325.376,4.197
326.576,4.197
327.776,4.195
328.976,4.193
330.176,4.190
331.376,4.186
332.576,4.181
333.776,4.175
334.976,4.169
336.176,4.162
337.376,4.154
338.576,4.146
339.776,4.137
340.976,4.127
342.176,4.117
343.376,4.106
344.576,4.095
345.500,4.084
346.700,4.073
347.900,4.061
349.100,4.049
350.300,4.037
351.500,4.025
352.700,4.013
353.900,4.001
355.100,3.988
356.300,3.976
357.500,3.963
358.700,3.950
359.900,3.937
361.100,3.924
362.300,3.910
363.500,3.897
364.700,3.883
365.900,3.869
367.100,3.855
368.300,3.841
369.500,3.827
370.700,3.813
371.900,3.798
373.100,3.784
374.300,3.769
375.500,3.755
376.700,3.740
377.900,3.726
379.100,3.711
380.300,3.696
381.500,3.681
382.700,3.666
383.900,3.651
385.100,3.635
386.300,3.619
387.500,3.603
388.700,3.586
389.900,3.568
391.100,3.550
392.300,3.531
393.500,3.510
394.700,3.489
395.900,3.466
396.522,3.450
##END=
