##TITLE=4-ethyl-4,5-dihydro-4-methyl-5-methylene-N-phenyl-2-selenazolamine
##JCAMP-DX=4.24
##DATA TYPE=UV/VIS SPECTRUM
##ORIGIN=INSTITUTE OF ENERGY PROBLEMS OF CHEMICAL PHYSICS, RAS
##OWNER=INEP CP RAS, NIST OSRD
Collection (C) 2007 copyright by the U.S. Secretary of Commerce
on behalf of the United States of America. All rights reserved.
##CAS REGISTRY NO=67972-01-4
##MOLFORM=C13H16N2Se
##MP=130
##SOURCE REFERENCE=RAS UV No. 22298
##$NIST SQUIB=1978AZE/917
##$NIST SOURCE=TYUGLMTE
##SPECTROMETER/DATA SYSTEM=Specord UV-Vis
##XUNITS=Wavelength (nm)
##YUNITS=Logarithm epsilon
##XFACTOR=1.0
##YFACTOR=1.0
##FIRSTX=202.36
##LASTX=296.398
##FIRSTY=3.53
##MAXX=296.398
##MINX=202.36
##MAXY=3.535
##MINY=1.685
##NPOINTS=95
##$REF AUTHOR=Azerbayev, I.N.; et al.
##$REF JOURNAL=Khim. Geterosikl. Soedin.
##$REF PAGE=917
##$REF DATE=1978
##XYPOINTS=(XY..XY)
202.360,3.530
203.360,3.534
204.360,3.535
205.360,3.531
206.360,3.523
207.360,3.510
208.360,3.493
209.360,3.471
210.360,3.445
211.360,3.417
212.360,3.387
213.448,3.352
214.448,3.328
215.448,3.302
216.448,3.276
217.448,3.253
218.448,3.234
219.448,3.218
220.448,3.207
221.448,3.201
222.448,3.200
223.448,3.202
224.448,3.208
225.448,3.216
226.448,3.226
227.448,3.237
228.448,3.249
229.394,3.260
230.394,3.270
231.394,3.280
232.394,3.290
233.394,3.301
234.394,3.312
235.394,3.323
236.394,3.334
237.394,3.345
238.394,3.355
239.394,3.364
240.394,3.372
241.394,3.380
242.394,3.385
243.394,3.390
244.394,3.392
245.394,3.393
246.394,3.391
247.394,3.388
248.394,3.384
249.394,3.377
250.394,3.369
251.394,3.359
252.394,3.348
253.394,3.336
254.394,3.324
255.394,3.310
256.394,3.296
257.394,3.282
258.394,3.267
259.394,3.252
260.394,3.237
261.394,3.222
262.394,3.206
263.394,3.189
264.394,3.169
265.398,3.146
266.398,3.124
267.398,3.103
268.398,3.082
269.398,3.062
270.398,3.042
271.398,3.020
272.398,2.997
273.398,2.973
274.398,2.947
275.398,2.918
276.398,2.888
277.398,2.856
278.398,2.822
279.398,2.786
280.398,2.750
281.398,2.712
282.398,2.674
283.398,2.635
284.398,2.595
285.398,2.555
286.398,2.515
287.398,2.472
288.398,2.428
289.398,2.379
290.398,2.325
291.398,2.263
292.398,2.189
293.398,2.100
294.398,1.990
295.398,1.854
296.398,1.685
##END=
