##TITLE=Formamide, N,N-dimethyl-
##JCAMP-DX=4.24
##DATA TYPE=UV/VIS SPECTRUM
##ORIGIN=INSTITUTE OF ENERGY PROBLEMS OF CHEMICAL PHYSICS, RAS
##OWNER=INEP CP RAS, NIST OSRD
Collection (C) 2007 copyright by the U.S. Secretary of Commerce
on behalf of the United States of America. All rights reserved.
##CAS REGISTRY NO=68-12-2
##MOLFORM=C3H7NO
##MP=-60.4
##BP=153
##SOURCE REFERENCE=RAS UV No. 2819
##$NIST SQUIB=1953HUN/SIM4540-4543
##$NIST SOURCE=TSGMTE
##SPECTROMETER/DATA SYSTEM=n.i.g.
##XUNITS=Wavelength (nm)
##YUNITS=Logarithm epsilon
##XFACTOR=1.000000
##YFACTOR=1.000000
##FIRSTX=220.6118
##LASTX=295.4209
##FIRSTY=3.39144
##MAXX=295.421
##MINX=220.612
##MAXY=4.09853
##MINY=2.52876
##NPOINTS=184
##$REF AUTHOR=Hunt, H.D.; Simpson, W.T.
##$REF TITLE=Spectra of simple amides in the vacuum ultraviolet
##$REF JOURNAL=J. Am. Chem. Soc.
##$REF VOLUME=75
##$REF PAGE=4540-4543
##$REF DATE=1953
##XYPOINTS=(XY..XY)
220.6118,3.391442
220.9115,3.405724
221.2096,3.420014
221.5065,3.434310
221.8024,3.448612
222.0973,3.462918
222.3917,3.477228
222.6856,3.491542
222.9793,3.505858
223.2730,3.520175
223.5670,3.534494
223.8614,3.548812
224.1564,3.563130
224.4523,3.577446
224.7492,3.591760
225.0474,3.606070
225.3471,3.620377
225.6486,3.634680
225.9520,3.648977
226.2574,3.663268
226.5653,3.677552
226.8757,3.691828
227.1889,3.706096
227.5051,3.720354
227.8245,3.734602
228.1473,3.748840
228.4738,3.763066
228.8041,3.777279
229.1384,3.791480
229.4770,3.805666
229.8201,3.819838
230.1680,3.833994
230.5207,3.848134
230.8785,3.862257
231.2417,3.876362
231.6104,3.890448
231.9849,3.904515
232.3654,3.918562
232.7521,3.932588
233.1452,3.946592
233.5449,3.960574
233.9514,3.974532
234.3650,3.988466
234.7859,4.002376
234.7859,4.002376
235.2515,4.013904
235.7507,4.026260
236.2942,4.038974
236.8926,4.051576
237.5568,4.063596
238.2974,4.074565
239.1251,4.084013
240.0508,4.091469
241.0851,4.096465
242.2388,4.098530
243.5225,4.097194
244.9471,4.091988
244.9471,4.091988
245.9791,4.079311
246.8894,4.065212
247.6935,4.049987
248.4068,4.033931
249.0447,4.017341
249.6228,4.000513
250.1565,3.983741
250.6613,3.967322
250.6613,3.967322
250.9979,3.953294
251.3272,3.939237
251.6495,3.925153
251.9649,3.911042
252.2737,3.896904
252.5759,3.882741
252.8717,3.868554
253.1614,3.854342
253.4450,3.840108
253.7228,3.825852
253.9948,3.811573
254.2614,3.797274
254.5225,3.782956
254.7785,3.768618
255.0294,3.754262
255.2754,3.739888
255.5167,3.725497
255.7535,3.711091
255.9859,3.696669
256.2141,3.682233
256.4383,3.667783
256.6586,3.653321
256.8751,3.638846
257.0881,3.624360
257.2978,3.609863
257.5042,3.595357
257.7075,3.580842
257.9080,3.566319
258.1058,3.551788
258.3010,3.537251
258.4938,3.522708
258.6844,3.508160
258.8729,3.493608
259.0596,3.479052
259.2445,3.464494
259.4278,3.449934
259.6098,3.435372
259.7905,3.420811
259.9702,3.406250
260.1489,3.391690
260.3269,3.377132
260.5044,3.362578
260.6815,3.348026
260.8583,3.333479
261.0351,3.318938
261.2119,3.304402
261.3890,3.289873
261.5665,3.275352
261.7447,3.260839
261.9235,3.246335
262.1033,3.231841
262.2842,3.217358
262.4664,3.202886
262.4664,3.202886
262.7488,3.187156
263.0371,3.171515
263.3340,3.155951
263.6423,3.140453
263.9647,3.125009
264.3040,3.109607
264.6630,3.094236
265.0443,3.078885
265.4508,3.063540
265.8853,3.048192
266.3504,3.032827
266.8489,3.017435
267.3836,3.002004
267.9573,2.986522
267.9573,2.986522
268.9440,2.976778
269.8743,2.972845
271.4870,2.971777
271.4870,2.971777
273.1081,2.980442
274.6922,2.988994
276.3108,2.996317
278.0355,3.001300
279.9378,3.002831
279.9378,3.002831
281.1347,2.991734
282.1936,2.980570
283.1339,2.969252
283.9751,2.957691
284.2583,2.963204
284.4368,2.960299
284.6203,2.957341
284.7364,2.945799
284.8137,2.954274
285.4374,2.933490
286.0974,2.920675
286.7359,2.907266
287.3723,2.893176
288.0259,2.878317
288.7161,2.862601
288.7161,2.862601
289.1827,2.846447
289.6499,2.830259
290.1182,2.814045
290.5884,2.797810
291.0612,2.781561
291.5372,2.765305
291.5372,2.765305
291.7961,2.749536
292.0550,2.733766
292.3139,2.717997
292.5729,2.702228
292.8318,2.686458
293.0907,2.670689
293.3496,2.654920
293.6085,2.639150
293.8674,2.623381
294.1263,2.607612
294.3852,2.591842
294.6442,2.576073
294.9031,2.560304
295.1620,2.544534
295.4209,2.528765
##END=
