##TITLE=Silane, dimethoxydiphenyl-
##JCAMP-DX=4.24
##DATA TYPE=UV/VIS SPECTRUM
##ORIGIN=INSTITUTE OF ENERGY PROBLEMS OF CHEMICAL PHYSICS, RAS
##OWNER=INEP CP RAS, NIST OSRD
Collection (C) 2007 copyright by the U.S. Secretary of Commerce
on behalf of the United States of America. All rights reserved.
##CAS REGISTRY NO=6843-66-9
##MOLFORM=C14H16O2Si
##BP=161(15)
##SOURCE REFERENCE=RAS UV No. 4186
##$NIST SQUIB=1967NAG/HEN57-65
##$NIST SOURCE=TSGMTE
##SPECTROMETER/DATA SYSTEM=Spectronom 201 UV
##XUNITS=Wavelength (nm)
##YUNITS=Logarithm epsilon
##XFACTOR=1.000000
##YFACTOR=1.000000
##FIRSTX=206.6760
##LASTX=294.1768
##FIRSTY=3.94309
##MAXX=294.177
##MINX=206.676
##MAXY=4.02481
##MINY=0.886163
##NPOINTS=180
##$REF AUTHOR=Nagy, J.; Hencsei, P.
##$REF TITLE=Investigations on the bond structure of alkylphenoxy-silanes using ultraviolet spectrophotometric methods
##$REF JOURNAL=J. Organomet. Chem.
##$REF VOLUME=9
##$REF PAGE=57-65
##$REF DATE=1967
##XYPOINTS=(XY..XY)
206.6760,3.943090
207.4951,3.958192
208.3163,3.971506
209.1399,3.983117
209.9665,3.993108
210.7963,4.001564
211.6299,4.008568
212.4678,4.014205
213.3103,4.018557
214.1579,4.021711
215.0110,4.023748
215.8702,4.024754
216.7358,4.024812
217.6083,4.024006
217.6083,4.024006
218.3468,4.016649
219.0486,4.008482
220.2739,3.997871
220.4860,3.991384
221.1480,3.962595
221.8156,3.933799
222.4860,3.904999
222.4860,3.904999
223.0823,3.865777
223.6684,3.825432
224.2465,3.783960
224.8191,3.741357
225.3886,3.697622
225.9575,3.652749
226.5282,3.606736
226.5282,3.606736
226.8375,3.560465
227.1433,3.514056
227.4459,3.467516
227.7457,3.420856
228.0428,3.374084
228.3377,3.327210
228.6306,3.280242
228.9219,3.233190
229.2117,3.186062
229.5006,3.138868
229.7886,3.091616
230.0762,3.044315
230.3636,2.996975
230.6512,2.949605
230.9393,2.902214
231.2281,2.854809
231.5180,2.807402
231.8092,2.760000
232.1021,2.712613
232.3970,2.665250
232.6941,2.617919
232.9938,2.570631
233.2964,2.523392
233.6022,2.476215
233.9115,2.429105
234.2245,2.382074
234.5417,2.335129
234.5417,2.335129
234.9185,2.294772
235.3435,2.248755
235.8221,2.200673
236.3595,2.154121
236.9611,2.112696
237.6320,2.079992
238.3777,2.059605
238.3777,2.059605
239.3582,2.077465
240.2985,2.107941
241.2347,2.142380
241.2347,2.142380
242.1558,2.192871
242.9626,2.237131
243.6721,2.276120
244.3012,2.310797
244.8669,2.342121
245.3860,2.371053
245.8756,2.398552
246.3525,2.425576
246.8336,2.453086
247.3359,2.482042
247.8763,2.513401
248.4718,2.548125
249.1393,2.587172
249.8957,2.631501
250.7579,2.682073
250.7579,2.682073
251.3651,2.713164
251.9731,2.744633
252.5824,2.776402
253.1934,2.808396
253.8065,2.840538
254.4220,2.872753
255.0404,2.904963
255.6619,2.937094
256.2872,2.969067
256.9164,3.000809
257.5500,3.032242
258.1884,3.063291
258.8320,3.093879
259.4812,3.123930
260.1363,3.153368
260.7978,3.182117
261.4660,3.210101
262.1413,3.237244
262.8242,3.263468
263.5150,3.288699
264.2140,3.312860
264.9218,3.335876
265.6387,3.357669
266.3650,3.378164
267.1012,3.397285
267.8476,3.414955
267.8476,3.414955
268.8145,3.428439
269.7702,3.443874
270.7251,3.459181
271.6898,3.472281
272.6746,3.481095
273.6900,3.483542
273.6900,3.483542
274.1079,3.470892
274.8175,3.443214
276.4270,3.376782
276.4270,3.376782
277.5956,3.352944
278.8298,3.332456
280.0244,3.310646
280.0244,3.310646
280.7759,3.267528
281.3828,3.222904
281.8735,3.175974
282.2769,3.125941
282.6214,3.072009
282.9357,3.013376
283.2484,2.949247
283.2484,2.949247
283.6274,2.892387
284.0211,2.837400
284.4241,2.783087
284.8312,2.728253
285.2369,2.671701
285.6360,2.612232
285.6360,2.612232
285.7979,2.580029
285.9495,2.549838
286.0925,2.521293
286.2287,2.494024
286.3597,2.467664
286.4872,2.441844
286.6130,2.416197
286.7387,2.390355
286.8660,2.363950
286.9967,2.336612
287.1324,2.307975
287.2748,2.277671
287.4256,2.245330
287.5865,2.210586
287.7593,2.173070
287.9457,2.132414
288.1472,2.088251
288.3657,2.040212
288.6028,1.987928
288.8602,1.931034
289.1396,1.869158
289.4428,1.801935
289.7714,1.728995
290.1271,1.649971
290.5117,1.564496
290.9268,1.472199
291.3741,1.372713
291.8553,1.265674
291.8553,1.265674
292.1870,1.211457
292.5186,1.157242
292.8502,1.103027
293.1819,1.048811
293.5135,0.994594
293.8452,0.940377
294.1768,0.886163
##END=
