##TITLE=1,3-Butadiene, 1,1,2,3,4,4-hexafluoro-
##JCAMP-DX=4.24
##DATA TYPE=UV/VIS SPECTRUM
##ORIGIN=INSTITUTE OF ENERGY PROBLEMS OF CHEMICAL PHYSICS, RAS
##OWNER=INEP CP RAS, NIST OSRD
Collection (C) 2007 copyright by the U.S. Secretary of Commerce
on behalf of the United States of America. All rights reserved.
##CAS REGISTRY NO=685-63-2
##MOLFORM=C4F6
##SOURCE REFERENCE=RAS UV No. 14850
##$NIST SQUIB=1969POT/369
##$NIST SOURCE=TYUGLMTE
##SPECTROMETER/DATA SYSTEM=Robin Vacuum UV spectrophotometer
##XUNITS=Wavelength (nm)
##YUNITS=Logarithm epsilon
##XFACTOR=1.0
##YFACTOR=1.0
##FIRSTX=177.04
##LASTX=226.87
##FIRSTY=3.57
##MAXX=226.87
##MINX=177.04
##MAXY=3.57
##MINY=2.404
##NPOINTS=279
##$REF AUTHOR=Pottier, R.H.; et al.
##$REF JOURNAL=Spectroscopy Letters
##$REF VOLUME=2
##$REF PAGE=369
##$REF DATE=1969
##XYPOINTS=(XY..XY)
177.04,3.570
177.06,3.566
177.13,3.562
177.20,3.558
177.24,3.554
177.31,3.551
177.38,3.547
177.44,3.543
177.49,3.539
177.58,3.535
177.65,3.531
177.69,3.527
177.78,3.524
177.83,3.519
177.92,3.516
177.98,3.512
178.03,3.507
178.12,3.503
178.19,3.500
178.23,3.495
178.32,3.491
178.41,3.487
178.48,3.483
178.57,3.479
178.64,3.475
178.73,3.471
178.84,3.467
178.94,3.462
179.05,3.458
179.16,3.454
179.28,3.450
179.37,3.445
179.51,3.441
179.64,3.438
179.76,3.433
179.87,3.429
179.99,3.424
180.11,3.420
180.22,3.416
180.34,3.411
180.45,3.406
180.59,3.402
180.73,3.398
180.87,3.393
180.99,3.389
181.10,3.385
181.24,3.380
181.38,3.377
181.52,3.372
181.67,3.368
181.81,3.364
181.92,3.360
182.07,3.355
182.21,3.350
182.35,3.345
182.49,3.341
182.66,3.338
182.80,3.333
182.97,3.329
183.13,3.326
183.32,3.322
183.49,3.317
183.68,3.315
183.88,3.311
184.07,3.309
184.29,3.306
184.48,3.303
184.67,3.301
184.87,3.299
185.09,3.296
185.31,3.294
185.53,3.293
185.75,3.291
185.97,3.289
186.19,3.289
186.41,3.288
186.64,3.288
186.86,3.288
187.08,3.288
187.31,3.288
187.53,3.289
187.76,3.289
187.99,3.290
188.21,3.291
188.44,3.293
188.67,3.295
188.89,3.297
189.12,3.300
189.33,3.303
189.53,3.306
189.74,3.309
189.94,3.312
190.15,3.315
190.35,3.319
190.56,3.323
190.74,3.326
190.92,3.331
191.10,3.335
191.29,3.339
191.47,3.343
191.65,3.347
191.81,3.352
191.99,3.356
192.15,3.360
192.31,3.364
192.49,3.368
192.65,3.371
192.81,3.375
192.97,3.379
193.13,3.384
193.29,3.388
193.47,3.392
193.63,3.395
193.79,3.400
193.95,3.403
194.14,3.407
194.30,3.410
194.44,3.415
194.63,3.418
194.81,3.422
194.98,3.426
195.17,3.429
195.36,3.432
195.55,3.436
195.71,3.440
195.90,3.443
196.09,3.446
196.28,3.450
196.48,3.452
196.67,3.455
196.89,3.458
197.05,3.461
197.28,3.464
197.47,3.467
197.69,3.469
197.92,3.471
198.14,3.474
198.36,3.476
198.59,3.478
198.81,3.480
199.04,3.482
199.26,3.484
199.52,3.485
199.77,3.486
200.03,3.487
200.29,3.488
200.54,3.489
200.80,3.489
201.06,3.489
201.32,3.489
201.58,3.489
201.84,3.489
202.10,3.488
202.36,3.488
202.62,3.487
202.89,3.487
203.15,3.486
203.36,3.483
203.59,3.481
203.80,3.478
204.04,3.476
204.24,3.473
204.45,3.470
204.66,3.467
204.87,3.463
205.08,3.460
205.26,3.457
205.44,3.453
205.62,3.450
205.80,3.446
205.95,3.442
206.13,3.439
206.28,3.435
206.44,3.430
206.59,3.426
206.74,3.421
206.89,3.416
207.04,3.412
207.20,3.408
207.35,3.403
207.50,3.398
207.66,3.393
207.81,3.389
207.96,3.384
208.12,3.379
208.30,3.375
208.46,3.369
208.61,3.364
208.77,3.360
208.92,3.355
209.08,3.350
209.23,3.345
209.39,3.340
209.55,3.334
209.70,3.329
209.86,3.324
210.01,3.319
210.17,3.314
210.36,3.309
210.52,3.303
210.68,3.298
210.83,3.293
210.99,3.287
211.15,3.282
211.31,3.276
211.47,3.270
211.63,3.264
211.79,3.259
211.95,3.253
212.14,3.247
212.30,3.240
212.49,3.233
212.69,3.227
212.85,3.220
213.04,3.213
213.20,3.207
213.36,3.200
213.53,3.193
213.72,3.187
213.88,3.179
214.08,3.173
214.24,3.166
214.44,3.159
214.60,3.150
214.80,3.143
214.96,3.135
215.19,3.128
215.39,3.121
215.59,3.113
215.76,3.105
215.92,3.096
216.12,3.088
216.32,3.079
216.52,3.070
216.69,3.061
216.89,3.051
217.06,3.040
217.26,3.030
217.46,3.020
217.66,3.010
217.86,3.001
218.07,2.990
218.24,2.977
218.44,2.966
218.68,2.956
218.88,2.944
219.05,2.932
219.26,2.919
219.46,2.906
219.67,2.894
219.87,2.881
220.08,2.868
220.29,2.854
220.50,2.841
220.70,2.827
220.95,2.813
221.16,2.797
221.36,2.782
221.57,2.766
221.78,2.750
222.03,2.734
222.27,2.719
222.45,2.699
222.70,2.680
222.95,2.663
223.16,2.643
223.44,2.626
223.69,2.603
223.98,2.584
224.23,2.563
224.51,2.546
224.80,2.524
225.09,2.506
225.38,2.486
225.70,2.476
225.99,2.455
226.28,2.439
226.58,2.422
226.87,2.404
##END=
