##TITLE=Acetamide, N,N-diethyl-
##JCAMP-DX=4.24
##DATA TYPE=UV/VIS SPECTRUM
##ORIGIN=INSTITUTE OF ENERGY PROBLEMS OF CHEMICAL PHYSICS, RAS
##OWNER=INEP CP RAS, NIST OSRD
Collection (C) 2007 copyright by the U.S. Secretary of Commerce
on behalf of the United States of America. All rights reserved.
##CAS REGISTRY NO=685-91-6
##MOLFORM=C6H13NO
##BP=185.5
##SOURCE REFERENCE=RAS UV No. 4054
##$NIST SQUIB=1967NIE/SCH2297-2304
##$NIST SOURCE=TSGMTE
##SPECTROMETER/DATA SYSTEM=n.i.g.
##XUNITS=Wavelength (nm)
##YUNITS=Logarithm epsilon
##XFACTOR=1.000000
##YFACTOR=1.000000
##FIRSTX=184.1708
##LASTX=225.8047
##FIRSTY=3.68151
##MAXX=225.805
##MINX=184.171
##MAXY=3.86828
##MINY=2.93484
##NPOINTS=310
##$REF AUTHOR=Nielsen, E.B.; Schellman, J.A.
##$REF TITLE=The absorption spectra of simple amides and peptides
##$REF JOURNAL=J. Phys. Chem.
##$REF VOLUME=71
##$REF NUMBER=7
##$REF PAGE=2297-2304
##$REF DATE=1967
##XYPOINTS=(XY..XY)
184.1708,3.681506
184.2665,3.682989
184.3507,3.682970
184.4361,3.684637
184.5308,3.684616
184.6161,3.686091
184.7003,3.686072
184.7960,3.687540
184.9644,3.687503
185.0603,3.689150
185.1445,3.689132
185.1468,3.692267
185.2310,3.692248
185.2320,3.693716
185.4109,3.693677
185.4962,3.695121
185.4974,3.696761
186.5574,3.706959
186.6416,3.706941
186.7374,3.708340
186.8216,3.708322
186.8228,3.709913
186.9070,3.709895
187.0880,3.712672
187.1722,3.712654
187.2681,3.714209
187.3523,3.714192
187.3533,3.715587
187.4375,3.715570
187.6187,3.718483
187.7029,3.718466
187.7039,3.719847
187.7986,3.719828
187.7997,3.721205
187.8839,3.721188
187.9693,3.722715
188.8599,3.731019
188.8609,3.732362
188.9462,3.733683
189.0304,3.733666
189.0316,3.735167
189.1158,3.735150
189.2115,3.736461
189.2957,3.736445
189.2968,3.737770
189.3810,3.737754
189.3822,3.739240
189.4769,3.739222
189.4779,3.740539
189.6463,3.740506
189.6474,3.741819
189.7421,3.741801
189.7433,3.743274
189.8275,3.743257
189.9127,3.744546
190.7098,3.753902
190.8045,3.753884
191.1562,3.759049
191.2404,3.759033
191.2414,3.760292
191.3361,3.760274
191.6879,3.765519
191.7721,3.765503
191.7732,3.766743
191.8679,3.766726
192.1238,3.770532
193.3693,3.786578
193.4535,3.786563
194.1675,3.796238
194.9667,3.806818
195.0509,3.806804
195.9354,3.818358
195.9365,3.819456
197.3632,3.836041
197.3642,3.837095
197.4496,3.838265
197.5338,3.838252
197.5349,3.839301
197.7980,3.839260
197.8013,3.842522
198.8648,3.853148
198.9500,3.854148
199.0447,3.854134
199.1300,3.855133
199.2142,3.855120
199.2153,3.856255
199.3943,3.856229
199.3953,3.857235
199.4795,3.857222
199.4806,3.858227
199.5753,3.858212
199.6607,3.859327
199.7449,3.859314
200.6355,3.865393
200.9828,3.865343
201.0680,3.866316
201.4153,3.866265
201.5111,3.867235
201.8584,3.867184
201.9438,3.868276
202.1227,3.868250
203.1740,3.866992
203.5213,3.866941
203.6149,3.865943
203.8675,3.865906
203.9612,3.864906
204.2231,3.863755
204.2243,3.864867
204.3073,3.863742
204.3904,3.862738
205.3521,3.856345
205.4352,3.855324
205.5300,3.855310
205.6961,3.853133
205.7886,3.850957
205.7908,3.853119
205.8717,3.849923
205.8728,3.850944
205.9548,3.848759
206.1326,3.847705
206.1337,3.848731
206.2168,3.847692
206.4756,3.843392
206.4766,3.844428
207.2550,3.833427
207.2561,3.834487
207.5126,3.827773
207.5149,3.830054
207.5946,3.825468
207.5968,3.827760
207.6882,3.824370
207.6893,3.825453
207.8533,3.820940
207.8544,3.822032
208.5464,3.808069
208.5476,3.809333
208.7220,3.804506
208.7232,3.805781
208.8041,3.802216
208.8051,3.803355
208.8871,3.800916
208.8883,3.802201
209.0627,3.797294
209.0638,3.798446
209.1447,3.794820
209.1469,3.797279
209.2384,3.793641
209.2394,3.794804
209.4045,3.791132
209.8346,3.777529
209.9165,3.774940
209.9176,3.776153
210.0911,3.769866
210.0932,3.772317
210.1741,3.768465
210.1753,3.769850
210.3497,3.764561
210.3509,3.765959
210.4306,3.760639
210.4329,3.763299
210.9426,3.743245
210.9437,3.744550
211.1171,3.737619
211.1193,3.740424
211.2002,3.736276
211.2013,3.737603
211.2822,3.733428
211.2834,3.734930
211.3736,3.729211
211.3758,3.732070
211.5377,3.723572
211.5399,3.726469
212.0497,3.704594
212.0507,3.706021
212.1411,3.700086
212.1432,3.702964
212.3050,3.693871
212.3073,3.696972
212.3976,3.690911
212.3987,3.692383
212.4785,3.686261
212.4806,3.689231
212.5583,3.679861
212.5615,3.684562
212.8137,3.668695
212.8158,3.671788
212.8957,3.665365
212.8979,3.668676
212.9882,3.662008
212.9904,3.665343
213.0703,3.658825
213.0713,3.660409
213.1522,3.655418
213.1533,3.657015
213.2459,3.653792
213.2469,3.655395
213.3279,3.650346
213.3289,3.651962
213.4098,3.646872
213.4110,3.648704
213.5012,3.641719
213.5035,3.645214
214.0133,3.618699
214.0155,3.622384
214.0952,3.614962
214.0964,3.616933
214.1761,3.609416
214.1784,3.613180
214.2665,3.601991
214.2698,3.607609
214.9447,3.572557
214.9457,3.574489
215.0371,3.568395
215.0382,3.570346
215.1191,3.564197
215.1203,3.566412
215.2012,3.560206
215.2022,3.562193
215.2926,3.553907
215.2947,3.557931
215.7110,3.527739
215.7120,3.529880
215.7929,3.523126
215.7940,3.525290
215.8854,3.518460
215.8865,3.520647
215.9674,3.513746
215.9685,3.516233
216.0483,3.506734
216.0505,3.511496
216.5613,3.477426
216.5636,3.482518
216.6550,3.474975
216.6560,3.477392
216.7370,3.469762
216.7381,3.472513
216.8201,3.467271
217.5055,3.418061
217.5088,3.426613
217.5875,3.412114
217.5886,3.415254
217.6799,3.406079
217.6822,3.412074
217.7598,3.394163
217.7631,3.403193
217.8417,3.387877
217.8429,3.391197
217.9344,3.381869
217.9354,3.384862
218.4402,3.352508
218.5327,3.345579
218.5337,3.348832
218.6978,3.335169
218.6988,3.338501
218.7903,3.327955
218.7914,3.331764
218.8734,3.324498
218.8744,3.327912
218.9554,3.317108
218.9565,3.321013
219.0480,3.310028
219.0501,3.317059
219.1310,3.305978
219.1322,3.309984
219.2141,3.302341
219.6463,3.266876
219.7282,3.258427
219.7294,3.262894
219.8219,3.254361
219.8230,3.258371
219.9870,3.241482
219.9881,3.245612
220.0805,3.236729
220.0817,3.241423
220.3393,3.218896
220.3404,3.223246
220.4224,3.214448
220.4235,3.218842
220.5055,3.209395
221.2839,3.159785
221.2849,3.164765
221.3670,3.154683
221.4605,3.148872
221.4617,3.154612
221.5437,3.143640
221.5447,3.148807
221.6268,3.138344
221.6279,3.143575
221.8035,3.126871
222.8450,3.065879
222.9280,3.058748
223.1048,3.045745
223.1069,3.058580
223.1890,3.045664
223.2815,3.031501
223.2826,3.038180
223.4487,3.023691
223.4499,3.031333
223.6255,3.009578
223.7085,3.001450
223.7097,3.009489
223.8033,3.001349
223.8864,2.993983
224.9356,2.969213
225.0187,2.961276
225.1017,2.952182
225.1029,2.961177
225.7216,2.943268
225.7226,2.951437
225.8047,2.934837
##END=
