##TITLE=1,5-dihydro-2-methyl-4H-pyrido[3,2-b]indol-4-one
##JCAMP-DX=4.24
##DATA TYPE=UV/VIS SPECTRUM
##ORIGIN=INSTITUTE OF ENERGY PROBLEMS OF CHEMICAL PHYSICS, RAS
##OWNER=INEP CP RAS, NIST OSRD
Collection (C) 2007 copyright by the U.S. Secretary of Commerce
on behalf of the United States of America. All rights reserved.
##CAS REGISTRY NO=68834-98-0
##MOLFORM=C12H10N2O
##SOURCE REFERENCE=RAS UV No. 22387
##$NIST SQUIB=1978VEL/1712
##$NIST SOURCE=TYUGLMTE
##SPECTROMETER/DATA SYSTEM=Specord UV-Vis
##XUNITS=Wavelength (nm)
##YUNITS=Logarithm epsilon
##XFACTOR=1.0
##YFACTOR=1.0
##FIRSTX=202.319
##LASTX=349.182
##FIRSTY=4.143
##MAXX=349.182
##MINX=202.319
##MAXY=4.392
##MINY=3.453
##NPOINTS=174
##$REF AUTHOR=Velezheva, V.S.; et al.
##$REF JOURNAL=Zhur. Organ. Khim.
##$REF VOLUME=14
##$REF PAGE=1712
##$REF DATE=1978
##XYPOINTS=(XY..XY)
202.319,4.143
203.319,4.171
204.319,4.195
205.319,4.215
206.319,4.233
207.319,4.249
208.319,4.264
209.319,4.277
210.319,4.289
211.319,4.301
212.319,4.312
213.319,4.322
214.319,4.331
215.319,4.339
216.319,4.346
217.319,4.352
218.319,4.355
219.319,4.356
220.319,4.353
221.319,4.347
222.319,4.335
223.319,4.317
224.319,4.291
225.319,4.256
225.497,4.246
226.497,4.169
227.497,4.115
228.497,4.079
229.497,4.055
230.497,4.040
231.497,4.032
232.497,4.028
233.497,4.026
234.497,4.025
235.497,4.025
236.497,4.026
237.497,4.029
238.497,4.036
239.497,4.049
240.497,4.071
241.482,4.104
242.482,4.154
243.482,4.198
244.482,4.235
245.482,4.265
246.482,4.289
247.482,4.307
248.482,4.319
249.482,4.325
250.674,4.340
251.788,4.358
251.873,4.359
252.673,4.371
253.473,4.384
254.273,4.392
255.073,4.387
255.873,4.365
256.128,4.351
256.468,4.334
257.268,4.289
258.068,4.246
258.868,4.207
259.668,4.172
260.468,4.143
261.268,4.118
262.068,4.099
262.868,4.085
263.668,4.075
264.468,4.070
265.268,4.067
266.068,4.068
266.868,4.070
267.668,4.074
268.468,4.079
269.268,4.084
270.068,4.089
270.868,4.095
271.854,4.107
273.053,4.123
274.052,4.137
274.653,4.150
275.453,4.171
275.952,4.184
277.166,4.191
277.853,4.176
278.653,4.156
279.453,4.132
280.246,4.106
281.046,4.082
281.846,4.056
282.646,4.030
283.446,4.005
284.246,3.984
285.046,3.967
285.846,3.958
286.646,3.957
287.639,3.969
288.439,3.984
289.239,3.989
290.039,3.989
290.836,3.984
291.636,3.968
292.436,3.960
293.236,3.959
294.036,3.963
294.836,3.970
295.831,3.985
296.631,4.006
297.431,4.026
298.231,4.042
299.031,4.055
299.831,4.063
300.631,4.065
301.431,4.062
302.231,4.053
303.031,4.038
303.831,4.020
304.631,3.997
305.422,3.975
306.222,3.941
307.022,3.909
307.822,3.880
308.622,3.854
309.422,3.830
310.222,3.808
311.022,3.790
311.822,3.774
312.622,3.760
313.422,3.749
314.222,3.740
315.022,3.734
315.822,3.730
316.622,3.729
317.422,3.730
318.222,3.732
319.010,3.737
319.810,3.747
320.610,3.756
321.410,3.763
322.210,3.770
323.010,3.777
323.810,3.784
324.610,3.793
325.410,3.801
326.210,3.809
327.010,3.816
327.810,3.820
328.610,3.822
329.410,3.818
330.210,3.807
330.799,3.795
331.599,3.774
332.399,3.759
333.199,3.747
333.999,3.740
334.799,3.736
335.599,3.736
336.399,3.739
337.199,3.746
338.282,3.757
339.082,3.765
339.882,3.776
340.682,3.785
341.482,3.791
342.282,3.791
343.082,3.784
343.882,3.767
344.682,3.742
345.482,3.707
346.282,3.663
347.082,3.612
347.882,3.555
348.682,3.494
349.182,3.453
##END=
