##TITLE=4,9-Dihydro-2-hydroxy-1-methyl-4,9-dioxo-1H-benz[f]indole-3-carboxylic acid, ethyl ester
##JCAMP-DX=4.24
##DATA TYPE=UV/VIS SPECTRUM
##ORIGIN=INSTITUTE OF ENERGY PROBLEMS OF CHEMICAL PHYSICS, RAS
##OWNER=INEP CP RAS, NIST OSRD
Collection (C) 2007 copyright by the U.S. Secretary of Commerce
on behalf of the United States of America. All rights reserved.
##CAS REGISTRY NO=69060-59-9
##MOLFORM=C16H13NO5
##MP=220 dec.
##SOURCE REFERENCE=RAS UV No. 22291
##$NIST SQUIB=1978SHA/1636
##$NIST SOURCE=TYUGLMTE
##SPECTROMETER/DATA SYSTEM=Specord UV-Vis
##XUNITS=Wavelength (nm)
##YUNITS=Logarithm epsilon
##XFACTOR=1.0
##YFACTOR=1.0
##FIRSTX=209.262
##LASTX=480.594
##FIRSTY=4.171
##MAXX=480.594
##MINX=209.262
##MAXY=4.394
##MINY=3.108
##NPOINTS=139
##$REF AUTHOR=Sharhnovich, A.I.; et al.
##$REF JOURNAL=Khim. Geterosikl. Soedin.
##$REF PAGE=1636
##$REF DATE=1978
##XYPOINTS=(XY..XY)
209.262,4.171
211.262,4.119
213.262,4.078
215.262,4.042
217.262,4.009
219.262,3.982
221.262,3.963
223.262,3.957
225.262,3.963
227.262,3.980
229.262,4.003
231.262,4.030
232.885,4.053
234.885,4.080
236.885,4.107
238.885,4.136
240.885,4.163
242.885,4.191
244.885,4.216
246.885,4.240
248.885,4.262
250.885,4.283
252.885,4.304
254.885,4.328
256.875,4.358
258.875,4.377
260.875,4.389
262.875,4.394
264.875,4.391
266.875,4.381
268.875,4.366
270.875,4.345
272.875,4.321
274.875,4.294
276.875,4.264
278.875,4.231
280.875,4.194
282.875,4.151
284.875,4.098
286.875,4.030
286.947,4.032
288.947,3.918
290.947,3.835
292.947,3.775
294.947,3.733
296.947,3.707
298.947,3.694
300.947,3.692
302.947,3.699
304.947,3.711
306.947,3.722
306.995,3.723
308.995,3.732
310.995,3.737
312.995,3.741
314.995,3.743
316.995,3.744
318.995,3.742
320.995,3.736
322.995,3.725
324.995,3.707
326.995,3.682
328.995,3.649
330.833,3.612
332.833,3.564
334.833,3.516
336.833,3.468
338.833,3.421
340.833,3.377
342.833,3.336
344.833,3.298
346.833,3.264
348.833,3.233
350.833,3.206
352.833,3.183
354.833,3.163
356.833,3.146
358.833,3.133
360.833,3.122
362.833,3.115
364.833,3.110
366.833,3.108
368.833,3.110
370.833,3.117
372.833,3.128
374.833,3.145
376.833,3.169
378.594,3.195
380.594,3.227
382.594,3.257
384.594,3.286
386.594,3.313
388.594,3.338
390.594,3.360
392.594,3.381
394.594,3.400
396.594,3.416
398.594,3.432
400.594,3.446
402.594,3.458
404.594,3.470
406.594,3.481
408.594,3.492
410.594,3.502
412.594,3.511
414.594,3.520
416.594,3.529
418.594,3.537
420.594,3.545
422.594,3.552
424.594,3.558
426.594,3.564
428.594,3.568
430.594,3.571
432.594,3.573
434.594,3.573
436.594,3.572
438.594,3.568
440.594,3.563
442.594,3.556
444.594,3.547
446.594,3.536
448.594,3.523
450.594,3.509
452.594,3.492
454.594,3.473
456.594,3.454
458.594,3.432
460.594,3.410
462.594,3.386
464.594,3.361
466.594,3.336
468.594,3.310
470.594,3.283
472.594,3.255
474.594,3.226
476.594,3.195
478.594,3.162
480.594,3.126
##END=
