##TITLE=Quinoxaline, 1-oxide
##JCAMP-DX=4.24
##DATA TYPE=UV/VIS SPECTRUM
##ORIGIN=INSTITUTE OF ENERGY PROBLEMS OF CHEMICAL PHYSICS, RAS
##OWNER=INEP CP RAS, NIST OSRD
Collection (C) 2007 copyright by the U.S. Secretary of Commerce
on behalf of the United States of America. All rights reserved.
##CAS REGISTRY NO=6935-29-1
##MOLFORM=C8H6N2O
##MP=126.5
##SOURCE REFERENCE=RAS UV No. 23729
##$NIST SQUIB=1974DVO/1554
##$NIST SOURCE=TYUGLMTE
##SPECTROMETER/DATA SYSTEM=Hitachi EPS-3
##XUNITS=Wavelength (nm)
##YUNITS=Logarithm epsilon
##XFACTOR=1.0
##YFACTOR=1.0
##FIRSTX=219.36
##LASTX=393.756
##FIRSTY=3.939
##MAXX=393.756
##MINX=219.36
##MAXY=4.53
##MINY=3.289
##NPOINTS=178
##$REF AUTHOR=Dvoryantseva, G.G.; et al.
##$REF JOURNAL=Khim. Geterosikl. Soedin.
##$REF PAGE=1554
##$REF DATE=1974
##XYPOINTS=(XY..XY)
219.360,3.939
220.360,3.934
221.360,3.930
222.360,3.928
223.360,3.927
224.360,3.927
225.360,3.929
226.360,3.933
227.360,3.940
228.360,3.950
229.360,3.964
230.360,3.982
231.360,4.005
232.360,4.032
233.360,4.062
234.360,4.096
235.513,4.131
236.608,4.166
237.334,4.193
238.334,4.231
239.334,4.279
240.334,4.330
241.334,4.380
242.334,4.427
243.334,4.467
244.334,4.499
245.334,4.520
246.334,4.530
247.334,4.530
248.334,4.519
248.867,4.508
249.566,4.492
250.381,4.471
251.381,4.448
252.381,4.412
253.381,4.359
254.381,4.290
255.381,4.212
256.381,4.130
257.381,4.052
257.961,4.009
258.510,3.979
259.510,3.931
260.510,3.889
261.510,3.853
262.510,3.822
263.510,3.796
264.510,3.775
265.510,3.757
266.510,3.743
267.510,3.732
268.510,3.725
269.510,3.719
270.510,3.717
271.510,3.717
272.510,3.719
273.510,3.723
274.510,3.729
275.510,3.736
276.510,3.745
277.510,3.755
278.510,3.766
279.510,3.778
280.510,3.791
281.510,3.804
282.510,3.817
282.876,3.822
283.876,3.832
284.876,3.842
285.876,3.852
286.876,3.861
287.876,3.871
288.876,3.879
289.876,3.887
290.876,3.895
291.876,3.902
292.876,3.909
293.876,3.915
294.876,3.920
295.876,3.925
296.876,3.928
297.876,3.932
298.876,3.934
299.876,3.936
300.876,3.937
301.876,3.937
302.876,3.937
303.876,3.936
304.876,3.935
305.876,3.933
306.876,3.932
307.876,3.931
308.876,3.929
309.981,3.925
311.159,3.924
312.159,3.924
313.159,3.927
314.159,3.931
315.159,3.936
316.159,3.942
317.159,3.949
318.159,3.956
319.159,3.963
320.159,3.970
321.159,3.978
322.159,3.986
323.159,3.994
324.159,4.004
325.159,4.013
326.159,4.024
327.159,4.034
328.159,4.045
329.159,4.056
330.159,4.065
330.964,4.072
332.061,4.080
333.061,4.085
334.061,4.090
335.061,4.094
336.061,4.097
337.061,4.100
338.061,4.103
339.061,4.104
340.061,4.105
341.061,4.106
342.061,4.105
343.061,4.104
344.061,4.102
345.061,4.099
346.061,4.095
347.061,4.091
348.061,4.085
349.061,4.079
350.061,4.072
351.061,4.064
352.061,4.055
353.061,4.045
354.061,4.035
355.061,4.024
356.061,4.012
357.061,3.999
358.061,3.986
359.061,3.972
360.061,3.957
361.061,3.942
362.061,3.926
363.061,3.910
364.061,3.893
365.061,3.875
366.061,3.858
367.061,3.840
368.061,3.821
369.061,3.802
370.061,3.783
371.061,3.763
372.061,3.744
373.061,3.724
374.061,3.704
375.061,3.684
376.061,3.663
377.061,3.643
378.061,3.622
379.061,3.602
380.061,3.581
381.061,3.561
382.061,3.540
383.061,3.519
384.061,3.499
385.061,3.478
386.061,3.458
387.061,3.437
388.061,3.417
389.061,3.397
390.061,3.376
391.061,3.356
392.061,3.335
393.061,3.314
393.756,3.289
##END=
