##TITLE=2-methylthio-[1,3]thiazino[5,4-b]indole-4(5H)-thione
##JCAMP-DX=4.24
##DATA TYPE=UV/VIS SPECTRUM
##ORIGIN=INSTITUTE OF ENERGY PROBLEMS OF CHEMICAL PHYSICS, RAS
##OWNER=INEP CP RAS, NIST OSRD
Collection (C) 2007 copyright by the U.S. Secretary of Commerce
on behalf of the United States of America. All rights reserved.
##CAS REGISTRY NO=69344-01-0
##MOLFORM=C11H8N2S3
##MP=219-220
##SOURCE REFERENCE=RAS UV No. 22285
##$NIST SQUIB=1978VEL/1497
##$NIST SOURCE=TYUGLMTE
##SPECTROMETER/DATA SYSTEM=Specord UV-Vis
##XUNITS=Wavelength (nm)
##YUNITS=Logarithm epsilon
##XFACTOR=1.0
##YFACTOR=1.0
##FIRSTX=210.375
##LASTX=514.365
##FIRSTY=4.5
##MAXX=514.365
##MINX=210.375
##MAXY=4.5
##MINY=2.816
##NPOINTS=209
##$REF AUTHOR=Velezheva, V.S.; et al.
##$REF JOURNAL=Khim. Geterosikl. Soedin.
##$REF PAGE=1497
##$REF DATE=1978
##XYPOINTS=(XY..XY)
210.375,4.500
210.774,4.491
212.274,4.458
213.774,4.432
215.274,4.414
216.774,4.404
218.274,4.400
219.774,4.401
221.274,4.404
222.774,4.407
224.274,4.408
225.774,4.404
227.274,4.394
228.774,4.379
230.274,4.360
231.774,4.336
232.774,4.315
233.340,4.297
234.840,4.252
236.340,4.220
237.840,4.196
239.340,4.180
240.840,4.169
242.340,4.161
243.840,4.158
245.340,4.160
246.638,4.166
248.138,4.184
249.638,4.199
251.138,4.210
252.638,4.214
254.138,4.211
255.638,4.201
257.138,4.180
258.323,4.161
259.823,4.134
261.323,4.110
262.823,4.091
264.323,4.075
265.823,4.063
267.323,4.054
268.823,4.049
270.323,4.047
271.823,4.049
273.323,4.054
274.823,4.062
276.323,4.073
277.823,4.087
279.323,4.105
280.823,4.125
282.323,4.148
283.823,4.174
285.323,4.203
285.725,4.208
287.225,4.224
288.725,4.238
290.225,4.252
291.725,4.265
293.225,4.278
294.725,4.291
296.225,4.302
297.725,4.313
299.225,4.323
300.725,4.331
302.225,4.336
303.725,4.339
305.225,4.339
306.725,4.335
308.225,4.327
309.725,4.316
311.225,4.301
312.725,4.282
314.225,4.261
315.725,4.236
317.225,4.208
318.725,4.179
320.225,4.148
321.725,4.117
322.609,4.098
323.200,4.080
324.700,4.040
326.200,3.999
327.700,3.957
329.200,3.914
330.700,3.871
332.200,3.830
333.700,3.790
335.200,3.752
336.700,3.718
338.200,3.689
339.700,3.664
341.200,3.645
342.700,3.632
344.200,3.625
345.700,3.624
347.200,3.629
348.700,3.638
350.200,3.651
351.700,3.667
353.200,3.685
354.630,3.701
356.130,3.715
357.630,3.729
359.130,3.746
360.630,3.764
362.130,3.784
363.630,3.806
365.130,3.828
366.630,3.852
368.130,3.876
369.630,3.900
371.130,3.922
372.630,3.943
374.130,3.962
375.630,3.978
377.130,3.990
378.630,3.999
380.130,4.003
381.630,4.003
383.130,3.998
384.630,3.988
386.130,3.975
387.630,3.957
388.076,3.949
389.576,3.920
391.076,3.894
392.576,3.872
394.076,3.854
395.576,3.841
397.076,3.832
398.576,3.828
400.076,3.828
401.576,3.833
403.076,3.840
404.576,3.850
406.076,3.862
407.576,3.875
409.076,3.890
410.576,3.904
412.076,3.918
413.576,3.932
413.865,3.936
415.365,3.958
416.865,3.980
418.365,4.001
419.865,4.021
421.365,4.040
422.865,4.056
424.365,4.070
425.865,4.081
427.365,4.091
428.865,4.098
430.365,4.103
431.865,4.106
433.365,4.108
434.865,4.109
436.365,4.109
437.865,4.107
439.365,4.105
440.865,4.101
442.365,4.096
443.865,4.089
445.365,4.080
446.865,4.068
448.365,4.050
449.865,4.027
451.365,3.997
452.865,3.950
454.365,3.903
455.865,3.848
457.365,3.789
458.865,3.727
460.365,3.663
461.865,3.598
463.365,3.534
464.865,3.472
466.365,3.412
467.865,3.354
469.365,3.300
470.865,3.250
472.365,3.203
473.865,3.159
475.365,3.120
476.865,3.084
478.365,3.052
479.865,3.024
481.365,2.998
482.865,2.976
484.365,2.956
485.865,2.939
487.365,2.924
488.865,2.911
490.365,2.899
491.865,2.889
493.365,2.881
494.865,2.873
496.365,2.866
497.865,2.860
499.365,2.855
500.865,2.850
502.365,2.846
503.865,2.841
505.365,2.837
506.865,2.834
508.365,2.830
509.865,2.827
511.365,2.823
512.865,2.820
514.365,2.816
##END=
