##TITLE=Bicyclo[4.2.0]octa-1,3,5-triene
##JCAMP-DX=4.24
##DATA TYPE=UV/VIS SPECTRUM
##ORIGIN=INSTITUTE OF ENERGY PROBLEMS OF CHEMICAL PHYSICS, RAS
##OWNER=INEP CP RAS, NIST OSRD
Collection (C) 2007 copyright by the U.S. Secretary of Commerce
on behalf of the United States of America. All rights reserved.
##CAS REGISTRY NO=694-87-1
##MOLFORM=C8H8
##BP=150/ 748 mm
##SOURCE REFERENCE=RAS UV No. 16974
##$NIST SQUIB=1974BRO/2385
##$NIST SOURCE=TYUGLMTE
##SPECTROMETER/DATA SYSTEM=Unicam SP 700
##XUNITS=Wavelength (nm)
##YUNITS=Logarithm epsilon
##XFACTOR=1.0
##YFACTOR=1.0
##FIRSTX=211.81
##LASTX=276.91
##FIRSTY=3.356
##MAXX=276.91
##MINX=211.81
##MAXY=3.356
##MINY=1.529
##NPOINTS=284
##$REF AUTHOR=Brovko, V.V.; et al.
##$REF JOURNAL=Zhur. Organ. Khim.
##$REF VOLUME=10
##$REF PAGE=2385
##$REF DATE=1974
##XYPOINTS=(XY..XY)
211.81,3.356
212.03,3.284
212.26,3.239
212.49,3.219
212.71,3.180
212.94,3.148
213.16,3.115
213.39,3.076
213.62,2.985
213.84,2.933
214.07,2.888
214.29,2.849
214.52,2.790
214.75,2.732
214.97,2.699
215.20,2.673
215.42,2.621
215.65,2.576
215.88,2.530
216.10,2.498
216.33,2.465
216.56,2.420
216.78,2.381
217.01,2.348
217.23,2.322
217.46,2.296
217.69,2.218
217.91,2.147
218.14,2.108
218.36,2.056
218.59,2.010
218.82,1.965
219.04,1.919
219.27,1.893
219.49,1.861
219.72,1.828
219.95,1.796
220.17,1.776
220.40,1.757
220.62,1.711
220.85,1.705
221.08,1.692
221.30,1.672
221.53,1.659
221.75,1.646
221.98,1.633
222.21,1.620
222.43,1.607
222.66,1.594
222.88,1.588
223.11,1.581
223.34,1.568
223.56,1.555
223.79,1.549
224.01,1.536
224.24,1.529
224.47,1.529
224.69,1.529
224.92,1.529
225.14,1.529
225.37,1.536
225.60,1.536
225.82,1.542
226.05,1.542
226.27,1.549
226.50,1.555
226.73,1.562
226.95,1.562
227.18,1.568
227.41,1.575
227.63,1.581
227.86,1.588
228.08,1.594
228.31,1.601
228.54,1.607
228.76,1.614
228.99,1.620
229.21,1.627
229.44,1.633
229.67,1.640
229.89,1.646
230.12,1.653
230.34,1.666
230.57,1.672
230.80,1.679
231.02,1.685
231.25,1.692
231.47,1.698
231.70,1.705
231.93,1.711
232.15,1.724
232.38,1.724
232.60,1.737
232.83,1.744
233.06,1.750
233.28,1.757
233.51,1.763
233.73,1.776
233.96,1.789
234.19,1.802
234.41,1.815
234.64,1.828
234.86,1.835
235.09,1.848
235.32,1.861
235.54,1.874
235.77,1.887
235.99,1.893
236.22,1.906
236.45,1.919
236.67,1.932
236.90,1.939
237.12,1.952
237.35,1.965
237.58,1.978
237.80,1.984
238.03,1.997
238.26,2.004
238.48,2.023
238.71,2.043
238.93,2.049
239.16,2.069
239.39,2.082
239.61,2.095
239.84,2.108
240.06,2.127
240.29,2.140
240.52,2.153
240.74,2.173
240.97,2.186
241.19,2.199
241.42,2.212
241.65,2.225
241.87,2.238
242.10,2.244
242.32,2.257
242.55,2.270
242.78,2.283
243.00,2.303
243.23,2.309
243.45,2.335
243.68,2.348
243.91,2.361
244.13,2.374
244.36,2.387
244.58,2.400
244.81,2.413
245.04,2.426
245.26,2.439
245.49,2.452
245.71,2.459
245.94,2.472
246.17,2.491
246.39,2.511
246.62,2.517
246.84,2.530
247.07,2.543
247.30,2.556
247.52,2.576
247.75,2.582
247.97,2.595
248.20,2.608
248.43,2.621
248.65,2.628
248.88,2.641
249.11,2.647
249.33,2.660
249.56,2.667
249.78,2.673
250.01,2.686
250.24,2.699
250.46,2.706
250.69,2.712
250.91,2.719
251.14,2.732
251.37,2.738
251.59,2.745
251.82,2.751
252.04,2.758
252.27,2.771
252.50,2.777
252.72,2.777
252.95,2.784
253.17,2.790
253.40,2.797
253.63,2.803
253.85,2.810
254.08,2.816
254.30,2.823
254.53,2.829
254.76,2.842
254.98,2.849
255.21,2.855
255.43,2.868
255.66,2.881
255.89,2.894
256.11,2.907
256.34,2.927
256.56,2.933
256.79,2.946
257.02,2.959
257.24,2.972
257.47,2.979
257.69,2.992
257.92,3.005
258.15,3.018
258.37,3.024
258.60,3.037
259.28,3.076
259.50,3.083
259.73,3.083
259.96,3.076
260.18,3.057
260.41,3.037
260.63,3.023
260.86,3.018
261.09,3.018
261.31,3.018
261.54,3.018
261.76,3.018
261.99,3.023
262.22,3.032
262.67,3.050
262.89,3.063
263.12,3.076
263.35,3.089
263.57,3.096
263.80,3.102
264.02,3.109
264.25,3.128
264.48,3.135
264.70,3.148
264.93,3.154
265.15,3.167
265.38,3.193
265.61,3.200
265.83,3.219
266.06,3.232
266.28,3.232
266.51,3.213
266.74,3.180
266.96,3.141
267.19,3.102
267.41,3.044
267.64,3.005
267.87,2.972
268.09,2.959
268.32,2.933
268.54,2.907
268.77,2.875
269.00,2.862
269.45,2.855
269.67,2.855
270.13,2.868
270.35,2.894
270.58,2.946
270.81,3.018
271.03,3.050
271.26,3.076
271.48,3.102
271.71,3.148
271.94,3.180
272.16,3.219
272.39,3.239
272.61,3.239
272.84,3.226
273.07,3.187
273.29,3.161
273.52,3.122
273.74,2.992
273.97,2.953
274.20,2.894
274.42,2.823
274.65,2.758
274.87,2.719
275.10,2.686
275.33,2.654
275.55,2.621
275.78,2.595
276.00,2.569
276.23,2.524
276.46,2.491
276.68,2.439
276.91,2.400
##END=
