##TITLE=Silane, phenyl-
##JCAMP-DX=4.24
##DATA TYPE=UV/VIS SPECTRUM
##ORIGIN=INSTITUTE OF ENERGY PROBLEMS OF CHEMICAL PHYSICS, RAS
##OWNER=INEP CP RAS, NIST OSRD
Collection (C) 2007 copyright by the U.S. Secretary of Commerce
on behalf of the United States of America. All rights reserved.
##CAS REGISTRY NO=694-53-1
##MOLFORM=C6H8Si
##BP=115/ 760 mm
##SOURCE REFERENCE=RAS UV No. 19124
##$NIST SQUIB=1967LAN53
##$NIST SOURCE=TYUGLMTE
##SPECTROMETER/DATA SYSTEM=Spectromom 201
##XUNITS=Wavelength (nm)
##YUNITS=Logarithm epsilon
##XFACTOR=1.0
##YFACTOR=1.0
##FIRSTX=213.76
##LASTX=285.4
##FIRSTY=3.488
##MAXX=285.4
##MINX=213.76
##MAXY=3.543
##MINY=0.037
##NPOINTS=159
##$REF AUTHOR=Lang (editor), L.
##$REF JOURNAL=Absorption Spectra in the Ultraviolet and Visible Region
##$REF VOLUME=8
##$REF PAGE=53
##$REF DATE=1967
##XYPOINTS=(XY..XY)
213.76,3.488
213.93,3.492
214.09,3.495
214.26,3.498
214.43,3.502
214.60,3.502
214.77,3.505
214.93,3.509
215.10,3.512
215.44,3.522
215.94,3.536
216.44,3.539
216.95,3.543
217.45,3.543
217.95,3.539
218.46,3.539
218.96,3.532
219.46,3.522
219.97,3.512
220.47,3.502
220.97,3.485
221.48,3.461
221.98,3.437
222.48,3.386
222.99,3.335
223.49,3.281
223.99,3.196
224.50,3.121
225.00,3.050
225.50,2.948
226.01,2.856
226.51,2.758
227.01,2.670
227.58,2.572
228.02,2.510
228.46,2.447
228.96,2.365
229.39,2.278
230.03,2.160
230.54,2.082
231.04,1.977
231.54,1.902
232.05,1.817
232.55,1.752
233.05,1.691
233.56,1.606
234.06,1.542
234.56,1.460
235.07,1.409
235.57,1.392
236.07,1.389
236.58,1.392
237.08,1.402
237.58,1.413
238.02,1.421
238.61,1.433
239.14,1.450
239.60,1.464
240.10,1.484
240.60,1.501
241.11,1.515
241.61,1.538
242.11,1.559
242.62,1.579
243.12,1.599
243.62,1.623
244.13,1.644
244.63,1.664
245.13,1.681
245.64,1.698
246.14,1.718
246.64,1.742
247.15,1.763
247.65,1.783
248.15,1.800
248.66,1.820
249.16,1.834
249.66,1.847
250.17,1.847
250.67,1.861
251.17,1.868
251.68,1.881
252.18,1.902
252.68,1.929
253.19,1.953
253.69,1.983
254.19,2.004
254.70,2.024
255.20,2.055
255.70,2.072
256.21,2.078
256.71,2.058
257.21,2.041
257.72,2.038
258.22,2.041
258.72,2.058
259.23,2.075
259.73,2.109
260.23,2.157
260.74,2.194
261.24,2.238
261.74,2.259
262.25,2.245
262.75,2.191
263.26,2.140
263.76,2.129
264.26,2.129
264.77,2.143
265.27,2.177
265.72,2.215
266.24,2.258
266.53,2.275
266.67,2.279
266.78,2.276
267.00,2.258
267.30,2.240
267.79,2.225
268.29,2.221
268.58,2.210
268.79,2.184
269.30,2.116
269.80,2.031
270.03,1.990
270.29,1.966
270.81,1.960
271.31,1.963
271.81,1.990
272.10,2.026
272.32,2.065
272.54,2.121
272.67,2.154
272.82,2.174
272.99,2.180
273.18,2.160
273.32,2.126
273.83,2.004
274.25,1.901
274.83,1.773
275.34,1.647
275.82,1.531
276.34,1.409
276.85,1.294
277.27,1.204
277.85,1.097
278.36,1.015
278.87,0.930
279.36,0.842
279.81,0.763
280.37,0.669
280.87,0.601
281.38,0.532
281.88,0.451
282.35,0.382
282.89,0.305
283.39,0.251
283.89,0.203
284.40,0.132
284.90,0.074
285.40,0.037
##END=
