##TITLE=Pyridine, 1-oxide
##JCAMP-DX=4.24
##DATA TYPE=UV/VIS SPECTRUM
##ORIGIN=INSTITUTE OF ENERGY PROBLEMS OF CHEMICAL PHYSICS, RAS
##OWNER=INEP CP RAS, NIST OSRD
Collection (C) 2007 copyright by the U.S. Secretary of Commerce
on behalf of the United States of America. All rights reserved.
##CAS REGISTRY NO=694-59-7
##MOLFORM=C5H5NO
##MP=65.5
##BP=146-7(13)
##SOURCE REFERENCE=RAS UV No. 9078
##$NIST SQUIB=1967DOR/ZIOg5/4C
##$NIST SOURCE=TSGMTE
##SPECTROMETER/DATA SYSTEM=Zeiss PMQ II
##XUNITS=Wavelength (nm)
##YUNITS=Logarithm epsilon
##XFACTOR=1.000000
##YFACTOR=1.000000
##FIRSTX=350.0321
##LASTX=240.8551
##FIRSTY=1.09612
##MAXX=350.032
##MINX=240.855
##MAXY=4.22098
##MINY=1.09612
##NPOINTS=1000
##$REF AUTHOR=Dorr, F.; Ziolkowsky, B.; Munchen, T.H.
##$REF TITLE=Pyridine 1-oxide
##$REF BOOK TITLE=UV Atlas of Organic Compounds - Vol. 3
##$REF PAGE=G5/4
##$REF DATE=1967
##$REF PUBLISHER=Plenum Press
##$REF LOCATION=New York
##XYPOINTS=(XY..XY)
350.0321,1.096121
349.7778,1.119536
349.7514,1.098176
349.5289,1.121589
347.7276,1.562948
347.5204,1.596786
347.4816,1.565002
347.2877,1.634951
347.2440,1.599098
347.0813,1.669043
347.0426,1.637260
346.8362,1.671098
344.3117,2.123198
344.0833,2.161363
344.0401,2.125256
343.8804,2.195201
343.8424,2.163417
343.6781,2.229295
343.6401,2.197510
343.4481,2.265424
343.4074,2.231352
343.2081,2.267479
341.0048,2.719557
340.7933,2.768400
340.7383,2.721614
340.6041,2.810630
340.5570,2.770455
340.4154,2.853114
340.3683,2.812939
340.1972,2.895601
340.1502,2.855426
340.0140,2.942408
339.9617,2.897656
339.7886,2.952854
339.7788,2.944463
339.5243,2.955165
339.5217,2.952877
339.2898,2.957220
339.2874,2.955185
339.0556,2.959274
339.0532,2.957240
338.5539,2.959317
338.3160,2.957304
338.0514,2.957326
338.0490,2.955292
337.8141,2.955312
337.8042,2.946667
337.5673,2.944653
337.5600,2.938296
337.2942,2.936285
337.2793,2.923317
337.0432,2.921303
337.0140,2.895876
336.7782,2.893862
336.7537,2.872503
336.4892,2.870492
336.4601,2.845064
336.2251,2.843050
336.2056,2.826014
335.9707,2.823746
335.9562,2.811032
335.6930,2.809021
335.6834,2.800630
335.4492,2.798361
335.4420,2.792005
334.7132,2.785711
334.2530,2.785752
333.9924,2.783741
333.7631,2.783761
333.5390,2.788104
333.5365,2.785816
333.3033,2.807198
333.2936,2.798552
333.2890,2.794484
333.2841,2.790161
333.0653,2.798573
333.0607,2.794504
332.8612,2.819952
332.8469,2.807238
332.8444,2.804950
332.8373,2.798593
332.8327,2.794525
332.6193,2.832689
332.6073,2.822009
332.5811,2.798616
332.5766,2.794547
332.4083,2.847457
332.3919,2.832709
332.1980,2.862479
332.1838,2.849766
331.9616,2.879284
331.9451,2.864536
331.7588,2.900664
331.7376,2.881593
331.5538,2.919755
331.5349,2.902718
331.3161,2.934526
331.3019,2.921812
331.1093,2.951582
331.0905,2.934546
330.9074,2.972707
330.8863,2.953637
330.6801,2.996124
330.6567,2.975019
330.4742,3.013180
330.4576,2.998178
330.2800,3.040662
330.2755,3.036594
330.2685,3.030237
330.2519,3.015235
330.0325,3.045008
330.0278,3.040685
330.0233,3.036617
330.0163,3.030260
329.8204,3.055708
329.8109,3.047062
329.8039,3.040706
329.7995,3.036637
329.6270,3.083190
329.5991,3.057762
329.3898,3.095926
329.3781,3.085247
329.1877,3.115017
329.1690,3.097981
328.9766,3.125717
328.9675,3.117326
328.7473,3.144811
328.7287,3.127774
328.5412,3.159579
328.5252,3.144831
328.3358,3.174602
328.3219,3.161888
328.0979,3.185050
328.0887,3.176659
327.8860,3.193715
327.8766,3.185070
327.6720,3.200093
327.6673,3.195770
327.4582,3.206470
327.4535,3.202147
327.2194,3.214884
327.2125,3.208527
327.0040,3.219227
327.0018,3.217193
326.7911,3.225604
326.7842,3.219247
326.5464,3.227661
326.5442,3.225627
326.3297,3.229970
326.3272,3.227681
326.1176,3.236347
326.1130,3.232024
325.8739,3.238404
325.8718,3.236370
325.6557,3.238425
325.4399,3.240479
324.9801,3.242811
324.9777,3.240522
324.7653,3.244865
324.7631,3.242831
324.5214,3.244888
324.3071,3.246943
322.5056,3.247113
322.2943,3.249422
321.6280,3.249486
321.4176,3.251540
321.1832,3.255886
321.1787,3.251563
320.9733,3.257940
320.9712,3.255906
320.7616,3.257960
320.5324,3.266374
320.5258,3.260018
320.1236,3.279129
320.1149,3.270738
319.9240,3.289829
319.9153,3.281438
319.6984,3.300531
319.6897,3.292140
319.4993,3.311231
319.4904,3.302586
319.2982,3.319642
319.2916,3.313286
319.0711,3.328056
319.0646,3.321700
318.8729,3.338756
318.8642,3.330365
318.6725,3.347168
318.6660,3.340811
318.4486,3.357870
318.4400,3.349479
318.2488,3.366282
318.2423,3.359925
318.0451,3.370625
318.0430,3.368590
317.8156,3.374970
317.8112,3.370647
317.6122,3.379059
317.6101,3.377025
317.4092,3.383402
317.4072,3.381368
317.1807,3.387747
317.1763,3.383425
316.9760,3.389802
316.9739,3.387768
316.7718,3.392111
316.7695,3.389822
316.5398,3.392134
316.1347,3.398531
316.1323,3.396243
315.9056,3.400588
315.9036,3.398554
315.4957,3.400629
315.2676,3.402686
315.0656,3.404995
315.0633,3.402706
314.8636,3.407049
314.8616,3.405015
314.6365,3.409106
314.6344,3.407072
314.4353,3.411415
314.4330,3.409127
314.2321,3.411436
314.0058,3.413493
313.8052,3.415547
313.8032,3.413513
313.6071,3.419890
313.6051,3.417856
313.3797,3.419913
313.1799,3.421968
312.9806,3.424277
312.9783,3.421988
312.7812,3.426331
312.7792,3.424297
311.9390,3.437097
311.9367,3.434809
311.3250,3.447586
311.3211,3.443517
311.1281,3.449895
311.1258,3.447606
310.9311,3.451949
310.9291,3.449915
310.7118,3.456295
310.7076,3.451972
310.5173,3.460384
310.5154,3.458349
310.1049,3.469072
310.1007,3.464749
309.9093,3.471127
309.9073,3.469092
309.4985,3.479815
309.4943,3.475493
309.1111,3.486213
309.1089,3.483924
308.8941,3.490304
308.8902,3.486236
308.5105,3.498990
308.5063,3.494667
308.1011,3.505390
308.0990,3.503102
307.9121,3.511767
307.9080,3.507445
307.6949,3.513824
307.6929,3.511790
307.5064,3.520202
307.5003,3.513845
307.3161,3.524545
307.3120,3.520222
307.0997,3.526602
307.0978,3.524568
306.9119,3.532979
306.9078,3.528656
306.7225,3.537322
306.7183,3.532999
306.5110,3.543702
306.5069,3.539379
306.3217,3.547790
306.3179,3.543722
306.1349,3.554168
306.1310,3.550099
305.9444,3.556476
305.9423,3.554188
305.7360,3.564890
305.7300,3.558534
305.5460,3.567199
305.5438,3.564911
305.3601,3.573576
305.3560,3.569254
305.1484,3.577668
305.1464,3.575634
304.9629,3.584045
304.9591,3.579977
304.7799,3.592711
304.7739,3.586354
304.5671,3.594768
304.5651,3.592734
304.3843,3.603179
304.3783,3.596822
304.1979,3.607522
304.1938,3.603199
303.9899,3.613902
303.9839,3.607545
303.8040,3.618245
303.7999,3.613922
303.6202,3.624622
303.6162,3.620299
303.4130,3.631002
303.4070,3.624645
303.2275,3.635091
303.2256,3.633056
303.0466,3.643756
303.0407,3.637399
302.8380,3.647848
302.8342,3.643779
302.6575,3.656513
302.6516,3.650156
302.4711,3.658568
302.4693,3.656534
302.2676,3.667236
302.2617,3.660879
302.0875,3.675647
302.0798,3.667256
301.9040,3.679990
301.9000,3.675668
301.6991,3.686370
301.6951,3.682048
301.5197,3.694782
301.5139,3.688425
301.3368,3.699125
301.3328,3.694802
301.1346,3.707539
301.1287,3.701182
300.9559,3.715950
300.9482,3.707559
300.7737,3.720293
300.7697,3.715970
300.5722,3.728707
300.5645,3.720316
300.3944,3.737373
300.3865,3.728727
300.2126,3.741461
300.2089,3.737393
300.0121,3.750130
300.0042,3.741484
299.8347,3.758541
299.8271,3.750150
299.6539,3.762884
299.6499,3.758561
299.4751,3.769261
299.4711,3.764939
299.2753,3.777675
299.2695,3.771318
299.0990,3.786341
299.0933,3.779984
298.9188,3.790430
298.9170,3.788395
298.7200,3.799098
298.7143,3.792741
298.5460,3.809543
298.5385,3.801152
298.3667,3.813886
298.3628,3.809564
298.1684,3.822300
298.1627,3.815944
297.9935,3.830966
297.9878,3.824609
297.8185,3.839377
297.8109,3.830986
297.6173,3.843723
297.6154,3.841689
297.4448,3.854423
297.4370,3.845778
297.2704,3.862834
297.2647,3.856477
297.0756,3.873537
297.0661,3.862857
296.9017,3.881948
296.8942,3.873557
296.7280,3.890360
296.7205,3.881968
296.5321,3.899028
296.5265,3.892671
296.3570,3.905405
296.3532,3.901082
296.1839,3.913816
296.1783,3.907460
295.9885,3.922230
295.9829,3.915873
295.8179,3.932930
295.8105,3.924539
295.6419,3.937273
295.6381,3.932951
295.4472,3.945687
295.4416,3.939330
295.2754,3.954353
295.2678,3.945708
295.1036,3.962764
295.0962,3.954373
294.9060,3.967110
294.9022,3.962787
294.7347,3.975521
294.7291,3.969164
294.5635,3.983933
294.5579,3.977576
294.3684,3.990312
294.3649,3.986244
294.1959,3.996690
294.1923,3.992621
294.0273,4.007389
294.0200,3.998998
293.8330,4.013769
293.8292,4.009447
293.4876,4.024489
293.4820,4.018133
293.3178,4.032901
293.3123,4.026544
293.1227,4.037246
293.1189,4.032924
292.9533,4.045658
292.9478,4.039301
292.7807,4.050001
292.7770,4.045678
292.5880,4.056381
292.5825,4.050024
292.4158,4.060724
292.4138,4.058435
292.2455,4.067101
292.2418,4.062778
292.0535,4.073481
292.0498,4.069158
291.8817,4.077569
291.8800,4.075535
291.7140,4.086235
291.7086,4.079878
291.5190,4.088292
291.5173,4.086258
291.3498,4.094669
291.3461,4.090347
291.1791,4.099012
291.1771,4.096724
290.9902,4.107426
290.9848,4.101069
290.8179,4.109481
290.8162,4.107447
290.6497,4.116112
290.6441,4.109501
290.2899,4.126581
290.2845,4.120224
289.9311,4.137304
289.9257,4.130947
289.7601,4.139358
289.7584,4.137324
289.5929,4.145735
289.5875,4.139378
289.4009,4.148047
289.3990,4.145758
289.2322,4.152135
289.2305,4.150101
289.0657,4.158513
289.0603,4.152156
288.8744,4.160824
288.8725,4.158535
288.7046,4.162878
288.7029,4.160844
288.5386,4.169256
288.5333,4.162899
288.3478,4.171313
288.3461,4.169279
288.1806,4.175656
288.1769,4.171333
288.0135,4.179999
288.0099,4.175676
287.8234,4.182056
287.8217,4.180022
287.6548,4.184110
287.6531,4.182076
287.4884,4.188453
287.4847,4.184131
287.3202,4.190508
287.3185,4.188474
287.1312,4.192819
287.1293,4.190531
286.9617,4.192840
286.6076,4.199240
286.6057,4.196951
286.4404,4.201294
286.4388,4.199260
286.2718,4.201315
285.9212,4.210003
285.9177,4.205681
285.5644,4.210046
285.3985,4.212101
285.0429,4.212144
284.8776,4.214199
284.3588,4.216551
284.3570,4.214262
284.0076,4.218628
284.0059,4.216594
283.8418,4.218649
283.6778,4.220703
281.4610,4.220978
281.2762,4.218966
281.1136,4.218987
280.9495,4.216973
280.7670,4.216996
280.7652,4.214707
279.9368,4.214812
279.7540,4.212800
279.4324,4.212841
279.4308,4.210807
279.2503,4.210830
279.2485,4.208541
279.0882,4.208562
279.0866,4.206527
278.9265,4.206548
278.7448,4.204282
278.5851,4.204302
278.4240,4.202289
278.2447,4.202311
278.2431,4.200277
278.0822,4.198009
278.0806,4.195975
277.9217,4.195995
277.7415,4.193984
277.5829,4.194004
277.5812,4.191716
277.4228,4.191736
277.4212,4.189702
277.2417,4.187691
277.2399,4.185402
277.0819,4.185423
276.9225,4.183409
276.7452,4.183432
276.7436,4.181397
276.4256,4.177115
276.4241,4.175081
276.2670,4.175102
276.2652,4.172813
276.0888,4.172836
275.7725,4.168808
275.7707,4.166520
275.5933,4.164508
275.4372,4.164529
275.4356,4.162495
275.2797,4.162515
275.2779,4.160226
275.1012,4.158215
275.0996,4.156181
274.9440,4.156201
274.9423,4.153913
274.6092,4.149888
274.6075,4.147599
274.4509,4.145585
274.4494,4.143551
274.2946,4.143571
274.2928,4.141283
274.1188,4.141306
274.1173,4.139272
273.9613,4.137258
273.9596,4.134969
273.8053,4.134990
273.8038,4.132955
273.4732,4.128676
273.4702,4.124608
273.3164,4.124628
273.3147,4.122340
273.1420,4.122362
273.1405,4.120328
272.9856,4.118314
272.9839,4.116026
272.8291,4.114012
272.8274,4.111724
272.6553,4.111746
272.6538,4.109712
272.4995,4.107698
272.4977,4.105410
272.3436,4.103396
272.3421,4.101362
272.0151,4.097082
272.0118,4.092760
271.8597,4.092780
271.8582,4.090746
271.6858,4.088735
271.6841,4.086446
271.5309,4.084432
271.5294,4.082398
271.2043,4.078119
271.2011,4.073796
271.0484,4.071782
271.0469,4.069748
270.8942,4.067480
270.8927,4.065446
270.7403,4.063432
270.7386,4.061143
270.5676,4.059132
270.5661,4.057098
270.4140,4.054830
270.4110,4.050761
270.2607,4.050782
270.2590,4.048493
270.0886,4.046482
270.0854,4.042159
269.9355,4.042179
269.9325,4.038111
269.7810,4.035843
269.7795,4.033809
269.6097,4.031797
269.6080,4.029509
269.4571,4.027495
269.4540,4.023172
269.1339,4.018893
269.1292,4.012536
268.8286,4.008508
268.8270,4.006220
268.6584,4.004209
268.6569,4.002174
268.5085,4.002195
268.5069,3.999906
268.3572,3.997892
268.3526,3.991536
268.1861,3.991558
268.1846,3.989524
268.0367,3.989545
268.0321,3.983188
267.8845,3.983208
267.8813,3.978885
267.7154,3.978908
267.7123,3.974586
267.5635,3.972572
267.5603,3.968249
267.4132,3.968269
267.4086,3.961913
267.2432,3.961935
267.2418,3.959901
267.0935,3.957887
267.0889,3.951531
266.9423,3.951551
266.9392,3.947228
266.7744,3.947251
266.7698,3.940894
266.6236,3.940915
266.6190,3.934558
266.4712,3.932290
266.4698,3.930255
266.3041,3.928244
266.2996,3.921887
266.1538,3.921908
266.1507,3.917585
266.0051,3.917605
265.9991,3.909214
265.8355,3.909237
265.8324,3.904914
265.6857,3.902901
265.6826,3.898578
265.5361,3.896564
265.5330,3.892241
265.3866,3.890227
265.3835,3.885905
265.2192,3.883893
265.2162,3.879571
265.0701,3.877557
265.0671,3.873234
264.9212,3.871220
264.9181,3.866898
264.7544,3.864886
264.7499,3.858530
264.6042,3.856261
264.6013,3.852193
264.4558,3.849925
264.4529,3.845857
264.2896,3.843591
264.2851,3.837234
264.1415,3.837254
264.1356,3.828863
263.9922,3.828884
263.9892,3.824561
263.8280,3.824584
263.8221,3.816193
263.6790,3.816213
263.6746,3.809856
263.5301,3.807588
263.5272,3.803520
263.3650,3.801254
263.3622,3.797186
263.2196,3.797206
263.2135,3.788561
263.0697,3.786547
263.0683,3.784513
262.9067,3.782247
262.9022,3.775890
262.7601,3.775911
262.7543,3.767520
262.6124,3.767540
262.6094,3.763217
262.4485,3.761206
262.4441,3.754849
262.3025,3.754869
262.2981,3.748513
262.1550,3.746244
262.1522,3.742176
261.9917,3.739910
261.9889,3.735842
261.8462,3.733574
261.8418,3.727217
261.6995,3.725203
261.6965,3.720881
261.5367,3.718869
261.5337,3.714547
261.3917,3.712533
261.3873,3.706176
261.2469,3.706196
261.2439,3.701873
261.0847,3.699862
261.0803,3.693505
260.9402,3.693526
260.9372,3.689203
260.7959,3.687189
260.7929,3.682866
260.6342,3.680855
260.6299,3.674498
260.4903,3.674519
260.4873,3.670196
260.3464,3.668182
260.3421,3.661825
260.2027,3.661846
260.1968,3.653200
260.0403,3.653223
260.0375,3.649155
259.8969,3.646887
259.8942,3.642818
259.7538,3.640550
259.7510,3.636482
259.5934,3.634216
259.5906,3.630148
259.4506,3.627880
259.4462,3.621523
259.3065,3.619509
259.3022,3.613152
259.1467,3.613175
259.1438,3.608852
259.0043,3.606838
259.0000,3.600481
258.8608,3.598468
258.8578,3.594145
258.7015,3.592134
258.7000,3.589845
258.5610,3.587831
258.5567,3.581474
258.4193,3.581495
258.4136,3.573104
258.2592,3.573127
258.2563,3.568804
258.1177,3.566536
258.1134,3.560179
257.9751,3.558165
257.9722,3.553842
257.8169,3.551831
257.8140,3.547508
257.6760,3.545495
257.6731,3.541172
257.5353,3.539158
257.5310,3.532801
257.3763,3.530790
257.3748,3.528501
257.2372,3.526488
257.2330,3.520131
257.0956,3.518117
257.0914,3.511760
256.9370,3.509494
256.9357,3.507460
256.7986,3.505446
256.7971,3.503158
256.6602,3.501144
256.6546,3.492753
256.5007,3.490487
256.4994,3.488453
256.3628,3.486439
256.3584,3.479828
256.2233,3.479848
256.2191,3.473492
256.0659,3.471480
256.0646,3.469446
255.9283,3.467178
255.9227,3.458787
255.7881,3.458807
255.7853,3.454485
255.6326,3.452473
255.6298,3.448151
255.4941,3.446137
255.4899,3.439780
255.3544,3.437766
255.3515,3.433443
255.2162,3.431429
255.2133,3.427107
255.0614,3.425096
255.0572,3.418739
254.9235,3.418759
254.9206,3.414436
254.7857,3.412422
254.7829,3.408100
254.6314,3.406088
254.6273,3.399732
254.4925,3.397463
254.4898,3.393395
254.3552,3.391127
254.3524,3.386804
254.2015,3.384793
254.1986,3.380470
254.0645,3.378456
254.0617,3.374134
253.9277,3.372120
253.9248,3.367797
253.7744,3.365786
253.7703,3.359429
253.6366,3.357415
253.6338,3.353093
253.5002,3.351079
253.4974,3.346756
253.3475,3.344745
253.3434,3.338388
253.2114,3.338408
253.2073,3.332051
253.0740,3.329783
253.0727,3.327749
252.9233,3.325738
252.9192,3.319381
252.7877,3.319401
252.7836,3.313044
252.6508,3.310776
252.6482,3.306708
252.5006,3.306731
252.4965,3.300374
252.3639,3.298106
252.3612,3.293783
252.2289,3.291769
252.2262,3.287446
252.0790,3.287469
252.0737,3.279078
251.9430,3.279099
251.9390,3.272742
251.8072,3.270728
251.8057,3.268439
251.6578,3.266428
251.6537,3.260071
251.5222,3.258057
251.5195,3.253735
251.3894,3.253755
251.3854,3.247398
251.2380,3.245387
251.2365,3.243098
251.1055,3.241085
251.1014,3.234728
250.6928,3.228434
250.6887,3.222078
250.5583,3.220064
250.5515,3.209384
250.4210,3.207116
250.4197,3.205082
250.2734,3.203070
250.2694,3.196714
250.1392,3.194445
250.1366,3.190377
250.0066,3.188109
250.0040,3.184041
249.8580,3.181775
249.8540,3.175418
249.7257,3.175438
249.7217,3.169082
249.5935,3.169102
249.5909,3.165034
249.4454,3.162768
249.4414,3.156411
249.3135,3.156431
249.3123,3.154397
249.1832,3.152383
249.1792,3.146027
249.0356,3.146049
249.0302,3.137404
248.9027,3.137424
248.9002,3.133356
248.7714,3.131088
248.7689,3.127019
248.6258,3.127042
248.6218,3.120686
248.4933,3.118417
248.4906,3.114095
248.3624,3.112081
248.3597,3.107758
248.2158,3.105747
248.2145,3.103713
248.0865,3.101445
248.0825,3.095088
247.9548,3.093074
247.9508,3.086717
247.8086,3.086740
247.8034,3.078349
247.6772,3.078369
247.6745,3.074046
247.5472,3.072033
247.5432,3.065676
247.4015,3.065699
247.3976,3.059342
247.2704,3.057074
247.2679,3.053005
247.1408,3.050737
247.1382,3.046669
246.9956,3.044403
246.9917,3.038046
246.8650,3.036032
246.8638,3.033998
246.7371,3.031730
246.7332,3.025373
246.5924,3.025396
246.5885,3.019039
246.3360,3.014757
246.3308,3.006366
246.1893,3.004355
246.1866,3.000032
246.0608,2.998018
246.0582,2.993696
245.9325,2.991682
245.9298,2.987359
245.8043,2.985345
245.8029,2.983057
245.6619,2.981045
245.6580,2.974689
245.5340,2.974709
245.5301,2.968352
245.4049,2.966338
245.4035,2.964050
245.2630,2.962038
245.2604,2.957716
245.1355,2.955702
245.1343,2.953668
245.0094,2.951400
245.0055,2.945043
244.8667,2.945066
244.8655,2.943031
244.7410,2.941018
244.7370,2.934406
244.6126,2.932393
244.6100,2.928070
244.4704,2.926059
244.4692,2.924024
244.3450,2.921756
244.3411,2.915399
244.2184,2.915420
244.2172,2.913386
244.0781,2.911374
244.0742,2.905017
243.9518,2.905038
243.9479,2.898681
243.8242,2.896413
243.8230,2.894378
243.6843,2.892367
243.6805,2.886010
243.5584,2.886031
243.5571,2.883742
243.4339,2.881728
243.4301,2.875371
243.2931,2.875394
243.2919,2.873360
243.1688,2.871092
243.1664,2.867024
243.0435,2.864756
243.0423,2.862721
242.9045,2.860710
242.9007,2.854353
242.7794,2.854373
242.7768,2.850051
242.6544,2.848037
242.6519,2.843714
242.5157,2.843737
242.5143,2.841449
242.3922,2.839435
242.3885,2.833078
242.2677,2.833098
242.2665,2.831064
242.1294,2.828799
242.1270,2.824730
242.0065,2.824750
242.0051,2.822462
241.8835,2.820448
241.8810,2.816125
241.7445,2.814114
241.7433,2.812080
241.6218,2.809812
241.6194,2.805743
241.4994,2.805764
241.4980,2.803475
241.3770,2.801461
241.3744,2.797139
241.2385,2.795127
241.2373,2.793093
241.1163,2.790825
241.1139,2.786757
240.9931,2.784489
240.9919,2.782454
240.8576,2.782477
240.8551,2.778155
##END=
