##TITLE=Cyclohexane,1-chloro-1-nitroso-
##JCAMP-DX=4.24
##DATA TYPE=UV/VIS SPECTRUM
##ORIGIN=INSTITUTE OF ENERGY PROBLEMS OF CHEMICAL PHYSICS, RAS
##OWNER=INEP CP RAS, NIST OSRD
Collection (C) 2007 copyright by the U.S. Secretary of Commerce
on behalf of the United States of America. All rights reserved.
##CAS REGISTRY NO=695-64-7
##MOLFORM=C6H10ClNO
##SOURCE REFERENCE=RAS UV No. 12234
##$NIST SQUIB=1954MIL/FRI1449
##$NIST SOURCE=TYUGLMTE
##SPECTROMETER/DATA SYSTEM=n.i.g.
##XUNITS=Wavelength (nm)
##YUNITS=Logarithm epsilon
##XFACTOR=1.0
##YFACTOR=1.0
##FIRSTX=600.34
##LASTX=691.15
##FIRSTY=1.016
##MAXX=691.15
##MINX=600.34
##MAXY=1.345
##MINY=0.937
##NPOINTS=102
##$REF AUTHOR=Miller, E.; Fries, D.
##$REF JOURNAL=Chem. Ber.
##$REF VOLUME=87
##$REF PAGE=1449
##$REF DATE=1954
##XYPOINTS=(XY..XY)
600.34,1.016
600.57,1.017
600.81,1.018
601.05,1.019
601.28,1.020
601.52,1.021
601.76,1.023
601.99,1.024
602.23,1.025
602.47,1.026
603.18,1.030
604.12,1.036
605.07,1.044
606.01,1.050
606.96,1.054
607.91,1.052
608.85,1.053
609.80,1.055
610.74,1.057
611.69,1.057
612.64,1.060
613.58,1.062
615.47,1.065
616.42,1.070
617.36,1.071
618.31,1.074
619.26,1.077
620.20,1.083
621.15,1.088
622.09,1.094
623.04,1.103
623.99,1.110
624.93,1.122
625.88,1.133
626.82,1.143
627.77,1.153
628.72,1.168
629.66,1.178
630.61,1.190
631.55,1.202
632.50,1.211
633.45,1.222
634.39,1.231
635.34,1.240
636.28,1.253
637.23,1.262
638.18,1.269
639.12,1.277
640.07,1.285
641.01,1.294
641.96,1.302
642.91,1.311
643.85,1.321
644.80,1.328
645.74,1.334
646.69,1.338
647.64,1.343
649.53,1.344
650.47,1.345
651.42,1.345
652.36,1.344
653.31,1.343
654.26,1.341
655.20,1.336
656.15,1.333
657.09,1.325
658.04,1.316
658.99,1.310
659.93,1.301
660.88,1.292
661.82,1.283
662.77,1.274
663.72,1.266
664.66,1.255
665.61,1.245
666.55,1.234
667.50,1.224
668.45,1.213
669.39,1.203
670.34,1.194
671.28,1.184
672.23,1.173
673.18,1.160
674.12,1.155
675.07,1.135
676.01,1.120
676.96,1.107
677.91,1.093
678.85,1.079
679.80,1.065
680.74,1.052
681.69,1.040
682.64,1.033
683.58,1.017
684.53,1.007
685.47,0.993
686.42,0.982
687.36,0.972
688.31,0.961
689.26,0.949
690.20,0.938
691.15,0.937
##END=
