##TITLE=4-Isopropylpyridine
##JCAMP-DX=4.24
##DATA TYPE=UV/VIS SPECTRUM
##ORIGIN=INSTITUTE OF ENERGY PROBLEMS OF CHEMICAL PHYSICS, RAS
##OWNER=INEP CP RAS, NIST OSRD
Collection (C) 2007 copyright by the U.S. Secretary of Commerce
on behalf of the United States of America. All rights reserved.
##CAS REGISTRY NO=696-30-0
##MOLFORM=C8H11N
##MP=-54.9
##BP=178
##SOURCE REFERENCE=RAS UV No. 976
##$NIST SQUIB=1955COL/FUO5472-5476
##$NIST SOURCE=TSGMTE
##SPECTROMETER/DATA SYSTEM=Beckman DU
##XUNITS=Wavelength (nm)
##YUNITS=Logarithm epsilon
##XFACTOR=1.000000
##YFACTOR=1.000000
##FIRSTX=232.5512
##LASTX=261.0792
##FIRSTY=3.88459
##MAXX=261.079
##MINX=232.551
##MAXY=4.31695
##MINY=3.88459
##NPOINTS=127
##$REF AUTHOR=Coleman, B.D.; Fuoss, R.M.
##$REF TITLE=Quaternization kinetics. I. Some pyridine derivatives in tetramethylene sulfone
##$REF JOURNAL=J. Am. Chem. Soc.
##$REF VOLUME=77
##$REF PAGE=5472-5476
##$REF DATE=1955
##XYPOINTS=(XY..XY)
232.5512,3.884589
233.1754,3.894645
233.7407,3.905245
234.2507,3.915777
234.7088,3.925686
235.1111,3.933229
235.3825,3.937997
235.5857,3.941791
235.7691,3.947295
236.0424,3.952457
236.2558,3.956782
236.4766,3.961031
236.7011,3.965173
236.8417,3.972045
236.9222,3.973966
237.0064,3.975845
237.0979,3.977652
237.8942,3.999089
238.0221,4.002561
238.1536,4.006005
238.2923,4.009423
239.0897,4.028343
239.0905,4.027655
239.0913,4.026906
239.0922,4.026128
239.4879,4.038012
239.7594,4.048880
239.9600,4.055958
240.1886,4.062543
240.5443,4.071702
240.9472,4.076640
241.0255,4.079885
241.1076,4.083081
241.1970,4.086203
241.8600,4.104839
241.8616,4.103638
241.8631,4.102434
241.8647,4.101227
242.2617,4.110278
242.2968,4.112102
242.3392,4.113895
242.3854,4.115634
243.1839,4.129696
243.2670,4.132266
243.3573,4.134822
243.4512,4.137362
244.3796,4.151441
244.4270,4.152588
244.4745,4.153689
244.5220,4.154765
245.1051,4.169505
245.1202,4.170721
245.1389,4.171914
245.1651,4.173062
246.0213,4.190272
246.2058,4.194263
246.3946,4.198383
246.6438,4.204909
247.0094,4.215956
247.2638,4.220250
247.3113,4.221171
247.3588,4.222089
247.4063,4.223005
247.7149,4.233600
247.7347,4.234407
247.7618,4.235196
247.7926,4.235947
248.1924,4.241012
248.2290,4.241571
248.2728,4.242129
248.3203,4.242687
251.5453,4.267570
251.6271,4.267872
251.7125,4.268175
251.8052,4.268478
252.1397,4.273177
252.4096,4.275813
252.7248,4.279424
252.8747,4.282065
253.2657,4.291046
253.2673,4.290265
253.2688,4.289482
253.2704,4.288697
254.0571,4.303945
254.0918,4.305302
254.1339,4.306625
254.1796,4.307928
255.1092,4.316950
255.2614,4.316886
255.4209,4.316807
255.5840,4.316699
257.0728,4.292961
257.1123,4.291972
257.1592,4.290981
257.2096,4.289988
257.5163,4.275529
257.5170,4.275139
257.5179,4.274716
257.5187,4.274276
257.5317,4.267510
257.5436,4.261242
257.5555,4.254865
257.5675,4.248359
257.5771,4.243080
257.6194,4.240454
257.6690,4.237796
257.7223,4.235085
257.7294,4.231028
257.8898,4.229026
258.0011,4.226006
258.1586,4.219316
258.3130,4.215115
258.4687,4.210773
258.5955,4.208470
258.8021,4.206254
259.4210,4.197919
259.4393,4.197101
259.4613,4.196243
259.4906,4.195363
260.3852,4.188269
260.4534,4.186918
260.5252,4.185542
260.6044,4.184122
260.8012,4.183769
260.8878,4.183773
260.9817,4.183777
261.0792,4.183782
##END=
