##TITLE=Phenol, 2,3,5-trimethyl-
##JCAMP-DX=4.24
##DATA TYPE=UV/VIS SPECTRUM
##ORIGIN=INSTITUTE OF ENERGY PROBLEMS OF CHEMICAL PHYSICS, RAS
##OWNER=INEP CP RAS, NIST OSRD
Collection (C) 2007 copyright by the U.S. Secretary of Commerce
on behalf of the United States of America. All rights reserved.
##CAS REGISTRY NO=697-82-5
##MOLFORM=C9H12O
##MP=95-96
##BP=233
##SOURCE REFERENCE=RAS UV No. 20206
##$NIST SQUIB=1969BOL/239
##$NIST SOURCE=TYUGLMTE
##SPECTROMETER/DATA SYSTEM=unknown
##XUNITS=Wavelength (nm)
##YUNITS=Logarithm epsilon
##XFACTOR=1.0
##YFACTOR=1.0
##FIRSTX=226.45
##LASTX=290.74
##FIRSTY=3.786
##MAXX=290.74
##MINX=226.45
##MAXY=3.786
##MINY=1.836
##NPOINTS=136
##$REF AUTHOR=Bol'shakov, G.F.; et al.
##$REF JOURNAL=Ultraviolet spectra of heteroorganic compounds
##$REF PAGE=239
##$REF DATE=1969
##XYPOINTS=(XY..XY)
226.45,3.786
226.61,3.777
226.78,3.773
226.94,3.765
227.11,3.757
227.27,3.753
227.44,3.744
227.60,3.736
227.77,3.732
228.26,3.703
228.76,3.679
229.26,3.654
229.75,3.625
230.25,3.600
230.74,3.563
231.24,3.522
231.73,3.489
232.23,3.444
232.73,3.402
233.22,3.361
233.72,3.308
234.21,3.254
234.71,3.205
235.21,3.134
235.70,3.073
236.20,3.015
236.69,2.970
237.19,2.912
237.68,2.842
238.18,2.776
238.68,2.710
239.17,2.636
239.67,2.557
240.16,2.479
240.66,2.384
241.15,2.335
241.65,2.290
242.15,2.257
242.64,2.215
243.14,2.195
243.63,2.178
244.13,2.166
244.63,2.162
245.12,2.158
245.62,2.162
246.11,2.170
246.61,2.178
247.10,2.191
247.60,2.199
248.10,2.210
248.59,2.220
249.08,2.228
249.59,2.236
250.08,2.244
250.58,2.257
251.07,2.273
251.57,2.290
252.06,2.306
252.56,2.318
253.05,2.339
253.55,2.351
254.05,2.372
254.54,2.393
255.04,2.405
255.53,2.421
256.03,2.446
256.53,2.467
257.02,2.487
257.52,2.512
258.01,2.537
258.51,2.557
259.00,2.578
259.50,2.599
260.00,2.615
260.49,2.640
260.99,2.661
261.48,2.681
261.98,2.706
262.47,2.731
262.97,2.755
263.47,2.780
263.96,2.801
264.46,2.821
264.95,2.842
265.45,2.862
265.95,2.883
266.44,2.904
266.94,2.928
267.43,2.949
267.93,2.974
268.42,3.007
268.92,3.023
269.42,3.044
269.91,3.064
270.41,3.085
270.90,3.110
271.40,3.139
271.90,3.155
272.39,3.163
272.89,3.159
273.38,3.155
273.88,3.139
274.37,3.130
274.87,3.126
275.37,3.134
275.86,3.143
276.36,3.159
276.85,3.172
277.35,3.176
277.85,3.172
278.34,3.163
278.84,3.151
279.33,3.143
279.83,3.143
280.32,3.155
280.82,3.167
281.32,3.205
281.81,3.209
282.31,3.200
282.80,3.143
283.34,3.041
283.79,2.937
284.29,2.805
284.79,2.685
285.28,2.578
285.78,2.479
286.27,2.393
286.77,2.318
287.17,2.246
287.76,2.166
288.26,2.100
288.75,2.038
289.25,1.976
289.74,1.923
290.24,1.882
290.74,1.836
##END=
