##TITLE=Phenol, 3-ethyl-5-methyl-
##JCAMP-DX=4.24
##DATA TYPE=UV/VIS SPECTRUM
##ORIGIN=INSTITUTE OF ENERGY PROBLEMS OF CHEMICAL PHYSICS, RAS
##OWNER=INEP CP RAS, NIST OSRD
Collection (C) 2007 copyright by the U.S. Secretary of Commerce
on behalf of the United States of America. All rights reserved.
##CAS REGISTRY NO=698-71-5
##MOLFORM=C9H12O
##SOURCE REFERENCE=RAS UV No. 20210
##$NIST SQUIB=1969BOL/241
##$NIST SOURCE=TYUGLMTE
##SPECTROMETER/DATA SYSTEM=unknown
##XUNITS=Wavelength (nm)
##YUNITS=Logarithm epsilon
##XFACTOR=1.0
##YFACTOR=1.0
##FIRSTX=223.28
##LASTX=286.23
##FIRSTY=3.644
##MAXX=286.23
##MINX=223.28
##MAXY=3.644
##MINY=1.933
##NPOINTS=142
##$REF AUTHOR=Bol'shakov, G.F.; et al.
##$REF JOURNAL=Ultraviolet spectra of heteroorganic compounds
##$REF PAGE=241
##$REF DATE=1969
##XYPOINTS=(XY..XY)
223.28,3.644
223.44,3.640
223.61,3.635
223.77,3.631
223.93,3.627
224.10,3.623
224.26,3.619
224.43,3.615
224.59,3.611
224.75,3.611
224.92,3.606
225.08,3.602
225.25,3.598
225.73,3.577
226.25,3.551
226.72,3.519
227.21,3.490
227.73,3.452
228.20,3.415
228.62,3.384
229.11,3.348
229.70,3.307
230.16,3.275
230.63,3.241
231.15,3.200
231.64,3.155
232.13,3.097
232.62,3.043
233.12,2.983
233.62,2.927
234.11,2.871
234.61,2.818
235.08,2.761
235.57,2.699
236.05,2.637
236.57,2.564
237.03,2.488
237.54,2.406
238.03,2.322
238.53,2.256
239.02,2.185
239.51,2.119
240.02,2.066
240.48,2.017
240.95,1.981
241.48,1.962
241.97,1.949
242.46,1.937
242.95,1.933
243.44,1.933
243.94,1.937
244.43,1.953
244.92,1.966
245.41,1.986
245.85,2.006
246.41,2.032
246.89,2.057
247.38,2.078
247.87,2.094
248.36,2.119
248.85,2.148
249.35,2.169
249.84,2.198
250.39,2.228
250.91,2.251
251.35,2.273
251.80,2.297
252.30,2.322
252.79,2.347
253.32,2.374
253.77,2.397
254.26,2.421
254.76,2.446
255.21,2.468
255.77,2.494
256.23,2.521
256.77,2.549
257.21,2.571
257.71,2.595
258.20,2.620
258.69,2.645
259.22,2.674
259.67,2.699
260.17,2.720
260.66,2.745
261.17,2.773
261.65,2.796
262.13,2.819
262.69,2.846
263.12,2.865
263.61,2.877
264.06,2.893
264.78,2.916
265.46,2.940
266.07,2.960
266.56,2.977
267.11,2.998
267.59,3.011
268.04,3.022
268.52,3.035
269.00,3.050
269.51,3.064
269.96,3.078
270.49,3.089
270.97,3.098
271.46,3.108
271.97,3.118
272.46,3.130
272.95,3.138
273.45,3.134
273.94,3.122
274.43,3.109
274.92,3.101
275.47,3.095
276.30,3.090
276.89,3.089
277.44,3.094
277.87,3.105
278.48,3.125
278.86,3.147
279.10,3.166
279.35,3.192
279.58,3.211
279.84,3.225
280.00,3.231
280.33,3.229
280.66,3.219
280.82,3.200
281.05,3.142
281.34,3.064
281.58,3.010
281.81,2.960
282.23,2.878
282.50,2.839
282.79,2.790
283.28,2.703
283.70,2.629
284.21,2.533
284.76,2.434
285.25,2.355
285.74,2.285
286.23,2.210
##END=
