##TITLE=Uric acid
##JCAMP-DX=4.24
##DATA TYPE=UV/VIS SPECTRUM
##ORIGIN=INSTITUTE OF ENERGY PROBLEMS OF CHEMICAL PHYSICS, RAS
##OWNER=INEP CP RAS, NIST OSRD
Collection (C) 2007 copyright by the U.S. Secretary of Commerce
on behalf of the United States of America. All rights reserved.
##CAS REGISTRY NO=69-93-2
##MOLFORM=C5H4N4O3
##MP=dec
##BP=dec
##SOURCE REFERENCE=RAS UV No. 10767
##$NIST SQUIB=1951PRU/SCH45
##$NIST SOURCE=TYUGLMTE
##SPECTROMETER/DATA SYSTEM=n.i.g.
##XUNITS=Wavelength (nm)
##YUNITS=Logarithm epsilon
##XFACTOR=1.0
##YFACTOR=1.0
##FIRSTX=233.15
##LASTX=378.8
##FIRSTY=3.857
##MAXX=378.8
##MINX=233.15
##MAXY=4.246
##MINY=1.44
##NPOINTS=141
##$REF AUTHOR=Pruckner, F.; Schwuttke, G.
##$REF JOURNAL=Naturwiss.
##$REF VOLUME=38
##$REF PAGE=45
##$REF DATE=1951
##XYPOINTS=(XY..XY)
233.15,3.857
233.42,3.863
233.70,3.874
233.97,3.880
234.24,3.886
234.51,3.897
234.78,3.903
235.05,3.914
235.33,3.919
236.41,3.970
237.50,4.010
238.59,4.066
239.67,4.111
240.76,4.145
241.85,4.173
242.93,4.201
244.02,4.218
245.11,4.229
246.20,4.241
247.28,4.246
248.37,4.246
249.46,4.241
250.54,4.229
251.63,4.224
252.72,4.196
253.80,4.173
254.89,4.139
255.98,4.105
257.07,4.060
258.15,4.015
259.24,3.981
260.33,3.925
261.41,3.880
262.50,3.841
263.59,3.801
264.67,3.762
265.76,3.722
266.85,3.683
267.93,3.649
269.02,3.621
270.11,3.587
271.20,3.559
272.28,3.531
273.37,3.508
274.46,3.491
275.54,3.469
276.63,3.446
277.72,3.435
278.80,3.418
279.89,3.395
280.98,3.378
282.07,3.350
283.15,3.311
284.24,3.277
285.33,3.226
286.41,3.170
287.50,3.074
288.59,2.956
289.67,2.916
290.76,2.837
291.85,2.668
292.93,2.516
294.02,2.308
295.11,2.138
296.20,2.060
297.28,2.003
298.37,1.952
299.46,1.919
300.54,1.885
301.63,1.862
302.72,1.834
303.80,1.823
304.89,1.817
305.98,1.812
307.07,1.800
308.15,1.795
309.24,1.795
310.33,1.800
311.41,1.806
312.50,1.812
313.59,1.817
314.67,1.834
315.76,1.840
316.85,1.862
317.93,1.868
319.02,1.868
320.11,1.874
321.20,1.902
322.28,1.907
323.37,1.924
324.46,1.936
325.54,1.952
326.63,1.958
327.72,1.975
328.80,1.981
329.89,1.986
330.98,2.009
332.07,2.020
333.15,2.031
334.24,2.037
335.33,2.043
336.41,2.054
337.50,2.060
338.59,2.060
339.67,2.065
340.76,2.076
341.85,2.082
342.93,2.082
344.02,2.082
345.11,2.082
346.20,2.082
347.28,2.082
348.37,2.082
349.46,2.082
350.54,2.071
351.63,2.060
352.72,2.054
353.80,2.037
354.89,2.026
355.98,1.992
357.07,1.981
358.15,1.952
359.24,1.930
360.33,1.896
361.41,1.874
362.50,1.857
363.59,1.829
364.67,1.800
365.76,1.778
366.85,1.755
367.93,1.727
369.02,1.693
370.11,1.659
371.20,1.626
372.28,1.597
373.37,1.575
374.46,1.547
375.54,1.513
376.63,1.485
377.72,1.451
378.80,1.440
##END=
