##TITLE=7-amino-[1,2,4]triazolo[1,5-c]pyrimidine-5(6H)-thione
##JCAMP-DX=4.24
##DATA TYPE=UV/VIS SPECTRUM
##ORIGIN=INSTITUTE OF ENERGY PROBLEMS OF CHEMICAL PHYSICS, RAS
##OWNER=INEP CP RAS, NIST OSRD
Collection (C) 2007 copyright by the U.S. Secretary of Commerce
on behalf of the United States of America. All rights reserved.
##CAS REGISTRY NO=70182-88-6
##MOLFORM=C5H5N5S
##MP=> 300
##SOURCE REFERENCE=RAS UV No. 22204
##$NIST SQUIB=1985KON/421
##$NIST SOURCE=TYUGLMTE
##SPECTROMETER/DATA SYSTEM=Beckman-26
##XUNITS=Wavelength (nm)
##YUNITS=Logarithm epsilon
##XFACTOR=1.0
##YFACTOR=1.0
##FIRSTX=216.906
##LASTX=364.56
##FIRSTY=4.443
##MAXX=364.56
##MINX=216.906
##MAXY=4.443
##MINY=3.728
##NPOINTS=189
##$REF AUTHOR=Konyukhov, V.N.; et al.
##$REF JOURNAL=Khim. Geterosikl. Soedin.
##$REF PAGE=421
##$REF DATE=1985
##XYPOINTS=(XY..XY)
216.906,4.443
217.115,4.439
217.915,4.430
218.715,4.420
219.515,4.410
220.315,4.400
221.115,4.389
221.915,4.377
222.715,4.365
223.515,4.351
224.315,4.336
225.115,4.319
225.915,4.301
226.715,4.280
227.515,4.258
228.315,4.233
229.115,4.206
229.915,4.176
230.715,4.143
231.515,4.107
232.315,4.068
232.858,4.038
233.658,3.994
234.458,3.952
235.258,3.912
236.058,3.875
236.858,3.842
237.658,3.812
238.458,3.788
239.258,3.768
240.058,3.753
240.858,3.744
241.658,3.740
242.458,3.741
243.258,3.747
244.058,3.757
244.858,3.770
245.658,3.784
246.458,3.798
247.216,3.807
248.016,3.825
248.816,3.842
249.616,3.859
250.416,3.876
251.216,3.892
252.016,3.909
252.816,3.925
253.616,3.942
254.416,3.958
255.216,3.974
256.016,3.989
256.816,4.005
257.616,4.020
258.416,4.035
259.216,4.050
260.016,4.064
260.816,4.079
261.616,4.093
262.416,4.107
263.216,4.120
264.016,4.133
264.816,4.146
265.616,4.159
266.416,4.171
267.216,4.183
268.016,4.195
268.816,4.206
269.616,4.217
270.416,4.228
271.216,4.238
272.016,4.248
272.816,4.257
273.338,4.264
274.138,4.273
274.938,4.282
275.738,4.290
276.538,4.298
277.338,4.306
278.138,4.313
278.938,4.320
279.738,4.325
280.538,4.329
281.338,4.331
282.138,4.331
282.938,4.330
283.738,4.326
284.538,4.320
285.338,4.312
286.138,4.301
286.938,4.288
287.695,4.275
288.495,4.250
289.295,4.223
290.095,4.195
290.895,4.166
291.695,4.136
292.495,4.105
293.295,4.074
294.095,4.042
294.895,4.007
295.695,3.968
296.495,3.924
297.295,3.872
297.756,3.839
298.463,3.805
299.062,3.780
299.862,3.756
300.662,3.740
301.462,3.731
302.262,3.728
303.062,3.729
303.862,3.733
304.662,3.740
305.462,3.748
306.262,3.758
307.062,3.768
307.862,3.778
308.662,3.789
309.462,3.799
310.262,3.810
311.062,3.822
311.624,3.833
312.424,3.843
313.224,3.854
314.024,3.864
314.824,3.875
315.624,3.886
316.424,3.896
317.224,3.907
318.024,3.917
318.824,3.928
319.624,3.938
320.424,3.948
321.224,3.958
322.024,3.968
322.824,3.977
323.624,3.987
324.424,3.996
325.224,4.005
326.024,4.013
326.824,4.022
327.624,4.030
328.424,4.038
329.224,4.046
330.024,4.054
330.824,4.061
331.624,4.068
332.424,4.075
333.224,4.082
334.024,4.088
334.824,4.095
335.624,4.101
336.424,4.107
337.224,4.113
337.360,4.114
338.160,4.120
338.960,4.126
339.760,4.132
340.560,4.137
341.360,4.141
342.160,4.144
342.960,4.147
343.760,4.148
344.560,4.149
345.360,4.148
346.160,4.146
346.960,4.142
347.760,4.138
348.560,4.132
349.360,4.124
350.160,4.116
350.960,4.106
351.760,4.095
352.560,4.083
353.360,4.070
354.160,4.056
354.960,4.041
355.760,4.025
356.560,4.009
357.360,3.992
358.160,3.976
358.960,3.959
359.760,3.942
360.560,3.925
361.360,3.909
362.160,3.894
362.960,3.880
363.760,3.867
364.560,3.855
##END=
