##TITLE=di-(2-thienyl)methanone
##JCAMP-DX=4.24
##DATA TYPE=UV/VIS SPECTRUM
##ORIGIN=INSTITUTE OF ENERGY PROBLEMS OF CHEMICAL PHYSICS, RAS
##OWNER=INEP CP RAS, NIST OSRD
Collection (C) 2007 copyright by the U.S. Secretary of Commerce
on behalf of the United States of America. All rights reserved.
##CAS REGISTRY NO=704-38-1
##MOLFORM=C9H6OS2
##MP=88-89
##BP=189-190/10 mm
##SOURCE REFERENCE=RAS UV No. 22795
##$NIST SQUIB=1976FIS/501
##$NIST SOURCE=TYUGLMTE
##SPECTROMETER/DATA SYSTEM=Hitachi-Perkin-Elmer EPS-3T
##XUNITS=Wavelength (nm)
##YUNITS=Logarithm epsilon
##XFACTOR=1.0
##YFACTOR=1.0
##FIRSTX=220.102
##LASTX=345.605
##FIRSTY=3.603
##MAXX=345.605
##MINX=220.102
##MAXY=4.186
##MINY=3.184
##NPOINTS=86
##$REF AUTHOR=Fisichella, S.; et al.
##$REF JOURNAL=Spectrochim. Acta
##$REF VOLUME=32A
##$REF PAGE=501
##$REF DATE=1976
##XYPOINTS=(XY..XY)
220.102,3.603
221.602,3.557
223.102,3.512
224.602,3.468
226.102,3.425
227.602,3.383
229.102,3.342
230.602,3.303
232.102,3.268
233.602,3.236
235.102,3.211
236.602,3.193
238.102,3.184
239.602,3.187
241.102,3.205
242.602,3.238
244.102,3.292
244.124,3.293
245.624,3.345
247.124,3.407
248.624,3.475
250.124,3.543
251.624,3.609
253.124,3.670
254.624,3.725
256.124,3.772
257.624,3.813
259.124,3.848
260.410,3.875
261.910,3.903
263.410,3.928
264.910,3.948
266.410,3.964
267.910,3.975
269.410,3.981
270.910,3.983
272.410,3.981
273.910,3.975
275.410,3.968
276.910,3.959
278.410,3.950
279.910,3.942
281.410,3.936
282.910,3.933
284.410,3.933
285.653,3.935
287.153,3.939
288.653,3.946
290.153,3.957
291.653,3.970
293.153,3.985
294.653,4.002
296.153,4.020
297.653,4.039
299.153,4.059
300.653,4.078
302.153,4.096
303.653,4.114
305.153,4.129
306.653,4.144
308.153,4.156
309.471,4.166
310.971,4.174
312.471,4.181
313.971,4.185
315.471,4.186
316.971,4.181
318.471,4.170
319.971,4.153
321.471,4.130
322.971,4.100
324.471,4.066
325.971,4.027
327.282,3.989
328.782,3.945
330.282,3.897
331.782,3.849
333.282,3.803
334.782,3.757
336.282,3.707
337.782,3.647
339.605,3.568
341.105,3.504
342.605,3.443
344.105,3.387
345.605,3.337
##END=
