##TITLE=Benzenesulfonamide, 4-methyl-
##JCAMP-DX=4.24
##DATA TYPE=UV/VIS SPECTRUM
##ORIGIN=INSTITUTE OF ENERGY PROBLEMS OF CHEMICAL PHYSICS, RAS
##OWNER=INEP CP RAS, NIST OSRD
Collection (C) 2007 copyright by the U.S. Secretary of Commerce
on behalf of the United States of America. All rights reserved.
##CAS REGISTRY NO=70-55-3
##MOLFORM=C7H9NO2S
##MP=138
##SOURCE REFERENCE=RAS UV No. 18992
##$NIST SQUIB=1972LAN117
##$NIST SOURCE=TYUGLMTE
##SPECTROMETER/DATA SYSTEM=Unicam SP 800
##XUNITS=Wavelength (nm)
##YUNITS=Logarithm epsilon
##XFACTOR=1.0
##YFACTOR=1.0
##FIRSTX=201.19
##LASTX=284.99
##FIRSTY=4.149
##MAXX=284.99
##MINX=201.19
##MAXY=4.149
##MINY=0.474
##NPOINTS=164
##$REF AUTHOR=Lang (editor), L.
##$REF JOURNAL=Absorption Spectra in the Ultraviolet and Visible Region
##$REF VOLUME=16
##$REF PAGE=117
##$REF DATE=1972
##XYPOINTS=(XY..XY)
201.19,4.149
201.35,4.142
201.52,4.138
201.86,4.043
202.54,3.978
203.22,3.886
203.89,3.781
204.57,3.713
205.25,3.641
205.93,3.570
206.60,3.515
207.28,3.498
207.96,3.498
208.63,3.501
209.31,3.512
209.99,3.525
210.67,3.546
211.34,3.559
212.02,3.576
212.70,3.593
213.38,3.610
214.05,3.627
214.73,3.644
215.41,3.665
216.08,3.692
216.76,3.713
217.44,3.740
218.12,3.767
218.79,3.794
219.47,3.818
220.15,3.842
220.82,3.866
221.50,3.890
222.18,3.907
222.86,3.924
223.53,3.937
224.21,3.948
224.89,3.954
225.56,3.954
226.24,3.954
226.92,3.951
227.60,3.944
228.27,3.937
228.95,3.934
229.63,3.920
230.31,3.903
230.98,3.879
231.66,3.849
232.34,3.818
233.01,3.788
233.69,3.757
234.37,3.713
235.05,3.662
235.72,3.604
236.40,3.532
237.08,3.457
237.75,3.341
238.43,3.243
239.11,3.137
239.79,3.059
240.46,2.950
241.14,2.851
241.82,2.766
242.50,2.664
243.17,2.578
243.85,2.480
244.53,2.398
245.20,2.306
245.88,2.265
246.56,2.231
247.91,2.204
249.44,2.200
250.62,2.217
251.64,2.238
252.48,2.265
253.33,2.289
254.35,2.313
255.02,2.340
256.04,2.361
256.89,2.374
257.06,2.378
257.22,2.378
257.39,2.381
257.56,2.384
257.73,2.384
257.90,2.388
258.07,2.391
258.24,2.391
258.41,2.395
258.58,2.398
258.92,2.391
259.26,2.381
259.59,2.378
259.93,2.367
260.27,2.364
260.61,2.361
260.95,2.361
261.29,2.367
261.63,2.378
261.97,2.391
262.30,2.408
262.64,2.415
262.98,2.435
263.32,2.446
263.66,2.459
264.00,2.469
264.34,2.483
264.67,2.490
265.01,2.487
265.35,2.469
265.69,2.459
266.03,2.446
266.37,2.432
266.71,2.412
267.04,2.401
267.38,2.391
267.72,2.378
268.06,2.364
268.40,2.354
268.74,2.354
269.08,2.361
269.41,2.364
269.75,2.367
270.09,2.378
270.43,2.381
270.77,2.367
271.11,2.350
271.45,2.326
271.78,2.303
272.12,2.282
272.46,2.258
272.80,2.234
273.14,2.214
273.48,2.197
273.82,2.177
274.16,2.170
274.49,2.163
274.83,2.166
275.17,2.166
275.51,2.204
275.85,2.200
276.19,2.146
276.53,2.044
277.20,1.911
278.56,1.751
278.90,1.717
279.23,1.662
279.57,1.574
279.91,1.495
280.25,1.455
280.59,1.363
280.93,1.274
281.27,1.230
281.60,1.145
281.94,1.070
282.28,1.036
282.62,0.937
282.96,0.865
283.30,0.811
283.64,0.739
283.97,0.654
284.31,0.583
284.65,0.538
284.99,0.474
##END=
