##TITLE=9-propyl-9H-purin-6-amine
##JCAMP-DX=4.24
##DATA TYPE=UV/VIS SPECTRUM
##ORIGIN=INSTITUTE OF ENERGY PROBLEMS OF CHEMICAL PHYSICS, RAS
##OWNER=INEP CP RAS, NIST OSRD
Collection (C) 2007 copyright by the U.S. Secretary of Commerce
on behalf of the United States of America. All rights reserved.
##CAS REGISTRY NO=707-98-2
##MOLFORM=C8H11N5
##MP=175.5-177
##SOURCE REFERENCE=RAS UV No. 23280
##$NIST SQUIB=1975MIT/4095
##$NIST SOURCE=TYUGLMTE
##SPECTROMETER/DATA SYSTEM=Cary 15
##XUNITS=Wavelength (nm)
##YUNITS=Logarithm epsilon
##XFACTOR=1.0
##YFACTOR=1.0
##FIRSTX=193.333
##LASTX=287.264
##FIRSTY=4.275
##MAXX=287.264
##MINX=193.333
##MAXY=4.329
##MINY=2.506
##NPOINTS=93
##$REF AUTHOR=Mitai, K.; et al.
##$REF JOURNAL=J. Am. Chem. Soc.
##$REF VOLUME=97
##$REF PAGE=4095
##$REF DATE=1975
##XYPOINTS=(XY..XY)
193.333,4.275
194.333,4.258
195.333,4.250
196.333,4.250
197.333,4.254
198.333,4.262
199.333,4.273
200.333,4.284
201.333,4.295
202.333,4.306
203.333,4.315
204.333,4.323
205.333,4.328
206.333,4.329
207.234,4.328
208.234,4.320
209.234,4.313
210.234,4.305
211.234,4.295
212.234,4.281
213.234,4.264
214.234,4.242
215.234,4.217
216.234,4.188
217.234,4.155
218.234,4.117
219.234,4.070
220.234,4.006
220.380,3.995
221.380,3.880
222.380,3.762
223.380,3.647
224.380,3.545
225.380,3.467
226.380,3.421
227.380,3.403
228.380,3.404
229.380,3.414
230.380,3.425
231.380,3.438
232.380,3.457
233.333,3.487
234.285,3.499
235.238,3.533
236.666,3.564
238.095,3.612
239.523,3.663
240.952,3.709
242.381,3.757
243.809,3.806
245.238,3.850
246.520,3.888
247.520,3.919
248.520,3.950
249.520,3.979
250.520,4.006
251.520,4.031
252.520,4.053
253.520,4.073
254.520,4.091
255.520,4.107
256.520,4.121
257.520,4.134
258.305,4.146
259.305,4.156
260.305,4.164
261.305,4.170
262.305,4.172
263.305,4.170
264.305,4.164
265.305,4.154
266.305,4.140
267.305,4.123
268.305,4.103
269.305,4.080
270.305,4.055
271.305,4.028
272.305,3.996
273.264,3.959
274.264,3.911
275.264,3.856
276.264,3.793
277.264,3.720
278.264,3.637
279.264,3.542
280.264,3.435
281.264,3.316
282.264,3.188
283.264,3.055
284.264,2.928
285.264,2.813
286.264,2.697
287.264,2.506
##END=
