##TITLE=6a, 7, 14a, 15-tetrahydro[1,2,4,5]tetrazino[1,6-a:4,3-a']diquinoline
##JCAMP-DX=4.24
##DATA TYPE=UV/VIS SPECTRUM
##ORIGIN=INSTITUTE OF ENERGY PROBLEMS OF CHEMICAL PHYSICS, RAS
##OWNER=INEP CP RAS, NIST OSRD
Collection (C) 2007 copyright by the U.S. Secretary of Commerce
on behalf of the United States of America. All rights reserved.
##CAS REGISTRY NO=7184-52-3
##MOLFORM=C18H16N4
##MP=151-152 dec.
##SOURCE REFERENCE=RAS UV No. 22665
##$NIST SQUIB=1977HUI/506
##$NIST SOURCE=TYUGLMTE
##SPECTROMETER/DATA SYSTEM=unknown
##XUNITS=Wavelength (nm)
##YUNITS=Logarithm epsilon
##XFACTOR=1.0
##YFACTOR=1.0
##FIRSTX=207.129
##LASTX=386.243
##FIRSTY=4.207
##MAXX=386.243
##MINX=207.129
##MAXY=4.378
##MINY=2.81
##NPOINTS=121
##$REF AUTHOR=Huisgen, R.; et al.
##$REF JOURNAL=Liebigs Ann Chem.
##$REF PAGE=506
##$REF DATE=1977
##XYPOINTS=(XY..XY)
207.129,4.207
208.629,4.267
210.129,4.328
211.629,4.367
213.129,4.378
214.629,4.369
216.129,4.347
217.814,4.310
219.314,4.260
220.814,4.224
222.314,4.199
223.814,4.184
225.314,4.175
226.814,4.170
228.314,4.168
229.814,4.164
231.314,4.158
232.154,4.153
233.654,4.141
235.154,4.132
236.654,4.122
238.154,4.108
239.654,4.090
241.154,4.066
242.654,4.036
244.154,4.001
245.651,3.964
247.151,3.931
248.651,3.902
250.151,3.877
251.651,3.858
253.151,3.845
254.651,3.838
256.151,3.836
257.651,3.838
259.151,3.844
260.554,3.850
262.054,3.855
263.554,3.858
265.054,3.860
266.554,3.863
268.054,3.863
269.554,3.862
271.054,3.856
272.554,3.847
274.054,3.833
275.457,3.821
276.957,3.803
278.457,3.789
279.957,3.781
281.457,3.780
282.957,3.785
284.457,3.797
285.957,3.815
287.457,3.837
289.047,3.860
290.547,3.884
292.047,3.910
293.547,3.937
295.047,3.963
296.547,3.990
298.047,4.017
299.547,4.043
301.047,4.068
302.547,4.093
304.047,4.117
305.547,4.139
307.047,4.160
308.547,4.180
310.047,4.197
311.547,4.213
313.047,4.227
314.547,4.239
316.047,4.249
317.547,4.256
319.047,4.261
320.547,4.264
322.047,4.264
323.547,4.261
325.047,4.257
326.547,4.249
328.047,4.239
329.547,4.227
331.047,4.212
332.547,4.195
334.047,4.175
335.547,4.153
337.047,4.129
338.547,4.103
340.047,4.074
341.547,4.044
343.047,4.011
344.547,3.977
346.047,3.941
347.547,3.904
349.047,3.865
350.547,3.825
352.047,3.784
353.547,3.742
355.047,3.698
356.547,3.654
358.047,3.610
359.547,3.565
361.047,3.519
362.547,3.474
364.047,3.428
365.547,3.382
367.047,3.337
368.547,3.291
370.047,3.246
371.547,3.202
373.047,3.158
374.547,3.115
376.047,3.072
377.547,3.030
379.047,2.989
380.547,2.949
382.047,2.909
383.547,2.870
385.047,2.832
386.243,2.810
##END=
