##TITLE=Alizarin
##JCAMP-DX=4.24
##DATA TYPE=UV/VIS SPECTRUM
##ORIGIN=INSTITUTE OF ENERGY PROBLEMS OF CHEMICAL PHYSICS, RAS
##OWNER=INEP CP RAS, NIST OSRD
Collection (C) 2007 copyright by the U.S. Secretary of Commerce
on behalf of the United States of America. All rights reserved.
##CAS REGISTRY NO=72-48-0
##MOLFORM=C14H8O4
##MP=289
##SOURCE REFERENCE=RAS UV No. 8666
##$NIST SQUIB=1966BAR/SZO180B
##$NIST SOURCE=TSGMTE
##SPECTROMETER/DATA SYSTEM=Beckman DU
##XUNITS=Wavelength (nm)
##YUNITS=Logarithm epsilon
##XFACTOR=1.000000
##YFACTOR=1.000000
##FIRSTX=209.6757
##LASTX=488.6142
##FIRSTY=4.04591
##MAXX=488.614
##MINX=209.676
##MAXY=4.4667
##MINY=3.36002
##NPOINTS=997
##$REF AUTHOR=Bartecki, A.; Szoke, J.; Varsanyi, G.; Vizesy, M.
##$REF TITLE=Absorption spectra in the ultraviolet and visible region. Volume 3
##$REF PAGE=180
##$REF DATE=1966
##$REF PUBLISHER=Academic Press Inc.
##$REF LOCATION=New York
##XYPOINTS=(XY..XY)
209.6757,4.045913
209.8298,4.042927
209.8308,4.038927
209.9862,4.038942
210.1927,4.035962
210.3478,4.035977
210.5036,4.032992
210.7104,4.033012
210.8467,4.029023
212.9093,4.033225
212.9093,4.029224
213.2694,4.036260
213.2702,4.033260
213.7838,4.039311
213.7845,4.036310
213.9363,4.043326
213.9373,4.039326
214.2948,4.046361
214.2956,4.043361
214.6009,4.049391
214.6024,4.046391
214.8022,4.053411
214.8066,4.049411
215.1083,4.056441
215.1091,4.053441
215.3133,4.056461
215.6201,4.063492
215.8240,4.066512
215.8248,4.063511
216.1311,4.069542
216.1319,4.066542
216.3366,4.073562
216.3376,4.069562
216.4696,4.076574
216.4935,4.073578
216.8307,4.076609
216.8332,4.079610
216.9883,4.079625
217.3476,4.086661
217.5027,4.089677
217.5027,4.086676
217.6570,4.093692
217.6580,4.089692
217.8635,4.093712
218.0171,4.096728
218.1714,4.099743
218.1722,4.096743
218.3753,4.103763
218.3764,4.099763
218.6814,4.106793
218.6822,4.103793
218.8856,4.109814
218.8864,4.106813
219.0391,4.109829
219.1924,4.113844
219.3948,4.116864
219.3964,4.113864
219.5481,4.116879
219.7009,4.119894
221.7076,4.124221
221.7094,4.120220
221.8601,4.127236
221.8619,4.124236
222.0145,4.127251
222.3719,4.134286
222.4706,4.147242
222.5247,4.137302
222.5263,4.134301
222.6249,4.147257
222.7305,4.137322
222.7785,4.150272
222.8830,4.140337
222.9832,4.154293
222.9842,4.150292
223.0355,4.144352
223.0373,4.140352
223.1367,4.157308
223.1375,4.154308
223.2412,4.144372
223.2910,4.157323
223.4960,4.160343
223.6503,4.160358
224.0086,4.167394
224.1621,4.170409
224.1629,4.167409
224.3154,4.174425
224.3165,4.170424
224.5212,4.174445
224.8283,4.180475
225.0330,4.184496
225.0340,4.180495
225.3408,4.187526
225.3416,4.184526
225.5458,4.190546
225.5466,4.187546
225.7001,4.190561
225.8534,4.194577
226.0592,4.194597
226.3663,4.200627
226.5710,4.204648
226.5720,4.200647
226.7253,4.204663
227.0838,4.210698
227.3914,4.214729
227.3924,4.210728
227.5972,4.214749
227.7507,4.217764
227.9050,4.217779
228.1100,4.220799
228.2643,4.220814
228.4176,4.224830
228.6234,4.224850
228.7769,4.227865
229.1370,4.227900
229.2905,4.230915
229.4448,4.230930
229.6495,4.234951
230.3175,4.238016
230.3182,4.235016
230.8318,4.238066
230.9854,4.241081
231.3444,4.245117
231.3455,4.241116
231.7037,4.248152
231.7045,4.245152
231.8573,4.251167
231.8580,4.248167
232.0105,4.255183
232.0116,4.251182
232.2163,4.255203
232.3698,4.258218
232.5234,4.261233
232.5242,4.258233
232.8816,4.268269
233.0352,4.271284
233.0360,4.268284
233.2399,4.275305
233.2409,4.271304
233.3935,4.278320
233.3942,4.275320
233.5470,4.281335
233.5478,4.278335
233.7528,4.281355
234.4178,4.295422
234.5714,4.298437
234.5722,4.295437
234.7764,4.301457
234.7771,4.298457
234.9297,4.305473
234.9307,4.301472
235.0832,4.308488
235.0840,4.305488
235.2882,4.311508
235.2889,4.308508
235.4425,4.311523
235.5958,4.315539
235.8008,4.318559
235.8015,4.315559
235.9543,4.321574
235.9551,4.318574
236.1076,4.325590
236.1086,4.321589
236.3126,4.328610
236.3133,4.325610
236.4669,4.328625
236.8244,4.338661
236.8251,4.335661
237.1322,4.341691
237.1330,4.338691
237.3370,4.345712
237.3380,4.341711
237.4905,4.348727
237.4913,4.345727
237.6440,4.351742
237.6448,4.348742
237.8498,4.351762
238.0031,4.355778
238.1566,4.358793
238.1574,4.355793
238.3616,4.361813
238.5149,4.365829
238.5159,4.361828
238.6684,4.368844
238.6692,4.365844
238.8742,4.368864
239.3860,4.378915
239.5395,4.381930
239.5403,4.378930
239.6928,4.385946
239.6938,4.381945
239.8978,4.388966
239.8986,4.385966
240.0513,4.391981
240.0521,4.388981
240.2056,4.391996
240.4104,4.396017
240.5639,4.399032
240.5647,4.396032
240.7175,4.402047
240.7182,4.399047
240.9222,4.406068
240.9232,4.402067
241.0757,4.409083
241.0765,4.406083
241.2300,4.409098
241.4350,4.412118
241.5883,4.416134
241.5893,4.412133
241.7418,4.419149
241.7426,4.416149
241.9468,4.422169
241.9476,4.419169
242.1001,4.426184
242.1011,4.422184
242.2537,4.429200
242.2544,4.426199
242.4586,4.432220
242.4594,4.429220
242.7662,4.436250
242.7673,4.432250
242.9720,4.436270
243.4838,4.446321
243.6373,4.449337
243.6381,4.446336
243.7916,4.449352
243.9966,4.452372
244.1509,4.452387
244.3042,4.456402
244.5100,4.456422
244.6635,4.459438
244.8178,4.459453
245.0228,4.462473
245.5362,4.466523
245.5372,4.462523
247.3879,4.466703
247.5947,4.462723
247.9033,4.462753
248.1099,4.459773
248.4185,4.459803
248.7804,4.452837
248.9347,4.452852
249.1412,4.449872
249.2955,4.449887
249.8125,4.439936
250.1725,4.439971
250.1733,4.436971
250.3276,4.436986
250.6895,4.430020
250.9981,4.430050
251.3600,4.423084
251.5143,4.423099
251.7208,4.420119
252.0294,4.420149
252.2360,4.417169
252.5446,4.417199
252.7514,4.413218
252.9057,4.413233
253.0608,4.410248
253.5752,4.410298
253.7817,4.407318
254.0903,4.407348
254.2971,4.403367
254.4514,4.403382
254.6065,4.400397
255.1209,4.400447
255.3274,4.397467
255.4817,4.397482
255.6370,4.393496
255.8428,4.393516
255.9979,4.390531
256.1522,4.390546
256.3587,4.387566
256.6674,4.387596
257.0292,4.380630
257.1835,4.380645
257.3901,4.377665
257.5444,4.377680
257.9062,4.370714
258.0605,4.370729
258.0613,4.367729
258.2156,4.367744
258.7326,4.357793
258.9383,4.357813
259.4553,4.347862
259.6096,4.347877
259.6106,4.343876
259.7649,4.343891
259.7657,4.340891
259.9715,4.340911
260.2819,4.333940
260.4877,4.333960
260.4884,4.330960
260.7971,4.330990
260.7978,4.327990
261.0036,4.328010
261.0046,4.324009
261.1589,4.324024
261.1597,4.321024
261.3140,4.321039
261.3148,4.318039
261.5205,4.318059
261.8310,4.311088
261.8317,4.308088
262.1918,4.308123
262.1928,4.304122
262.3471,4.304137
262.3479,4.301137
262.8649,4.291186
263.0706,4.291206
263.0714,4.288206
263.2257,4.288221
263.2267,4.284221
263.7437,4.274270
263.8980,4.274285
263.8988,4.271284
264.1045,4.271304
264.1053,4.268304
264.6222,4.258353
264.7766,4.258368
264.7776,4.254368
265.1392,4.248402
265.1402,4.244402
265.2945,4.244417
265.2953,4.241416
265.4496,4.241431
265.4504,4.238431
265.6561,4.238451
265.6572,4.234451
266.1741,4.224500
266.3284,4.224515
266.3292,4.221514
266.4835,4.221529
266.6900,4.218549
266.6911,4.214549
266.8454,4.214564
267.0005,4.211578
267.2062,4.211598
267.5167,4.204628
267.7224,4.204648
267.8775,4.201662
268.2376,4.201697
268.3926,4.198712
269.0613,4.198777
269.2681,4.194797
270.2969,4.194897
270.4520,4.191911
273.0239,4.192161
273.1790,4.189176
275.4422,4.189396
275.5976,4.185411
277.1407,4.185561
277.2958,4.182575
278.5303,4.182696
278.5311,4.179695
279.1998,4.179760
279.3551,4.175775
279.5609,4.175795
279.7159,4.172810
280.2303,4.172860
280.5922,4.165894
280.9008,4.165924
280.9016,4.162924
281.1073,4.162944
281.2624,4.159958
281.4167,4.159973
281.6235,4.155993
281.7778,4.156008
281.7786,4.153008
281.9329,4.153023
282.2948,4.146057
282.4491,4.146072
282.6556,4.143092
282.8099,4.143107
282.8107,4.140106
283.1708,4.140141
283.4812,4.133171
283.6870,4.133191
283.6877,4.130190
283.8420,4.130205
283.9974,4.126220
284.2031,4.126240
284.5133,4.120269
284.7191,4.120289
284.7201,4.116289
284.8744,4.116304
285.2360,4.110338
285.3903,4.110353
285.3914,4.106353
285.7514,4.106388
285.7522,4.103388
285.9065,4.103403
286.0616,4.100417
286.0626,4.096417
286.2684,4.096437
286.4235,4.093452
286.5778,4.093467
286.5785,4.090466
286.7843,4.090486
286.7853,4.086486
286.9396,4.086501
286.9404,4.083501
287.0947,4.083516
287.6117,4.073565
287.8174,4.073585
287.8182,4.070584
287.9725,4.070599
288.3344,4.063634
288.3352,4.060633
288.4895,4.060648
288.8513,4.053683
289.0057,4.053698
289.0064,4.050697
289.6787,4.036761
289.8845,4.036781
289.8852,4.033781
290.0403,4.030796
290.0414,4.026795
290.1957,4.026810
290.4022,4.023830
290.5565,4.023845
290.5573,4.020845
290.7116,4.020860
290.7126,4.016859
290.9191,4.013879
291.0735,4.013894
291.0742,4.010894
291.2296,4.006908
291.4353,4.006928
291.4361,4.003928
291.5904,4.003943
291.5912,4.000943
291.7455,4.000958
291.7465,3.996957
291.9523,3.996977
292.1074,3.993992
292.1081,3.990992
292.2624,3.991007
292.4692,3.987026
292.4700,3.984026
292.6243,3.984041
292.6251,3.981041
292.7794,3.981056
311.7464,3.635857
311.9007,3.635872
311.9015,3.632871
312.2615,3.632906
312.4169,3.628921
312.6226,3.628941
312.7777,3.625956
312.9320,3.625971
313.1386,3.622990
313.4472,3.623020
313.4482,3.619020
313.8083,3.619055
313.8091,3.616055
314.1691,3.616090
314.3242,3.613104
314.6843,3.613139
314.6853,3.609139
314.9939,3.609169
315.2005,3.606189
315.5091,3.606219
315.7156,3.603238
316.0242,3.603268
316.2310,3.599288
316.5396,3.599318
316.7462,3.596338
316.9005,3.596353
317.0556,3.593367
317.5699,3.593417
317.7767,3.589437
318.2911,3.589487
318.4462,3.586502
319.1149,3.586567
319.3214,3.583586
319.9901,3.583651
320.1454,3.579666
321.0199,3.579751
321.0207,3.576751
322.0494,3.576851
322.2045,3.573865
323.4390,3.573986
323.4401,3.569985
324.9832,3.570135
325.1383,3.567150
326.3213,3.567265
326.5279,3.564285
327.5566,3.564385
327.7120,3.560399
328.3807,3.560464
328.5872,3.557484
329.1016,3.557534
329.2567,3.554549
329.4110,3.554564
329.6178,3.550583
330.2864,3.550648
330.4415,3.547663
330.8016,3.547698
330.9567,3.544713
331.3168,3.544748
331.4721,3.540762
331.9865,3.540812
331.9880,3.534812
332.5024,3.534862
332.7092,3.530881
333.2236,3.530931
333.2243,3.527931
333.3786,3.527946
333.5337,3.524961
333.7395,3.524981
333.8948,3.520995
334.2549,3.521030
334.2557,3.518030
334.5643,3.518060
334.7708,3.515080
334.9251,3.515095
335.0805,3.511109
335.2862,3.511129
335.2870,3.508129
335.5956,3.508159
335.8021,3.505179
335.9565,3.505194
336.1118,3.501208
336.4719,3.501243
336.4726,3.498243
336.6270,3.498258
336.8335,3.495278
336.9878,3.495293
337.1431,3.491307
337.5032,3.491342
337.5040,3.488342
337.8640,3.488377
337.8648,3.485377
338.1734,3.485407
338.5353,3.478441
338.8954,3.478476
338.8961,3.475476
339.0505,3.475491
339.4123,3.468525
339.7209,3.468555
339.7217,3.465555
340.0818,3.465590
340.0828,3.461589
340.2371,3.461604
340.4437,3.458624
340.5980,3.458639
340.7531,3.455654
340.9588,3.455674
340.9598,3.451673
341.2685,3.451703
341.4750,3.448723
341.6293,3.448738
341.9912,3.441772
342.1455,3.441787
342.3006,3.438802
342.5063,3.438822
342.6614,3.435837
342.8157,3.435852
343.0225,3.431872
343.1768,3.431887
343.3319,3.428901
343.5376,3.428921
343.5384,3.425921
344.0528,3.425971
344.2081,3.421986
344.3625,3.422001
344.3632,3.419000
344.8776,3.419050
345.0841,3.416070
345.2384,3.416085
345.2395,3.412085
345.7539,3.412135
345.9089,3.409149
346.1147,3.409169
346.2698,3.406184
346.7842,3.406234
346.9395,3.402249
347.2996,3.402284
347.4547,3.399298
347.8147,3.399333
347.8155,3.396333
348.3299,3.396383
348.4852,3.392398
348.9996,3.392448
349.2061,3.389467
349.5147,3.389497
349.7213,3.386517
350.5443,3.386597
350.7511,3.382617
351.2654,3.382667
351.4205,3.379681
352.4493,3.379781
352.6044,3.376796
353.8389,3.376916
353.9942,3.372931
355.8974,3.373116
356.0525,3.370130
361.1963,3.370630
361.3499,3.373646
363.2531,3.373831
363.4063,3.377846
364.7952,3.377981
364.9487,3.380997
365.9775,3.381097
366.1825,3.384117
366.8512,3.384182
367.0044,3.388197
368.2389,3.388317
368.3925,3.391333
368.9069,3.391383
369.0604,3.394398
369.9349,3.394483
370.0881,3.398498
370.4482,3.398533
370.6018,3.401549
371.1161,3.401599
371.3211,3.404619
371.8355,3.404669
371.9888,3.408684
372.5032,3.408734
372.6567,3.411750
373.1711,3.411800
373.3761,3.414820
373.6847,3.414850
373.8894,3.418870
374.4038,3.418920
374.5573,3.421936
374.9174,3.421971
375.0709,3.424986
375.5853,3.425036
375.7386,3.429051
375.9444,3.429071
376.0979,3.432087
376.6123,3.432137
376.7658,3.435152
377.2802,3.435202
377.4849,3.439222
377.9985,3.442273
377.9993,3.439272
378.5129,3.442323
378.6665,3.445338
379.1808,3.445388
379.3341,3.449403
379.5399,3.449423
379.6934,3.452439
380.2078,3.452489
380.3613,3.455504
380.8757,3.455554
381.0804,3.459574
381.3891,3.459604
381.5941,3.462625
381.9027,3.462655
382.1077,3.465675
382.4163,3.465705
382.6210,3.469725
382.9296,3.469755
383.1346,3.472776
383.4432,3.472806
383.6482,3.475826
383.8025,3.475841
383.9558,3.479856
384.3159,3.479891
384.4694,3.482907
384.8295,3.482942
384.9830,3.485957
385.3431,3.485992
385.4964,3.490007
386.0100,3.493058
386.0108,3.490057
386.3701,3.493093
386.5236,3.496108
386.8837,3.496143
387.0370,3.500158
387.3963,3.503194
387.3970,3.500193
387.9106,3.503244
388.0642,3.506259
388.2699,3.506279
388.4232,3.510294
388.5775,3.510309
388.7825,3.513330
389.0911,3.513360
389.2961,3.516380
389.4504,3.516395
389.6037,3.520410
389.8095,3.520430
389.9630,3.523446
390.3231,3.523481
390.4766,3.526496
390.9910,3.526546
391.1443,3.530561
391.3500,3.530581
391.5036,3.533597
391.6579,3.533612
391.8629,3.536632
392.1715,3.536662
392.3762,3.540682
392.6849,3.540712
406.3905,3.652058
406.5448,3.652073
406.7498,3.655094
407.0584,3.655124
407.2634,3.658144
407.5720,3.658174
407.7768,3.662194
408.0854,3.662224
408.2904,3.665245
408.5990,3.665275
408.8040,3.668295
408.9583,3.668310
409.1116,3.672325
409.4716,3.672360
409.6252,3.675376
410.1388,3.678426
410.1396,3.675426
410.4989,3.678461
410.6522,3.682476
411.1665,3.682526
411.3715,3.685547
411.6801,3.685577
411.8851,3.688597
412.1937,3.688627
412.3985,3.692647
412.9129,3.692697
413.0664,3.695713
413.4265,3.695748
413.5800,3.698763
414.0944,3.698813
414.2477,3.702828
414.7620,3.702878
414.9670,3.705899
415.4814,3.705949
415.6349,3.708964
416.3036,3.709029
416.5084,3.713049
416.8170,3.713079
417.0220,3.716100
417.3306,3.716130
417.5356,3.719150
418.2043,3.719215
418.3576,3.723230
419.0777,3.723300
419.2312,3.726316
419.7456,3.726366
419.8992,3.729381
420.6193,3.729451
420.7726,3.733466
421.6470,3.733551
421.8006,3.736567
422.3149,3.736617
422.4685,3.739632
423.1886,3.739702
423.3419,3.743717
424.5250,3.743832
424.7300,3.746853
425.7587,3.746953
425.9123,3.749968
427.3011,3.750103
427.4544,3.754118
429.3576,3.754303
429.5111,3.757319
436.7124,3.758019
436.8675,3.755033
440.3139,3.755368
440.4692,3.751383
442.7325,3.751603
442.7333,3.748603
444.2764,3.748753
444.2772,3.745753
445.3059,3.745853
445.4613,3.741867
446.3357,3.741952
446.4908,3.738967
447.1595,3.739032
447.3660,3.736052
448.0347,3.736117
448.1901,3.732131
448.7044,3.732181
448.9110,3.729201
449.5797,3.729266
449.7347,3.726281
450.0948,3.726316
450.2502,3.722330
450.7645,3.722380
450.9711,3.719400
451.2797,3.719430
451.4862,3.716450
452.0006,3.716500
452.1559,3.712514
452.6703,3.712564
452.8254,3.709579
453.3398,3.709629
453.5463,3.706649
453.8549,3.706679
454.0617,3.702698
454.3703,3.702728
454.5769,3.699748
454.8855,3.699778
455.0920,3.696798
455.4006,3.696828
455.6074,3.692847
455.9160,3.692877
456.1226,3.689897
456.2769,3.689912
456.4320,3.686927
456.9464,3.686977
457.1531,3.682996
457.3074,3.683011
457.4625,3.680026
457.8226,3.680061
457.9777,3.677076
458.3377,3.677111
458.4931,3.673125
458.6988,3.673145
458.8539,3.670160
459.2140,3.670195
459.3691,3.667210
459.7291,3.667245
459.8845,3.663259
460.0388,3.663274
460.2453,3.660294
460.3996,3.660309
460.5547,3.657324
460.9148,3.657359
461.0701,3.653373
461.4302,3.653408
461.4310,3.650408
461.7910,3.650443
461.9461,3.647458
462.1004,3.647473
462.1015,3.643472
462.6158,3.643522
462.6166,3.640522
462.9767,3.640557
462.9775,3.637557
463.3375,3.637592
463.4929,3.633606
463.6472,3.633622
463.8537,3.630641
464.1623,3.630671
464.3689,3.627691
464.5232,3.627706
464.5242,3.623706
464.8843,3.623741
465.0393,3.620755
465.1937,3.620770
465.4002,3.617790
465.5545,3.617805
465.7098,3.613820
465.9156,3.613840
466.0707,3.610854
466.2250,3.610869
466.4315,3.607889
466.5858,3.607904
466.7412,3.603919
466.9469,3.603939
467.1020,3.600953
467.2563,3.600968
467.4629,3.597988
467.6172,3.598003
467.7725,3.594018
468.1326,3.594053
468.1333,3.591052
468.2877,3.591067
468.4942,3.588087
468.6485,3.588102
468.8038,3.584117
469.0096,3.584137
469.1647,3.581151
469.3190,3.581166
469.5255,3.578186
469.6798,3.578201
469.8352,3.574216
470.0409,3.574236
470.1960,3.571250
470.3503,3.571265
470.5568,3.568285
470.7112,3.568300
471.0730,3.561334
471.3817,3.561364
471.7435,3.554399
471.8978,3.554414
472.1044,3.551433
472.2587,3.551448
472.4138,3.548463
472.6195,3.548483
472.6205,3.544483
472.9292,3.544513
472.9299,3.541512
473.2900,3.541547
473.6519,3.534582
473.9605,3.534612
473.9613,3.531611
474.1670,3.531631
474.3221,3.528646
474.4764,3.528661
474.4775,3.524661
474.8375,3.524696
474.8383,3.521695
474.9926,3.521710
475.1991,3.518730
475.3534,3.518745
475.5088,3.514760
475.7145,3.514780
475.8696,3.511795
476.0239,3.511809
476.0247,3.508809
476.3848,3.508844
476.3858,3.504844
476.5401,3.504859
476.7466,3.501879
476.9010,3.501894
476.9017,3.498893
477.2618,3.498928
477.2628,3.494928
477.4171,3.494943
477.5722,3.491958
477.7780,3.491978
477.7787,3.488977
478.0874,3.489007
478.0884,3.485007
478.4485,3.485042
478.4492,3.482042
478.6035,3.482057
478.8101,3.479076
478.9644,3.479091
478.9654,3.475091
479.3255,3.475126
479.3263,3.472126
479.4806,3.472141
479.6357,3.469155
479.8414,3.469175
479.8424,3.465175
479.9967,3.465190
480.1518,3.462205
480.3576,3.462225
480.3584,3.459224
480.5127,3.459239
480.6680,3.455254
480.8738,3.455274
481.0289,3.452289
481.1832,3.452304
481.1839,3.449303
481.5440,3.449338
481.5450,3.445338
481.6993,3.445353
481.7001,3.442353
482.0602,3.442388
482.0610,3.439387
482.2153,3.439402
482.4220,3.435422
482.5764,3.435437
482.5771,3.432437
482.7314,3.432452
482.9380,3.429471
483.0923,3.429486
483.2476,3.425501
483.4534,3.425521
483.4542,3.422521
483.6085,3.422536
483.7636,3.419550
483.9693,3.419570
483.9703,3.415570
484.1246,3.415585
484.2797,3.412600
484.4855,3.412620
484.4863,3.409619
484.7949,3.409649
484.7959,3.405649
485.0017,3.405669
485.0024,3.402669
485.3111,3.402699
485.3118,3.399698
485.5176,3.399718
485.6729,3.395733
485.8272,3.395748
485.8280,3.392748
486.0338,3.392768
486.1889,3.389782
486.3432,3.389797
486.3442,3.385797
486.5499,3.385817
486.7050,3.382832
486.8593,3.382847
487.0659,3.379866
487.2202,3.379882
487.2212,3.375881
487.3755,3.375896
487.5821,3.372916
487.7364,3.372931
487.7371,3.369931
488.0972,3.369966
488.0982,3.365965
488.2525,3.365980
488.2533,3.362980
488.6134,3.363015
488.6142,3.360015
##END=
