##TITLE=1H-indol-3-amine
##JCAMP-DX=4.24
##DATA TYPE=UV/VIS SPECTRUM
##ORIGIN=INSTITUTE OF ENERGY PROBLEMS OF CHEMICAL PHYSICS, RAS
##OWNER=INEP CP RAS, NIST OSRD
Collection (C) 2007 copyright by the U.S. Secretary of Commerce
on behalf of the United States of America. All rights reserved.
##CAS REGISTRY NO=7250-19-3
##MOLFORM=C8H8N2
##MP=117
##SOURCE REFERENCE=RAS UV No. 22598
##$NIST SQUIB=1977YAR/481
##$NIST SOURCE=TYUGLMTE
##SPECTROMETER/DATA SYSTEM=Specord UV-Vis
##XUNITS=Wavelength (nm)
##YUNITS=Logarithm epsilon
##XFACTOR=1.0
##YFACTOR=1.0
##FIRSTX=205.721
##LASTX=341.363
##FIRSTY=4.149
##MAXX=341.363
##MINX=205.721
##MAXY=4.345
##MINY=2.642
##NPOINTS=138
##$REF AUTHOR=Yarosh, A.V.; et al.
##$REF JOURNAL=Khim. Geterosikl. Soedin.
##$REF PAGE=481
##$REF DATE=1977
##XYPOINTS=(XY..XY)
205.721,4.149
206.721,4.100
207.721,4.064
208.721,4.039
209.721,4.024
210.721,4.016
211.721,4.016
212.721,4.022
213.721,4.032
214.721,4.047
215.721,4.065
216.721,4.085
217.721,4.106
218.721,4.128
219.721,4.151
220.721,4.173
221.721,4.195
222.721,4.216
223.721,4.235
224.721,4.254
225.534,4.271
226.534,4.283
227.534,4.300
228.534,4.317
229.534,4.332
230.534,4.342
231.534,4.345
232.534,4.341
233.534,4.330
234.534,4.311
235.534,4.286
236.534,4.256
237.534,4.220
238.534,4.181
239.534,4.140
240.534,4.095
241.534,4.050
242.534,4.001
243.534,3.951
244.534,3.896
245.534,3.835
245.560,3.839
246.560,3.750
247.560,3.654
248.560,3.561
249.560,3.479
250.560,3.411
251.560,3.360
252.560,3.325
253.560,3.306
254.560,3.298
255.560,3.301
256.560,3.309
257.560,3.321
258.560,3.333
259.560,3.344
260.473,3.347
261.473,3.362
262.473,3.377
263.473,3.392
264.473,3.406
265.473,3.419
266.473,3.433
267.473,3.446
268.473,3.459
269.473,3.472
270.473,3.484
271.473,3.496
272.473,3.508
273.473,3.520
274.473,3.531
275.473,3.541
276.473,3.551
277.473,3.560
278.473,3.568
279.473,3.575
280.473,3.582
281.473,3.587
282.473,3.592
283.473,3.595
284.473,3.598
285.473,3.599
286.473,3.599
287.473,3.598
288.473,3.595
289.473,3.592
290.473,3.587
291.363,3.582
292.363,3.574
293.363,3.564
294.363,3.553
295.363,3.541
296.363,3.529
297.363,3.515
298.363,3.501
299.363,3.487
300.363,3.472
301.363,3.456
302.363,3.441
303.363,3.425
304.363,3.408
305.363,3.392
306.363,3.375
307.363,3.358
308.363,3.341
309.363,3.323
310.363,3.306
311.363,3.287
312.363,3.269
313.363,3.250
314.363,3.231
315.363,3.212
316.363,3.193
317.363,3.173
318.363,3.153
319.363,3.133
320.363,3.112
321.363,3.092
322.363,3.071
323.363,3.050
324.363,3.030
325.363,3.009
326.363,2.988
327.363,2.967
328.363,2.946
329.363,2.925
330.363,2.904
331.363,2.883
332.363,2.862
333.363,2.840
334.363,2.818
335.363,2.796
336.363,2.774
337.363,2.750
338.363,2.725
339.363,2.699
340.363,2.672
341.363,2.642
##END=
