##TITLE=4-(4'chlorophenyl)azo-1-naphthol
##JCAMP-DX=4.24
##DATA TYPE=UV/VIS SPECTRUM
##ORIGIN=INSTITUTE OF ENERGY PROBLEMS OF CHEMICAL PHYSICS, RAS
##OWNER=INEP CP RAS, NIST OSRD
Collection (C) 2007 copyright by the U.S. Secretary of Commerce
on behalf of the United States of America. All rights reserved.
##CAS REGISTRY NO=7252-64-4
##MOLFORM=C16H11ClN2O
##SOURCE REFERENCE=RAS UV No. 22169
##$NIST SQUIB=1978KIS/3882
##$NIST SOURCE=TYUGLMTE
##SPECTROMETER/DATA SYSTEM=Shimadzu MPS-50 L
##XUNITS=Wavelength (nm)
##YUNITS=Logarithm epsilon
##XFACTOR=1.0
##YFACTOR=1.0
##FIRSTX=304.945
##LASTX=552.201
##FIRSTY=3.864
##MAXX=552.201
##MINX=304.945
##MAXY=4.307
##MINY=2.894
##NPOINTS=125
##$REF AUTHOR=Kishimoto, S.; et al.
##$REF JOURNAL=J. Org. Chem.
##$REF VOLUME=43
##$REF PAGE=3882
##$REF DATE=1978
##XYPOINTS=(XY..XY)
304.945,3.864
305.272,3.865
307.272,3.846
309.272,3.828
311.272,3.812
313.272,3.797
315.272,3.783
317.272,3.770
319.272,3.758
321.272,3.747
323.272,3.737
325.272,3.727
327.272,3.719
329.272,3.711
331.272,3.704
333.272,3.698
335.272,3.693
337.272,3.688
339.272,3.684
341.272,3.680
343.694,3.675
345.694,3.663
347.694,3.652
349.694,3.643
351.694,3.635
353.694,3.630
355.694,3.626
357.694,3.626
359.694,3.630
361.694,3.637
363.694,3.648
365.694,3.663
367.694,3.682
369.694,3.703
371.694,3.726
373.694,3.750
375.694,3.775
377.694,3.799
379.694,3.821
381.694,3.842
383.694,3.861
385.801,3.881
387.801,3.896
389.801,3.910
391.801,3.924
393.801,3.938
395.801,3.951
397.801,3.964
399.801,3.976
401.801,3.988
403.801,3.999
405.801,4.010
407.801,4.020
409.801,4.030
411.801,4.039
413.801,4.048
415.801,4.056
417.801,4.064
419.801,4.072
421.801,4.080
423.801,4.087
425.801,4.095
427.801,4.103
429.801,4.110
431.801,4.118
433.801,4.126
435.801,4.135
437.801,4.143
439.801,4.152
441.801,4.161
443.801,4.171
445.801,4.181
447.801,4.191
449.801,4.202
451.801,4.212
453.801,4.223
455.801,4.234
457.801,4.245
459.801,4.255
462.269,4.266
464.269,4.272
466.269,4.280
468.269,4.288
470.269,4.296
472.269,4.301
474.269,4.305
476.269,4.307
478.269,4.306
480.269,4.303
482.269,4.299
484.269,4.293
486.269,4.287
488.269,4.280
490.269,4.272
492.269,4.262
494.269,4.251
496.628,4.234
498.628,4.213
500.628,4.192
502.628,4.172
504.628,4.150
506.628,4.127
508.628,4.102
510.628,4.075
512.628,4.046
514.628,4.014
516.628,3.981
518.628,3.946
520.628,3.908
522.628,3.869
524.628,3.828
526.628,3.784
528.628,3.738
530.628,3.688
532.628,3.636
534.628,3.579
536.628,3.518
538.628,3.452
540.628,3.381
542.628,3.305
544.628,3.224
546.628,3.139
548.628,3.050
550.628,2.959
552.201,2.894
##END=
