##TITLE=2,4,6-Tri-tert-butylphenol
##JCAMP-DX=4.24
##DATA TYPE=UV/VIS SPECTRUM
##ORIGIN=INSTITUTE OF ENERGY PROBLEMS OF CHEMICAL PHYSICS, RAS
##OWNER=INEP CP RAS, NIST OSRD
Collection (C) 2007 copyright by the U.S. Secretary of Commerce
on behalf of the United States of America. All rights reserved.
##CAS REGISTRY NO=732-26-3
##MOLFORM=C18H30O
##MP=131
##BP=278
##SOURCE REFERENCE=RAS UV No. 8994
##$NIST SQUIB=1966ROC/ROSd9/55C
##$NIST SOURCE=TSGMTE
##SPECTROMETER/DATA SYSTEM=Unicam SP 700
##XUNITS=Wavelength (nm)
##YUNITS=Logarithm epsilon
##XFACTOR=1.000000
##YFACTOR=1.000000
##FIRSTX=291.8713
##LASTX=193.3049
##FIRSTY=1.62366
##MAXX=291.871
##MINX=193.305
##MAXY=4.71875
##MINY=1.62366
##NPOINTS=233
##$REF AUTHOR=Rochester, C.H.; Rossall, B.; Timmons, C.J.
##$REF TITLE=2,4,6-Tri-t-butylphenol
##$REF BOOK TITLE=UV Atlas of Organic Compounds - Vol. 2
##$REF PAGE=D9/55
##$REF DATE=1966
##$REF PUBLISHER=Plenum Press
##$REF LOCATION=New York
##XYPOINTS=(XY..XY)
291.8713,1.623659
291.6817,1.661012
291.5030,1.696097
291.3340,1.729107
291.1738,1.760242
291.0215,1.789696
290.8759,1.817667
290.7363,1.844351
290.6015,1.869945
290.4706,1.894644
290.3427,1.918647
290.2167,1.942149
290.0918,1.965347
289.9670,1.988438
289.8413,2.011617
289.7138,2.035082
289.5836,2.059029
289.4496,2.083656
289.3110,2.109157
289.1668,2.135731
289.0162,2.163573
288.8581,2.192880
288.6917,2.223849
288.5161,2.256675
288.3303,2.291557
288.1334,2.328690
287.9246,2.368271
287.7030,2.410497
287.4677,2.455563
287.2178,2.503668
286.9525,2.555006
286.6709,2.609775
286.6709,2.609775
286.5265,2.612361
286.3823,2.614890
286.2380,2.617304
286.2380,2.617304
286.1185,2.650035
286.0031,2.682958
285.8893,2.716050
285.7747,2.749286
285.6569,2.782643
285.5333,2.816097
285.4016,2.849625
285.2592,2.883202
285.1039,2.916805
284.9332,2.950410
284.7447,2.983993
284.5360,3.017530
284.3048,3.050997
284.0489,3.084372
283.7658,3.117629
283.4533,3.150746
283.1093,3.183698
282.7315,3.216461
282.3178,3.249012
281.8661,3.281327
281.3745,3.313382
281.3745,3.313382
281.1249,3.318521
280.9515,3.323190
280.7019,3.327643
280.7019,3.327643
279.2849,3.324706
278.6707,3.318267
277.6310,3.304464
277.6310,3.304464
275.7702,3.305532
273.9348,3.307229
272.0690,3.304361
272.0690,3.304361
270.7760,3.274146
269.5920,3.243719
268.5025,3.213002
267.4937,3.181916
266.5523,3.150384
265.6655,3.118327
264.8207,3.085665
264.0059,3.052322
263.2094,3.018217
263.2094,3.018217
262.9210,3.009749
262.7276,3.001607
262.6024,2.990536
262.6024,2.990536
260.9928,2.916304
259.7824,2.859775
258.8916,2.817603
258.2454,2.786441
257.7719,2.762944
257.4011,2.743763
257.0642,2.725553
256.6933,2.704968
256.6933,2.704968
256.6030,2.703622
256.5052,2.702164
256.4037,2.700649
256.4037,2.700649
254.7443,2.614969
253.7435,2.562342
253.2213,2.533734
253.0074,2.520111
252.9358,2.512438
252.9358,2.512438
251.9940,2.482596
251.3598,2.446422
250.6979,2.409385
249.6810,2.376956
249.6810,2.376956
249.1465,2.350740
248.2005,2.319862
247.3903,2.293532
247.3903,2.293532
245.8168,2.290794
244.5437,2.308341
243.5531,2.337244
242.8297,2.368575
242.3599,2.393404
242.3599,2.393404
241.3604,2.473059
240.9620,2.503234
240.8178,2.509794
240.8178,2.509794
240.5382,2.542030
240.2658,2.574261
240.0000,2.606489
239.7401,2.638711
239.4856,2.670928
239.2359,2.703140
238.9903,2.735345
238.7482,2.767544
238.5091,2.799736
238.2725,2.831920
238.0377,2.864097
237.8041,2.896265
237.5712,2.928424
237.3384,2.960574
237.1052,2.992715
236.8711,3.024845
236.6353,3.056965
236.3976,3.089074
236.1571,3.121171
235.9136,3.153257
235.6663,3.185330
235.4149,3.217391
235.1587,3.249438
234.8973,3.281472
234.6301,3.313492
234.3567,3.345497
234.0765,3.377488
233.7891,3.409463
233.7891,3.409463
233.3526,3.446929
232.9151,3.484395
232.4772,3.521862
232.0397,3.559329
231.6032,3.596796
231.6032,3.596796
231.1475,3.622093
230.4317,3.657746
229.6745,3.682945
229.6745,3.682945
228.7065,3.718106
227.6388,3.750999
226.4452,3.781095
225.1009,3.807864
223.5832,3.830778
221.8714,3.849308
221.8714,3.849308
220.6506,3.879482
218.9084,3.905393
217.1487,3.923367
217.1487,3.923367
215.0495,3.932396
212.9953,3.940738
210.9677,3.949769
210.9677,3.949769
209.9114,3.977647
208.9919,4.008328
208.1895,4.041098
207.4854,4.075242
206.8615,4.110043
206.3005,4.144785
205.7855,4.178755
205.7855,4.178755
205.4483,4.212148
205.1386,4.245700
204.8506,4.279374
204.5790,4.313132
204.3182,4.346938
204.0629,4.380754
203.8078,4.414542
203.5476,4.448266
203.2771,4.481888
202.9911,4.515370
202.6845,4.548677
202.3524,4.581769
201.9897,4.614611
201.5916,4.647164
201.1534,4.679392
201.1534,4.679392
201.0103,4.684831
200.8136,4.692803
200.3940,4.706392
200.3940,4.706392
200.3396,4.706409
200.2807,4.706427
200.2196,4.706446
200.2196,4.706446
200.1090,4.710522
199.9984,4.714484
199.8879,4.718388
199.8879,4.718388
199.5103,4.718507
199.1319,4.718627
198.7504,4.718748
198.7504,4.718748
197.2770,4.687760
196.3037,4.648151
195.6707,4.600599
195.6707,4.600599
195.3515,4.582328
195.0279,4.552622
194.8176,4.527797
194.8176,4.527797
194.7681,4.526451
194.7164,4.524991
194.6604,4.523475
194.6604,4.523475
194.3220,4.482864
193.9839,4.442254
193.6452,4.401644
193.3049,4.361035
##END=
