##TITLE=2,2'-bis(methylthio)-1,1'-biphenyl
##JCAMP-DX=4.24
##DATA TYPE=UV/VIS SPECTRUM
##ORIGIN=INSTITUTE OF ENERGY PROBLEMS OF CHEMICAL PHYSICS, RAS
##OWNER=INEP CP RAS, NIST OSRD
Collection (C) 2007 copyright by the U.S. Secretary of Commerce
on behalf of the United States of America. All rights reserved.
##CAS REGISTRY NO=7343-32-0
##MOLFORM=C14H14S2
##MP=153-154
##SOURCE REFERENCE=RAS UV No. 23417
##$NIST SQUIB=1975ZHE/1304
##$NIST SOURCE=TYUGLMTE
##SPECTROMETER/DATA SYSTEM=SFD-2
##XUNITS=Wavelength (nm)
##YUNITS=Logarithm epsilon
##XFACTOR=1.0
##YFACTOR=1.0
##FIRSTX=215.104
##LASTX=316.1
##FIRSTY=4.451
##MAXX=316.1
##MINX=215.104
##MAXY=4.451
##MINY=2.279
##NPOINTS=104
##$REF AUTHOR=Zheltov, A.Ya.; et al.
##$REF JOURNAL=Zhur. Organ. Khim.
##$REF VOLUME=11
##$REF PAGE=1304
##$REF DATE=1975
##XYPOINTS=(XY..XY)
215.104,4.451
215.264,4.446
216.264,4.445
217.264,4.439
218.264,4.428
219.264,4.415
220.264,4.398
221.264,4.380
222.264,4.360
223.264,4.339
224.264,4.318
225.264,4.297
226.264,4.277
227.264,4.257
228.264,4.240
229.264,4.223
230.264,4.209
231.264,4.196
232.264,4.185
233.264,4.177
234.264,4.170
235.264,4.164
236.264,4.161
237.264,4.158
238.264,4.157
239.264,4.156
240.264,4.156
241.264,4.156
242.264,4.157
243.264,4.156
244.264,4.156
245.238,4.154
246.238,4.152
247.238,4.152
248.238,4.151
249.238,4.151
250.238,4.151
251.238,4.150
252.238,4.149
253.238,4.146
254.238,4.143
255.238,4.139
256.238,4.133
257.238,4.125
258.238,4.117
259.238,4.106
260.238,4.094
261.238,4.080
262.238,4.064
263.238,4.046
264.238,4.026
265.238,4.004
266.238,3.980
267.238,3.955
268.238,3.927
269.238,3.898
270.238,3.867
271.238,3.834
272.183,3.792
273.183,3.765
274.183,3.734
275.183,3.701
276.183,3.669
277.183,3.640
278.183,3.614
279.183,3.592
280.183,3.574
281.183,3.560
282.183,3.549
283.183,3.540
284.183,3.532
285.183,3.525
286.183,3.517
287.183,3.508
288.183,3.497
289.183,3.484
290.183,3.469
291.183,3.453
292.183,3.436
293.070,3.425
294.070,3.408
295.070,3.388
296.070,3.365
297.070,3.338
298.070,3.308
299.070,3.274
300.070,3.237
301.070,3.198
302.070,3.157
303.070,3.115
304.070,3.071
305.070,3.024
306.070,2.975
307.070,2.920
307.100,2.919
308.100,2.856
309.100,2.774
310.100,2.688
311.100,2.604
312.100,2.530
313.100,2.465
314.100,2.407
315.100,2.349
316.100,2.279
##END=
