##TITLE=N-[2-(aminosulfonyl)phenyl]-3-phenyl-2-propenamide
##JCAMP-DX=4.24
##DATA TYPE=UV/VIS SPECTRUM
##ORIGIN=INSTITUTE OF ENERGY PROBLEMS OF CHEMICAL PHYSICS, RAS
##OWNER=INEP CP RAS, NIST OSRD
Collection (C) 2007 copyright by the U.S. Secretary of Commerce
on behalf of the United States of America. All rights reserved.
##CAS REGISTRY NO=73676-80-9
##MOLFORM=C15H14N2O3S
##MP=220-221
##SOURCE REFERENCE=RAS UV No. 23044
##$NIST SQUIB=1984FED/907
##$NIST SOURCE=TYUGLMTE
##SPECTROMETER/DATA SYSTEM=Specord UV-Vis
##XUNITS=Wavelength (nm)
##YUNITS=Logarithm epsilon
##XFACTOR=1.0
##YFACTOR=1.0
##FIRSTX=203.387
##LASTX=341.041
##FIRSTY=4.395
##MAXX=341.041
##MINX=203.387
##MAXY=4.449
##MINY=3.452
##NPOINTS=94
##$REF AUTHOR=Fedenko, V.S.; et al.
##$REF JOURNAL=Khim. Geterosikl. Soedin.
##$REF PAGE=907
##$REF DATE=1984
##XYPOINTS=(XY..XY)
203.387,4.395
204.887,4.400
206.387,4.402
207.887,4.400
209.387,4.395
210.887,4.384
212.387,4.370
213.887,4.353
215.387,4.335
216.444,4.315
218.083,4.301
219.583,4.298
221.083,4.277
222.583,4.242
224.083,4.199
225.583,4.150
227.083,4.097
228.583,4.040
230.083,3.981
231.583,3.919
233.083,3.854
234.583,3.788
236.083,3.722
237.583,3.661
238.575,3.626
239.359,3.600
240.859,3.556
242.359,3.531
243.859,3.518
245.359,3.512
246.859,3.511
248.359,3.516
249.859,3.527
251.359,3.545
252.859,3.571
254.359,3.604
255.810,3.638
257.310,3.671
258.810,3.703
260.310,3.735
261.810,3.767
263.310,3.799
264.810,3.831
266.310,3.863
267.810,3.894
269.310,3.926
270.810,3.957
272.310,3.989
273.810,4.020
275.310,4.051
276.810,4.083
278.310,4.115
279.810,4.146
281.310,4.179
282.810,4.211
284.310,4.244
285.810,4.276
287.310,4.307
288.492,4.326
289.992,4.362
291.492,4.390
292.992,4.410
294.492,4.424
295.992,4.434
297.492,4.440
298.992,4.444
300.492,4.447
301.992,4.449
303.492,4.449
304.992,4.448
306.492,4.444
307.992,4.436
309.492,4.423
311.058,4.396
312.558,4.369
314.058,4.342
315.558,4.313
317.058,4.279
318.558,4.241
320.058,4.197
321.558,4.148
323.058,4.095
324.558,4.040
326.058,3.983
327.558,3.926
329.041,3.871
330.541,3.812
332.041,3.754
333.541,3.698
335.041,3.645
336.541,3.597
338.041,3.551
339.541,3.504
341.041,3.452
##END=
