##TITLE=3,4,5'-trimethyl-1,1'-biphenyl
##JCAMP-DX=4.24
##DATA TYPE=UV/VIS SPECTRUM
##ORIGIN=INSTITUTE OF ENERGY PROBLEMS OF CHEMICAL PHYSICS, RAS
##OWNER=INEP CP RAS, NIST OSRD
Collection (C) 2007 copyright by the U.S. Secretary of Commerce
on behalf of the United States of America. All rights reserved.
##CAS REGISTRY NO=7383-87-1
##MOLFORM=C15H16
##BP=43.5-44
##SOURCE REFERENCE=RAS UV No. 22227
##$NIST SQUIB=1978VOG/STE205
##$NIST SOURCE=TYUGLMTE
##SPECTROMETER/DATA SYSTEM=unknown
##XUNITS=Wavelength (nm)
##YUNITS=Logarithm epsilon
##XFACTOR=1.0
##YFACTOR=1.0
##FIRSTX=204.687
##LASTX=291.23
##FIRSTY=4.489
##MAXX=291.23
##MINX=204.687
##MAXY=4.527
##MINY=3.085
##NPOINTS=88
##$REF AUTHOR=Vogtle, F.; Steinhagen, G.
##$REF JOURNAL=Chem. Ber.
##$REF VOLUME=111
##$REF PAGE=205
##$REF DATE=1978
##XYPOINTS=(XY..XY)
204.687,4.489
205.687,4.512
206.687,4.523
207.687,4.527
208.687,4.525
209.687,4.520
210.687,4.512
211.687,4.501
212.687,4.488
213.687,4.471
214.687,4.449
215.687,4.422
216.687,4.389
217.687,4.349
218.687,4.302
219.687,4.250
220.687,4.194
221.687,4.136
222.674,4.081
223.674,4.027
224.674,3.974
225.674,3.925
226.674,3.879
227.674,3.839
228.674,3.803
229.674,3.771
230.674,3.743
231.674,3.719
232.674,3.700
233.674,3.686
234.674,3.681
235.674,3.687
236.651,3.710
237.651,3.740
238.651,3.783
239.651,3.825
240.651,3.860
241.651,3.886
242.265,3.898
243.265,3.937
244.265,3.971
245.265,4.000
246.265,4.027
247.265,4.050
248.265,4.071
249.265,4.089
250.265,4.106
251.265,4.120
252.265,4.133
253.265,4.143
254.265,4.152
255.265,4.158
256.265,4.162
257.265,4.164
258.265,4.163
259.265,4.160
260.265,4.154
261.265,4.147
262.265,4.136
263.265,4.124
264.265,4.110
265.265,4.093
266.265,4.075
267.265,4.055
268.265,4.035
269.265,4.013
270.265,3.990
271.265,3.966
272.265,3.942
273.265,3.918
274.265,3.893
275.265,3.867
276.265,3.841
277.265,3.813
278.230,3.784
279.230,3.748
280.230,3.713
281.230,3.676
282.230,3.637
283.230,3.595
284.230,3.549
285.230,3.499
286.230,3.445
287.230,3.385
288.230,3.319
289.230,3.247
290.230,3.169
291.230,3.085
##END=
