##TITLE=Bis(trifluoromethyl)thioketene
##JCAMP-DX=4.24
##DATA TYPE=UV/VIS SPECTRUM
##ORIGIN=INSTITUTE OF ENERGY PROBLEMS OF CHEMICAL PHYSICS, RAS
##OWNER=INEP CP RAS, NIST OSRD
Collection (C) 2007 copyright by the U.S. Secretary of Commerce
on behalf of the United States of America. All rights reserved.
##CAS REGISTRY NO=7445-60-5
##MOLFORM=C4F6S
##MP=54
##BP=52
##SOURCE REFERENCE=RAS UV No. 19963
##$NIST SQUIB=1966RAAb13/3
##$NIST SOURCE=TYUGLMTE
##SPECTROMETER/DATA SYSTEM=Cary 14
##XUNITS=Wavelength (nm)
##YUNITS=Logarithm epsilon
##XFACTOR=1.0
##YFACTOR=1.0
##FIRSTX=183.54
##LASTX=285.88
##FIRSTY=3.412
##MAXX=285.88
##MINX=183.54
##MAXY=3.835
##MINY=0.996
##NPOINTS=106
##$REF AUTHOR=Raash, M.S.
##$REF JOURNAL=UV atlas of organic compounds
##$REF VOLUME=1
##$REF PAGE=B13/3
##$REF DATE=1966
##XYPOINTS=(XY..XY)
183.54,3.412
183.65,3.415
183.75,3.419
183.86,3.422
183.97,3.425
184.19,3.432
184.85,3.460
185.51,3.488
186.18,3.513
186.85,3.542
187.52,3.566
188.21,3.592
188.89,3.613
189.58,3.639
190.28,3.663
190.98,3.687
191.69,3.708
192.40,3.730
193.12,3.749
193.84,3.764
194.57,3.782
195.30,3.798
196.04,3.812
196.79,3.823
197.54,3.830
198.30,3.833
199.06,3.835
199.83,3.831
200.60,3.827
201.38,3.819
202.17,3.804
202.96,3.786
203.76,3.756
204.56,3.729
205.37,3.697
206.19,3.660
207.02,3.615
207.85,3.560
208.69,3.501
209.53,3.430
210.38,3.350
211.24,3.293
212.10,3.224
212.98,3.155
213.86,3.075
214.74,3.019
215.64,2.943
216.54,2.881
217.45,2.812
218.37,2.747
219.29,2.698
220.22,2.651
221.16,2.601
222.11,2.556
223.07,2.510
224.03,2.463
225.01,2.426
225.99,2.394
226.98,2.365
227.98,2.332
228.99,2.293
230.01,2.258
231.03,2.222
232.07,2.179
233.11,2.128
234.17,2.089
235.23,2.046
236.30,1.990
237.39,1.943
238.48,1.914
239.58,1.887
240.70,1.848
241.82,1.806
242.96,1.770
244.10,1.731
245.26,1.699
246.42,1.662
247.60,1.638
248.79,1.614
249.99,1.593
251.21,1.569
252.43,1.550
253.67,1.530
254.92,1.509
256.18,1.482
257.45,1.455
258.74,1.437
260.04,1.421
261.35,1.402
262.67,1.384
264.01,1.368
265.37,1.354
266.73,1.334
268.12,1.320
269.51,1.309
270.92,1.294
272.35,1.280
273.79,1.264
275.24,1.243
276.71,1.219
278.20,1.185
279.70,1.153
281.22,1.113
282.76,1.073
284.31,1.034
285.88,0.996
##END=
