##TITLE=Methylamine
##JCAMP-DX=4.24
##DATA TYPE=UV/VIS SPECTRUM
##ORIGIN=INSTITUTE OF ENERGY PROBLEMS OF CHEMICAL PHYSICS, RAS
##OWNER=INEP CP RAS, NIST OSRD
Collection (C) 2007 copyright by the U.S. Secretary of Commerce
on behalf of the United States of America. All rights reserved.
##CAS REGISTRY NO=74-89-5
##MOLFORM=CH5N
##MP=-93.4
##BP=-6.3
##SOURCE REFERENCE=RAS UV No. 2772
##$NIST SQUIB=1953TAN/COF311-318
##$NIST SOURCE=TSGMTE
##SPECTROMETER/DATA SYSTEM=n.i.g.
##PRESSURE=0.01-1.8 mm Hg
##XUNITS=Wavelength (nm)
##YUNITS=Logarithm epsilon
##XFACTOR=1.000000
##YFACTOR=1.000000
##FIRSTX=236.1566
##LASTX=159.3957
##FIRSTY=2.1277
##MAXX=236.157
##MINX=159.396
##MAXY=3.41082
##MINY=2.08403
##NPOINTS=1000
##$REF AUTHOR=Tannenbaum, E.; Coffin, E.M.; Harrison, A.J.
##$REF TITLE=The far ultraviolet absorption spectra of simple alkyl amines
##$REF JOURNAL=J. Chem. Phys.
##$REF VOLUME=21
##$REF NUMBER=2
##$REF PAGE=311-318
##$REF DATE=1953
##XYPOINTS=(XY..XY)
236.1566,2.127697
235.9555,2.220987
235.7854,2.277454
235.7854,2.277454
235.7133,2.277212
235.6362,2.276954
235.5566,2.276687
235.5566,2.276687
235.4344,2.246374
235.3124,2.213292
235.1906,2.176407
235.1906,2.176407
234.7863,2.121664
234.5795,2.096478
234.3921,2.084033
234.3921,2.084033
234.1710,2.154686
233.9478,2.215917
233.7199,2.270423
233.7199,2.270423
233.6154,2.270061
233.5060,2.269681
233.3941,2.269292
233.3941,2.269292
233.0566,2.232222
232.8640,2.217457
232.6505,2.214568
232.6505,2.214568
232.5193,2.234031
232.4453,2.251514
232.3649,2.281153
232.3649,2.281153
232.3475,2.327954
232.3277,2.370536
232.3028,2.409929
231.8408,2.453145
231.7493,2.423832
231.6629,2.392410
231.5790,2.358543
231.5790,2.358543
231.4085,2.337343
231.2430,2.315851
231.0802,2.293659
230.9035,2.300398
230.7327,2.326880
230.6331,2.349893
230.5190,2.387857
230.5190,2.387857
230.4319,2.453754
230.3448,2.511205
230.2577,2.562379
230.2577,2.562379
230.1379,2.561127
230.0183,2.559650
229.8989,2.557722
229.8989,2.557722
229.8052,2.521616
229.7068,2.481691
229.6062,2.437421
229.6062,2.437421
229.5320,2.426445
229.4579,2.414875
229.3839,2.402350
229.3839,2.402350
229.2645,2.403522
229.1452,2.405008
229.0260,2.407123
229.0260,2.407123
228.9234,2.436336
228.8351,2.478465
228.6854,2.559486
228.6854,2.559486
228.5553,2.561538
228.4229,2.564016
228.2859,2.566691
228.2859,2.566691
228.2149,2.547394
228.1439,2.526961
228.0731,2.505014
228.0731,2.505014
227.9127,2.502058
227.7501,2.498565
227.5832,2.494775
227.5832,2.494775
227.4232,2.583761
227.2587,2.657927
227.0921,2.721405
227.0921,2.721405
227.0358,2.721332
226.9749,2.721252
226.9117,2.721170
226.9117,2.721170
226.9105,2.724807
226.9093,2.728716
226.9081,2.732738
226.8269,2.721060
226.7044,2.679682
226.5867,2.634137
226.4714,2.583676
226.4714,2.583676
226.4009,2.571781
226.3339,2.565301
226.2130,2.558844
226.0348,2.554473
225.9176,2.561283
225.8006,2.567987
225.6837,2.574590
225.6837,2.574590
225.5392,2.640837
225.3902,2.698621
225.2390,2.749752
225.2390,2.749752
225.1419,2.749631
225.0403,2.749506
224.9364,2.749377
224.9364,2.749377
224.8926,2.721765
224.8465,2.691946
224.7959,2.659744
224.7959,2.659744
224.7549,2.655659
224.7117,2.651353
224.6640,2.646631
224.6640,2.646631
224.5261,2.645563
224.3838,2.644302
224.2395,2.642667
224.2395,2.642667
224.0762,2.657399
223.9708,2.670703
223.8330,2.693479
223.8330,2.693479
223.6975,2.737174
223.6025,2.758744
223.4665,2.778844
223.4665,2.778844
223.3708,2.779358
223.2705,2.779999
223.1679,2.780904
223.1679,2.780904
222.9738,2.723946
222.8829,2.698760
222.8170,2.689061
222.8170,2.689061
222.7151,2.688142
222.6132,2.687055
222.5116,2.685632
222.5116,2.685632
222.4056,2.711819
222.2742,2.753604
222.0047,2.836009
222.0047,2.836009
221.9008,2.840351
221.8003,2.841876
221.6173,2.841919
221.6173,2.841919
221.4819,2.797798
221.3466,2.748538
221.2116,2.692640
221.2116,2.692640
221.0841,2.684075
220.9754,2.680783
220.7924,2.680058
220.7924,2.680058
220.7403,2.686033
220.6858,2.692087
220.6269,2.698375
220.6269,2.698375
220.5746,2.739239
220.5201,2.776719
220.4610,2.811464
220.4610,2.811464
220.4096,2.814364
220.3558,2.817489
220.2976,2.820708
220.2976,2.820708
220.2175,2.820051
220.1353,2.819268
220.0488,2.818233
220.0488,2.818233
219.9707,2.812593
219.8904,2.806876
219.8058,2.801078
219.8058,2.801078
219.7209,2.769344
219.6618,2.752458
219.5778,2.737226
219.5778,2.737226
219.4689,2.736217
219.3602,2.734909
219.2516,2.733448
219.2516,2.733448
219.1705,2.738696
219.0872,2.744024
218.9994,2.749570
218.9994,2.749570
218.9506,2.799746
218.8973,2.827299
218.7940,2.857994
218.7940,2.857994
218.7408,2.860598
218.6831,2.863404
218.6232,2.866299
218.6232,2.866299
218.5614,2.865724
218.4954,2.865034
218.4273,2.864121
218.4273,2.864121
218.3118,2.843693
218.2370,2.818766
218.1386,2.764341
218.1386,2.764341
217.9622,2.763467
217.7840,2.762450
217.6018,2.761145
217.6018,2.761145
217.5125,2.795090
217.4210,2.826812
217.3252,2.856482
217.3252,2.856482
217.2073,2.862363
217.1233,2.864468
217.0014,2.864656
217.0014,2.864656
216.9536,2.861973
216.9037,2.859048
216.8496,2.855986
216.8496,2.855986
216.7690,2.830895
216.6841,2.804132
216.5972,2.775339
216.5972,2.775339
216.5470,2.772196
216.4926,2.768889
216.4362,2.765276
216.4362,2.765276
216.2914,2.764280
216.1449,2.763000
215.9943,2.761572
215.9943,2.761572
215.9155,2.766493
215.8347,2.771492
215.7496,2.776700
215.7496,2.776700
215.6472,2.831828
215.5899,2.852608
215.5285,2.861143
215.5285,2.861143
215.4236,2.860514
215.3187,2.859774
215.2141,2.858808
215.2141,2.858808
215.1470,2.832852
215.0778,2.805242
215.0044,2.775752
215.0044,2.775752
214.9114,2.768886
214.8184,2.761911
214.7255,2.754821
214.7255,2.754821
214.6492,2.754718
214.5709,2.754613
214.4884,2.754502
214.4884,2.754502
214.4270,2.760319
214.3613,2.766331
214.2936,2.772394
214.2936,2.772394
214.1605,2.816584
214.0661,2.854820
213.9427,2.883860
213.9427,2.883860
213.8390,2.883263
213.7332,2.882558
213.6235,2.881635
213.6235,2.881635
213.5595,2.852332
213.4956,2.820665
213.4318,2.786373
213.4318,2.786373
213.3092,2.782861
213.1882,2.781463
212.9652,2.780999
212.9652,2.780999
212.8226,2.787994
212.6781,2.795005
212.5296,2.802154
212.5296,2.802154
212.5270,2.810093
212.5244,2.817890
212.5218,2.825549
212.5218,2.825549
212.3553,2.828000
212.1561,2.830399
211.7873,2.831163
211.7873,2.831163
211.7439,2.814720
211.6965,2.797495
211.6472,2.779289
211.6472,2.779289
211.4530,2.781087
211.3447,2.784052
211.2292,2.790660
211.2292,2.790660
211.1336,2.809772
211.0610,2.820489
210.9493,2.832329
210.9493,2.832329
210.8480,2.832764
210.7448,2.833315
210.6375,2.834097
210.6375,2.834097
210.6090,2.826171
210.5634,2.820889
210.4616,2.813742
210.4616,2.813742
210.4405,2.790061
210.4131,2.779050
210.3561,2.772099
210.3561,2.772099
210.2193,2.771278
210.0808,2.770316
209.9384,2.769071
209.9384,2.769071
209.8510,2.787283
209.7615,2.805012
209.6680,2.822163
209.6680,2.822163
209.6032,2.826437
209.5384,2.830670
209.4737,2.834862
209.4737,2.834862
209.3630,2.833511
209.2486,2.831913
209.1323,2.830187
209.1323,2.830187
209.1022,2.812046
209.0722,2.792983
209.0423,2.772773
209.0423,2.772773
208.9072,2.771953
208.7704,2.770992
208.6299,2.769749
208.6299,2.769749
208.4794,2.789206
208.3316,2.812452
208.2005,2.826913
208.2005,2.826913
208.1288,2.826826
208.0551,2.826737
207.9776,2.826643
207.9776,2.826643
207.8311,2.796458
207.7411,2.781654
207.6300,2.770833
207.6300,2.770833
207.4705,2.769973
207.3113,2.768974
207.1524,2.767697
207.1524,2.767697
206.9644,2.775354
206.8574,2.781789
206.7393,2.792431
206.7393,2.792431
206.6426,2.792302
206.5459,2.792173
206.4493,2.792044
206.4493,2.792044
206.3549,2.784650
206.2607,2.776858
206.1667,2.768786
205.7314,2.763188
205.5930,2.768409
205.4589,2.773301
205.3268,2.778007
205.3268,2.778007
205.2672,2.787240
205.1911,2.793542
205.0335,2.802325
205.0335,2.802325
204.9846,2.800539
204.9396,2.798752
204.8966,2.796960
204.8966,2.796960
204.8250,2.784542
204.7572,2.771900
204.6914,2.759163
204.1472,2.765896
204.0156,2.776141
203.8843,2.786018
203.7531,2.795416
203.7531,2.795416
203.5057,2.780103
203.2356,2.759310
202.9179,2.735024
202.9179,2.735024
202.7990,2.736813
202.6823,2.738451
202.5695,2.739794
202.5695,2.739794
202.5287,2.743654
202.4918,2.747342
202.4568,2.750715
202.4568,2.750715
202.3977,2.750625
202.3387,2.750534
202.2797,2.750444
202.2797,2.750444
202.1813,2.743648
202.1111,2.736345
202.0091,2.722033
202.0091,2.722033
201.8507,2.718084
201.7159,2.717861
201.4894,2.721179
201.4894,2.721179
201.4381,2.727059
201.3887,2.732565
201.3432,2.737860
201.3432,2.737860
201.2506,2.740826
201.1582,2.743480
201.0659,2.745973
201.0659,2.745973
200.9600,2.735646
200.8625,2.728863
200.6900,2.719853
200.6900,2.719853
200.0802,2.720012
199.4779,2.719869
198.8810,2.719576
198.8810,2.719576
198.7893,2.728307
198.6978,2.736719
198.6064,2.744681
198.6064,2.744681
198.5357,2.744567
198.4687,2.744459
198.4035,2.744354
198.4035,2.744354
198.2478,2.728131
198.0959,2.711441
197.9459,2.694413
197.8733,2.694281
197.7738,2.694888
197.6786,2.700193
197.5065,2.714423
197.5065,2.714423
197.4620,2.722878
197.4138,2.731466
197.3639,2.740030
197.3639,2.740030
197.2757,2.739885
197.1876,2.739740
197.0996,2.739594
197.0996,2.739594
197.0064,2.726485
196.9116,2.712652
196.8134,2.698196
196.8134,2.698196
196.6933,2.698919
196.5715,2.699960
196.4464,2.701152
196.4464,2.701152
196.3555,2.716602
196.2647,2.731522
196.1740,2.745946
196.1740,2.745946
196.0602,2.749126
195.8984,2.748189
195.5505,2.742296
195.5505,2.742296
195.5080,2.745523
195.4620,2.748864
195.4142,2.752462
195.4142,2.752462
195.3512,2.751693
195.2865,2.750777
195.2184,2.749565
195.2184,2.749565
195.1708,2.742318
195.1196,2.734942
195.0668,2.727435
195.0668,2.727435
195.0038,2.727326
194.9392,2.727214
194.8711,2.727095
194.8711,2.727095
194.8071,2.731723
194.7415,2.736299
194.6725,2.740821
194.6725,2.740821
194.3999,2.740946
194.1871,2.739411
193.9571,2.739607
193.9571,2.739607
193.8618,2.748151
193.7649,2.756811
193.6646,2.765433
193.6646,2.765433
193.5905,2.785408
193.5380,2.794940
193.4619,2.802711
193.4619,2.802711
193.3999,2.803212
193.3361,2.803836
193.2688,2.804707
193.2688,2.804707
193.1766,2.796912
193.1290,2.788650
193.0850,2.772537
193.0850,2.772537
192.9925,2.773025
192.8983,2.773645
192.8007,2.774530
192.8007,2.774530
192.6113,2.805564
192.5168,2.818055
192.4360,2.824090
192.4360,2.824090
192.3747,2.824002
192.3118,2.823913
192.2455,2.823818
192.2455,2.823818
192.2082,2.819934
192.1693,2.816014
192.1270,2.812052
192.1270,2.812052
192.0868,2.811993
192.0431,2.811929
191.9979,2.811862
191.9979,2.811862
191.9123,2.819506
191.8268,2.827018
191.7413,2.834403
191.7413,2.834403
191.6253,2.832404
191.5516,2.829382
191.4572,2.822684
191.4572,2.822684
191.3664,2.822552
191.2740,2.822418
191.1783,2.822280
191.1783,2.822280
191.0821,2.832406
191.0231,2.840960
190.9508,2.855112
190.9508,2.855112
190.7555,2.854848
190.5590,2.854582
190.3595,2.854311
190.3595,2.854311
190.1539,2.876687
190.0450,2.891301
189.9395,2.910825
189.9395,2.910825
189.8455,2.913149
189.7818,2.913533
189.6941,2.912311
189.6941,2.912311
189.6272,2.906282
189.5571,2.899961
189.4855,2.893441
189.4855,2.893441
189.4033,2.895191
189.3196,2.896931
189.2326,2.898660
189.2326,2.898660
189.1664,2.907470
189.1328,2.916535
189.1031,2.933298
189.1031,2.933298
189.0508,2.935474
188.9984,2.937826
188.9461,2.940257
188.9461,2.940257
188.8789,2.936820
188.8086,2.933257
188.7368,2.929473
188.7368,2.929473
188.6777,2.929847
188.6170,2.930313
188.5530,2.930964
188.5530,2.930964
188.5210,2.938521
188.4891,2.945950
188.4572,2.953253
188.4572,2.953253
188.3767,2.953583
188.2961,2.954002
188.2156,2.954600
188.2156,2.954600
188.1307,2.934837
188.0703,2.923689
187.9825,2.912017
187.9825,2.912017
187.8857,2.911899
187.7859,2.911777
187.6846,2.911653
187.6846,2.911653
187.6441,2.917788
187.6005,2.923835
187.5552,2.929797
187.5552,2.929797
187.4964,2.953113
187.4375,2.975413
187.3786,2.996704
187.3786,2.996704
187.2295,2.995345
187.1610,2.993655
187.1139,2.990168
187.1139,2.990168
187.1081,2.986058
187.1006,2.981907
187.0899,2.977712
187.0899,2.977712
187.0524,2.975743
187.0118,2.973676
186.9697,2.971425
186.9697,2.971425
186.8830,2.971733
186.7946,2.972126
186.7032,2.972686
186.7032,2.972686
186.6055,2.980613
186.5083,2.991781
186.3283,3.014998
186.3283,3.014998
186.2124,3.035203
186.0950,3.054650
185.9745,3.073329
185.9745,3.073329
185.5950,3.073899
185.4518,3.071876
185.2097,3.069895
185.2097,3.069895
185.1468,3.072920
184.9510,3.080057
184.8730,3.081196
184.7950,3.082333
184.7950,3.082333
184.7202,3.076828
184.6455,3.071252
184.5708,3.065604
184.5708,3.065604
184.5035,3.063876
184.4199,3.063802
184.2486,3.065317
184.2486,3.065317
184.1860,3.069212
184.1267,3.072938
184.0689,3.076566
184.0689,3.076566
183.8759,3.115939
183.6850,3.151982
183.4975,3.185158
183.4975,3.185158
183.4491,3.185914
183.4041,3.185884
183.3243,3.185039
183.3243,3.185039
183.2947,3.180020
183.2681,3.174998
183.2430,3.170028
183.2430,3.170028
183.1260,3.169526
183.0106,3.169134
182.8984,3.168799
182.8984,3.168799
182.8659,3.177548
182.8334,3.186123
182.8009,3.194533
182.8009,3.194533
182.7579,3.196236
182.7184,3.199671
182.6486,3.207683
182.6486,3.207683
182.5616,3.207242
182.4777,3.206904
182.3953,3.206616
182.3953,3.206616
182.3335,3.195839
182.2733,3.184789
182.2161,3.173454
182.2161,3.173454
182.1086,3.173792
182.0042,3.174024
181.9016,3.174203
181.9016,3.174203
181.7828,3.179843
181.6658,3.185307
181.5520,3.190653
181.5520,3.190653
181.5093,3.197521
181.4696,3.204183
181.4315,3.210696
181.4315,3.210696
181.3833,3.211937
181.3352,3.213076
181.2871,3.214163
181.2871,3.214163
181.2432,3.220015
181.2008,3.225694
181.1615,3.231255
181.1615,3.231255
181.0944,3.230849
181.0288,3.230539
180.9662,3.230278
180.9662,3.230278
180.9204,3.228115
180.8745,3.225989
180.8286,3.223949
180.8286,3.223949
180.7702,3.223542
180.7148,3.223233
180.6609,3.222973
180.6609,3.222973
180.6013,3.224821
180.5447,3.226568
180.4897,3.228261
180.4897,3.228261
180.4383,3.235669
180.3885,3.242907
180.3417,3.249938
180.3417,3.249938
180.2996,3.253160
180.2627,3.264291
180.1992,3.291678
180.1992,3.291678
180.1259,3.291321
180.0526,3.291047
179.9793,3.290813
179.9793,3.290813
179.9178,3.280280
179.8472,3.263407
179.7859,3.252043
179.7859,3.252043
179.7285,3.251195
179.6741,3.250346
179.6213,3.249497
179.6213,3.249497
179.5000,3.251303
179.4335,3.253001
179.3648,3.256034
179.3648,3.256034
179.2458,3.255962
179.1285,3.255890
179.0143,3.255821
179.0143,3.255821
178.9561,3.256933
178.9010,3.257955
178.8474,3.258931
178.8474,3.258931
178.7854,3.265830
178.7265,3.272581
178.6692,3.279144
178.6692,3.279144
178.5784,3.280461
178.4695,3.282858
178.2494,3.288347
178.2494,3.288347
178.2187,3.294815
178.1880,3.301149
178.1803,3.345656
178.1803,3.345656
178.1573,3.307311
178.1573,3.307311
178.1490,3.338768
178.1430,3.328991
178.1184,3.351961
178.0594,3.358142
178.0019,3.364167
178.0019,3.364167
177.9301,3.364132
177.8585,3.364098
177.7868,3.364063
177.7868,3.364063
177.7015,3.351970
177.6317,3.338281
177.5505,3.325897
177.5505,3.325897
177.4594,3.326141
177.3685,3.326309
177.2777,3.326438
177.2777,3.326438
177.1779,3.334091
177.0952,3.343783
177.0117,3.352547
177.0117,3.352547
176.9494,3.352241
176.8898,3.352008
176.8318,3.351811
176.8318,3.351811
176.7294,3.343121
176.6286,3.334291
176.5306,3.325355
176.5306,3.325355
176.4468,3.324343
176.3640,3.323941
176.2114,3.323808
176.2114,3.323808
176.1468,3.324971
176.0837,3.326094
176.0236,3.327139
176.0236,3.327139
175.9008,3.337663
175.7783,3.347865
175.6559,3.357797
175.6559,3.357797
175.6171,3.358891
175.5798,3.359983
175.5453,3.361074
175.5453,3.361074
175.4832,3.359665
175.4225,3.358323
175.3646,3.357013
175.3646,3.357013
175.3318,3.350734
175.3004,3.344401
175.2717,3.338049
175.2717,3.338049
175.1912,3.338290
175.1135,3.338459
175.0374,3.338592
175.0374,3.338592
175.0180,3.339573
175.0000,3.340516
174.9848,3.341385
174.9848,3.341385
174.8440,3.376771
174.7702,3.400279
174.7196,3.410816
174.7196,3.410816
174.6400,3.410294
174.5788,3.409497
174.4837,3.407738
174.4837,3.407738
174.4347,3.401423
174.3884,3.395017
174.3436,3.388515
174.3436,3.388515
174.3087,3.387612
174.2765,3.386742
174.2457,3.385938
174.2457,3.385938
174.2313,3.375030
174.1920,3.365501
174.0941,3.348954
174.0941,3.348954
174.0580,3.347518
174.0232,3.346151
173.9912,3.344817
173.9912,3.344817
173.8855,3.344761
173.7813,3.344706
173.6800,3.344653
173.6800,3.344653
173.6110,3.345594
173.5420,3.346498
173.4732,3.347326
173.4732,3.347326
173.4195,3.347020
173.3685,3.346787
173.3189,3.346592
173.3189,3.346592
173.2408,3.343232
173.1702,3.339075
173.0466,3.330461
173.0466,3.330461
172.9793,3.329745
172.9120,3.329028
172.8448,3.328309
172.8448,3.328309
172.8006,3.329980
172.7563,3.331607
172.7122,3.333152
172.7122,3.333152
172.6378,3.342403
172.5635,3.351388
172.4893,3.360157
172.4893,3.360157
172.4355,3.360762
172.3845,3.361368
172.3348,3.361974
172.3348,3.361974
172.3003,3.361488
172.2685,3.361039
172.2380,3.360660
172.2380,3.360660
172.1648,3.352845
172.0929,3.344962
172.0238,3.336971
172.0238,3.336971
171.9465,3.336928
171.8719,3.336887
171.7987,3.336847
171.7987,3.336847
171.7195,3.341931
171.6709,3.345954
171.6110,3.352343
171.6110,3.352343
171.5679,3.353281
171.5248,3.354181
171.4817,3.355008
171.4817,3.355008
171.4460,3.354514
171.4116,3.354056
171.3798,3.353670
171.3798,3.353670
171.3069,3.350169
171.2342,3.344674
171.0995,3.332258
171.0995,3.332258
170.9517,3.332250
170.8734,3.332732
170.7971,3.334112
170.7971,3.334112
170.7558,3.333128
170.7144,3.332217
170.6730,3.331342
170.6730,3.331342
170.6263,3.321532
170.5912,3.316045
170.5377,3.310280
170.5377,3.310280
170.4614,3.310537
170.3879,3.310717
170.3159,3.310859
170.3159,3.310859
170.2534,3.315236
170.1923,3.319570
170.1339,3.323863
170.1339,3.323863
170.0747,3.323535
170.0316,3.325180
170.0310,3.326088
170.0303,3.327070
170.0296,3.328088
170.0168,3.323285
169.9617,3.323074
169.9617,3.323074
169.9160,3.314033
169.8730,3.304882
169.8314,3.295575
169.8314,3.295575
169.7797,3.295543
169.7307,3.295513
169.6830,3.295483
169.6830,3.295483
169.6374,3.298062
169.5744,3.305074
169.4402,3.322079
169.4402,3.322079
169.3652,3.322035
169.2928,3.321993
169.2218,3.321951
169.2218,3.321951
169.1996,3.313731
169.1800,3.305353
169.1618,3.296812
169.1618,3.296812
169.1288,3.295697
169.0985,3.294622
169.0695,3.293627
169.0695,3.293627
169.0048,3.293586
168.9401,3.293546
168.8755,3.293505
168.8755,3.293505
168.8311,3.298612
168.7868,3.303619
168.7425,3.308489
168.7425,3.308489
168.6806,3.310081
168.6104,3.310637
168.4717,3.310638
168.4717,3.310638
168.2484,3.304061
168.0271,3.297384
167.8089,3.290604
167.8089,3.290604
167.1523,3.272958
166.5014,3.254583
165.8565,3.235437
164.7941,3.203032
164.6493,3.199088
164.5059,3.195213
164.5059,3.195213
164.4064,3.191719
164.2362,3.186565
164.1227,3.182194
164.1227,3.182194
162.7646,3.144099
162.1197,3.125397
161.9428,3.119406
161.9428,3.119406
161.4347,3.104662
160.7669,3.083441
160.0511,3.058694
159.3957,3.034005
##END=
