##TITLE=Methane, bromo-
##JCAMP-DX=4.24
##DATA TYPE=UV/VIS SPECTRUM
##ORIGIN=INSTITUTE OF ENERGY PROBLEMS OF CHEMICAL PHYSICS, RAS
##OWNER=INEP CP RAS, NIST OSRD
Collection (C) 2007 copyright by the U.S. Secretary of Commerce
on behalf of the United States of America. All rights reserved.
##CAS REGISTRY NO=74-83-9
##MOLFORM=CH3Br
##MP=- 93.7
##BP=3.5
##SOURCE REFERENCE=RAS UV No. 10156
##$NIST SQUIB=1951DAV467
##$NIST SOURCE=TYUGLMTE
##SPECTROMETER/DATA SYSTEM=Beckman DU
##XUNITS=Wavelength (nm)
##YUNITS=Logarithm epsilon
##XFACTOR=1.0
##YFACTOR=1.0
##FIRSTX=202.09
##LASTX=262.39
##FIRSTY=2.282
##MAXX=262.39
##MINX=202.09
##MAXY=2.285
##MINY=-0.7
##NPOINTS=109
##$REF AUTHOR=Davidson, N.
##$REF JOURNAL=J. Am. Chem. Soc.
##$REF VOLUME=73
##$REF PAGE=467
##$REF DATE=1951
##XYPOINTS=(XY..XY)
202.09,2.282
202.24,2.282
202.39,2.282
202.54,2.282
202.69,2.282
202.84,2.282
202.99,2.282
203.13,2.282
203.28,2.282
203.43,2.282
203.58,2.282
203.73,2.282
203.88,2.282
204.33,2.282
204.48,2.285
205.07,2.276
205.67,2.270
206.27,2.267
206.87,2.264
207.46,2.261
208.06,2.258
208.66,2.252
209.25,2.252
209.85,2.240
210.45,2.228
211.04,2.219
211.64,2.213
212.24,2.204
212.84,2.192
213.43,2.179
214.03,2.179
214.63,2.155
215.22,2.140
215.82,2.125
216.42,2.107
217.01,2.086
217.61,2.064
218.21,2.055
219.40,2.010
220.00,1.983
220.60,1.958
221.19,1.934
221.79,1.907
222.39,1.877
222.99,1.868
224.18,1.798
224.78,1.771
225.37,1.743
225.97,1.719
226.57,1.692
227.16,1.668
227.76,1.659
228.36,1.613
228.96,1.577
229.55,1.553
230.15,1.519
230.75,1.483
231.34,1.453
231.94,1.422
232.54,1.410
233.13,1.356
233.73,1.319
234.33,1.283
234.93,1.253
235.52,1.217
236.12,1.180
236.72,1.132
237.31,1.095
237.91,1.071
238.51,1.029
239.10,0.986
239.70,0.956
240.30,0.914
240.90,0.871
241.49,0.847
242.09,0.823
242.69,0.762
243.28,0.717
243.88,0.671
244.48,0.635
245.07,0.590
245.67,0.547
246.27,0.514
247.46,0.423
248.06,0.372
248.66,0.332
249.25,0.287
249.85,0.238
250.45,0.205
251.04,0.154
251.64,0.111
252.24,0.063
252.84,0.030
253.43,-0.007
254.03,-0.040
254.63,-0.070
255.22,-0.104
255.82,-0.140
256.42,-0.228
257.01,-0.246
257.61,-0.291
258.21,-0.343
258.81,-0.394
259.40,-0.440
260.00,-0.494
260.60,-0.546
261.19,-0.594
261.79,-0.661
262.39,-0.700
##END=
