##TITLE=Acetaldehyde
##JCAMP-DX=4.24
##DATA TYPE=UV/VIS SPECTRUM
##ORIGIN=INSTITUTE OF ENERGY PROBLEMS OF CHEMICAL PHYSICS, RAS
##OWNER=INEP CP RAS, NIST OSRD
Collection (C) 2007 copyright by the U.S. Secretary of Commerce
on behalf of the United States of America. All rights reserved.
##CAS REGISTRY NO=75-07-0
##MOLFORM=C2H4O
##MP=- 123
##BP=20.1
##SOURCE REFERENCE=RAS UV No. 12511
##$NIST SQUIB=1956FIL/LET8
##$NIST SOURCE=TYUGLMTE
##SPECTROMETER/DATA SYSTEM=Beckman DU
##XUNITS=Wavelength (nm)
##YUNITS=Logarithm epsilon
##XFACTOR=1.0
##YFACTOR=1.0
##FIRSTX=253.09
##LASTX=323.71
##FIRSTY=0.6
##MAXX=323.71
##MINX=253.09
##MAXY=1.19
##MINY=0.6
##NPOINTS=96
##$REF AUTHOR=Fillet, P.; Letort, M.
##$REF JOURNAL=J. Chim. Phis.
##$REF VOLUME=53
##$REF PAGE=8
##$REF DATE=1956
##XYPOINTS=(XY..XY)
253.09,0.600
253.25,0.603
253.40,0.606
253.56,0.609
253.71,0.613
253.87,0.616
254.64,0.637
255.42,0.661
256.20,0.684
256.97,0.708
257.75,0.733
258.52,0.755
259.30,0.776
260.08,0.799
260.85,0.822
261.63,0.841
262.40,0.856
263.18,0.877
263.96,0.893
264.73,0.911
265.51,0.930
266.28,0.950
267.06,0.968
267.84,0.984
268.61,1.000
269.39,1.010
270.16,1.025
270.94,1.038
271.72,1.052
272.49,1.065
273.27,1.076
274.04,1.089
274.82,1.099
275.60,1.111
276.37,1.119
277.15,1.128
277.92,1.136
278.70,1.145
279.48,1.151
280.25,1.158
281.03,1.164
281.80,1.167
282.58,1.174
283.36,1.175
284.13,1.182
284.91,1.184
285.68,1.185
286.46,1.187
287.24,1.188
288.01,1.188
288.79,1.190
289.56,1.190
290.34,1.188
291.12,1.187
291.89,1.184
292.67,1.184
293.44,1.180
294.22,1.177
295.00,1.172
295.77,1.167
296.55,1.164
297.32,1.158
298.10,1.154
298.88,1.148
299.65,1.140
300.43,1.132
301.20,1.125
301.98,1.117
302.76,1.107
303.53,1.099
304.31,1.089
305.08,1.081
305.86,1.068
306.64,1.057
307.41,1.046
308.19,1.033
308.96,1.021
309.74,1.007
310.52,0.989
311.29,0.973
312.07,0.958
312.84,0.942
313.62,0.927
314.40,0.909
315.17,0.893
315.95,0.874
316.72,0.856
317.45,0.839
318.28,0.814
319.05,0.791
319.83,0.767
320.60,0.742
321.38,0.715
322.12,0.682
322.93,0.645
323.71,0.606
##END=
