##TITLE=Ethanethiol
##JCAMP-DX=4.24
##DATA TYPE=UV/VIS SPECTRUM
##ORIGIN=INSTITUTE OF ENERGY PROBLEMS OF CHEMICAL PHYSICS, RAS
##OWNER=INEP CP RAS, NIST OSRD
Collection (C) 2007 copyright by the U.S. Secretary of Commerce
on behalf of the United States of America. All rights reserved.
##CAS REGISTRY NO=75-08-1
##MOLFORM=C2H6S
##MP=-147.8
##BP=35.1
##SOURCE REFERENCE=RAS UV No. 776
##$NIST SQUIB=1954HAI/HEL270-278
##$NIST SOURCE=TSGMTE
##SPECTROMETER/DATA SYSTEM=Beckman DU
##XUNITS=Wavelength (nm)
##YUNITS=Logarithm epsilon
##XFACTOR=1.000000
##YFACTOR=1.000000
##FIRSTX=210.1808
##LASTX=276.5217
##FIRSTY=2.54113
##MAXX=276.522
##MINX=210.181
##MAXY=2.54113
##MINY=0.054843
##NPOINTS=149
##$REF AUTHOR=Haines, W.E.; Helm, R.V.; Bailey, c.W.; Ball, J.S.
##$REF TITLE=Purification and properties of ten organic sulfur compounds
##$REF JOURNAL=J. Phys. Chem.
##$REF VOLUME=58
##$REF PAGE=270-278
##$REF DATE=1954
##XYPOINTS=(XY..XY)
210.1808,2.541134
210.4669,2.523911
210.7566,2.506502
211.0540,2.488999
211.7572,2.437302
212.0447,2.427262
212.3360,2.417129
212.6348,2.406810
212.6348,2.406810
212.7537,2.406796
212.8727,2.406781
212.9917,2.406766
212.9917,2.406766
213.3223,2.365903
214.0149,2.328092
214.9617,2.292348
216.0547,2.257684
217.1860,2.223116
217.1860,2.223116
217.7034,2.219800
217.9979,2.216418
218.3221,2.210074
218.3221,2.210074
219.5127,2.208294
219.9970,2.206508
220.1902,2.203186
220.3601,2.203165
222.2531,2.203935
224.2187,2.209043
226.0915,2.222025
226.0915,2.222025
227.4176,2.224237
228.7437,2.226263
230.0697,2.228198
230.0697,2.228198
230.4350,2.220137
230.9406,2.214463
232.0197,2.206315
233.5967,2.188641
234.2558,2.182610
235.0011,2.173331
235.7158,2.162576
236.9360,2.145361
237.1401,2.143240
237.3480,2.141025
237.5634,2.138625
239.4094,2.106350
239.8161,2.097560
240.2266,2.088768
240.6447,2.079977
241.8622,2.049860
242.3238,2.038442
242.7929,2.026838
243.2657,2.015142
244.6684,1.976261
244.9268,1.968321
245.1927,1.960381
245.4623,1.952439
246.6105,1.915672
246.9310,1.903546
247.2514,1.891329
247.5718,1.878926
248.3648,1.850526
248.6518,1.838405
248.9427,1.826191
249.2410,1.813791
250.4554,1.768275
250.6606,1.755840
250.8442,1.748588
251.1635,1.740301
252.2089,1.699383
252.4664,1.687266
252.7314,1.675056
253.0002,1.662659
253.7915,1.625935
254.1272,1.614840
254.4622,1.599862
254.7518,1.584612
255.5422,1.543725
255.8734,1.525787
256.1528,1.513127
256.3156,1.502424
257.1069,1.465700
257.3425,1.454310
257.5781,1.442735
257.8136,1.431068
258.5025,1.392275
258.7594,1.377244
259.0239,1.362119
259.2920,1.346809
259.8964,1.310109
260.0352,1.299562
260.1816,1.288830
260.3317,1.278006
261.1212,1.232541
261.3227,1.220430
261.5241,1.208229
261.7256,1.195839
262.5151,1.150376
262.6832,1.138268
262.8550,1.126070
263.0344,1.113683
263.7390,1.068230
263.9071,1.056123
264.0789,1.043924
264.2583,1.031538
264.9459,0.986086
265.1477,0.972619
265.3533,0.958965
265.5664,0.945222
266.3550,0.895594
266.5559,0.880568
266.7568,0.865453
266.9576,0.850150
267.5593,0.800545
267.7272,0.787609
267.8989,0.774575
268.0782,0.761356
268.9496,0.700903
268.9683,0.693841
269.1071,0.683245
269.4851,0.660049
270.0027,0.614613
270.1704,0.600428
270.3418,0.586148
270.5208,0.571686
271.0396,0.532487
271.2075,0.519027
271.3790,0.505381
271.5582,0.491642
272.0749,0.442041
272.2770,0.429930
272.4829,0.417737
272.6962,0.405346
273.2970,0.351158
273.4133,0.338237
273.5297,0.325331
273.6460,0.312410
274.3323,0.260715
274.7093,0.232666
274.8475,0.219139
274.8655,0.208629
275.3836,0.165689
275.5514,0.151921
275.7229,0.138176
275.9020,0.124406
276.2532,0.096493
276.3856,0.075656
276.5217,0.054843
##END=
