##TITLE=Methane, tribromo-
##JCAMP-DX=4.24
##DATA TYPE=UV/VIS SPECTRUM
##ORIGIN=INSTITUTE OF ENERGY PROBLEMS OF CHEMICAL PHYSICS, RAS
##OWNER=INEP CP RAS, NIST OSRD
Collection (C) 2007 copyright by the U.S. Secretary of Commerce
on behalf of the United States of America. All rights reserved.
##CAS REGISTRY NO=75-25-2
##MOLFORM=CHBr3
##BP=150
##SOURCE REFERENCE=RAS UV No. 19863
##$NIST SQUIB=1971DOR/BUTi/2
##$NIST SOURCE=TYUGLMTE
##SPECTROMETER/DATA SYSTEM=Zeiss PMQ II
##XUNITS=Wavelength (nm)
##YUNITS=Logarithm epsilon
##XFACTOR=1.0
##YFACTOR=1.0
##FIRSTX=198.68
##LASTX=290.61
##FIRSTY=3.197
##MAXX=290.61
##MINX=198.68
##MAXY=3.319
##MINY=1.264
##NPOINTS=136
##$REF AUTHOR=Dorr, F.; Buttgereit, G.
##$REF JOURNAL=UV atlas of organic compounds
##$REF VOLUME=5
##$REF PAGE=I/2
##$REF DATE=1971
##XYPOINTS=(XY..XY)
198.68,3.197
198.76,3.197
198.85,3.197
198.93,3.197
199.02,3.197
199.10,3.197
199.19,3.197
199.27,3.199
199.36,3.199
199.45,3.199
199.53,3.199
199.62,3.199
199.70,3.199
199.79,3.201
199.88,3.201
200.14,3.201
200.66,3.203
201.18,3.207
201.71,3.212
202.23,3.214
202.77,3.216
203.30,3.218
203.84,3.220
204.38,3.224
204.92,3.227
205.47,3.229
206.02,3.231
206.57,3.231
207.12,3.231
207.68,3.229
208.24,3.229
208.80,3.229
209.37,3.229
209.94,3.229
210.51,3.231
211.09,3.235
211.67,3.239
212.23,3.243
212.84,3.248
213.41,3.253
214.02,3.259
214.61,3.265
215.31,3.271
215.81,3.276
216.43,3.282
217.03,3.286
217.64,3.291
218.26,3.295
218.87,3.300
219.50,3.303
220.04,3.307
220.82,3.311
221.39,3.314
222.02,3.316
222.67,3.318
223.31,3.319
223.95,3.318
224.63,3.317
225.27,3.314
225.93,3.308
226.59,3.301
227.26,3.295
227.93,3.288
228.60,3.282
229.28,3.273
229.97,3.263
230.65,3.250
231.35,3.237
232.04,3.224
232.74,3.210
233.45,3.195
234.16,3.184
234.87,3.165
235.59,3.152
236.31,3.137
237.03,3.122
237.76,3.109
238.50,3.095
239.24,3.075
239.98,3.063
240.73,3.050
241.49,3.035
242.24,3.022
243.01,3.007
243.77,2.994
244.55,2.979
245.33,2.967
246.11,2.952
246.90,2.939
247.69,2.922
248.49,2.909
249.29,2.894
250.10,2.879
250.91,2.862
251.73,2.845
252.55,2.828
253.38,2.811
254.22,2.790
255.06,2.766
255.90,2.741
256.76,2.715
257.61,2.694
258.48,2.671
259.35,2.645
260.22,2.617
261.10,2.587
261.99,2.558
262.88,2.530
263.78,2.498
264.69,2.466
265.58,2.434
266.50,2.406
267.39,2.376
268.37,2.342
269.31,2.304
270.25,2.259
271.20,2.219
272.16,2.174
273.12,2.134
274.09,2.082
275.07,2.044
276.05,1.997
277.04,1.957
277.94,1.911
279.05,1.861
280.05,1.813
281.08,1.765
282.11,1.720
283.14,1.680
284.19,1.635
285.23,1.586
286.30,1.526
287.22,1.470
288.44,1.396
289.52,1.333
290.61,1.264
##END=
