##TITLE=Propane, 2-iodo-
##JCAMP-DX=4.24
##DATA TYPE=UV/VIS SPECTRUM
##ORIGIN=INSTITUTE OF ENERGY PROBLEMS OF CHEMICAL PHYSICS, RAS
##OWNER=INEP CP RAS, NIST OSRD
Collection (C) 2007 copyright by the U.S. Secretary of Commerce
on behalf of the United States of America. All rights reserved.
##CAS REGISTRY NO=75-30-9
##MOLFORM=C3H7I
##MP=-90
##BP=89.5
##SOURCE REFERENCE=RAS UV No. 9105
##$NIST SQUIB=1971PER/SCHi/5C
##$NIST SOURCE=TSGMTE
##SPECTROMETER/DATA SYSTEM=Zeiss PMQ II
##XUNITS=Wavelength (nm)
##YUNITS=Logarithm epsilon
##XFACTOR=1.000000
##YFACTOR=1.000000
##FIRSTX=306.0368
##LASTX=212.3667
##FIRSTY=1.19428
##MAXX=306.037
##MINX=212.367
##MAXY=2.71828
##MINY=1.19428
##NPOINTS=1000
##$REF AUTHOR=Perkampus, H.-H.; Schmiele, C.; Braunschweig, T.H.
##$REF TITLE=2-Iodopropane
##$REF BOOK TITLE=UV Atlas of Organic Compounds - Vol. 5
##$REF PAGE=I/5
##$REF DATE=1971
##$REF PUBLISHER=Plenum Press
##$REF LOCATION=New York
##XYPOINTS=(XY..XY)
306.0368,1.194276
306.0286,1.202970
305.8321,1.204993
305.8260,1.211385
305.6298,1.213411
305.6216,1.222102
305.4014,1.224126
305.3953,1.230518
305.1996,1.232541
305.1936,1.238934
304.9980,1.241215
304.9900,1.249651
304.7707,1.251672
304.7647,1.258065
304.5696,1.260346
304.5594,1.271084
304.3649,1.273108
304.3629,1.275152
304.1443,1.277430
304.1364,1.285868
303.9423,1.287894
303.9342,1.296586
303.7404,1.298611
303.7344,1.305003
303.5169,1.307025
303.5088,1.315716
303.3155,1.317742
303.3076,1.326178
303.1144,1.328459
303.1065,1.336896
302.8899,1.338918
302.8818,1.347611
302.6894,1.349637
302.6834,1.356028
302.4912,1.358053
302.4850,1.364699
302.2693,1.366722
302.2615,1.375159
302.0696,1.377439
302.0618,1.385876
301.8704,1.387902
301.8644,1.394294
301.6494,1.396571
301.6435,1.402963
301.4526,1.404988
301.4467,1.411379
301.2561,1.413404
301.2481,1.422097
301.0341,1.424119
301.0282,1.430510
300.8381,1.432535
300.8301,1.441228
300.6403,1.443254
300.6325,1.451690
300.4192,1.453968
300.4134,1.460360
300.2240,1.462385
300.2161,1.471077
300.0270,1.473101
300.0153,1.485885
299.8265,1.487910
299.8225,1.492256
299.6106,1.494278
299.6085,1.496580
299.4202,1.498604
299.4104,1.509342
299.2223,1.511367
299.2146,1.519804
299.0033,1.522082
298.9975,1.528473
298.8100,1.530498
298.8023,1.538935
298.6148,1.541216
298.6109,1.545562
298.4007,1.547585
298.3949,1.553976
298.2081,1.556001
298.2002,1.564693
298.0137,1.566719
298.0060,1.575156
297.7965,1.577433
297.7907,1.583825
297.6047,1.585850
297.5971,1.594286
297.4110,1.596567
297.4035,1.605004
297.1949,1.607027
297.1892,1.613418
297.0037,1.615699
296.9961,1.624136
296.8111,1.626161
296.8054,1.632552
296.5975,1.634830
296.5899,1.643267
296.4051,1.645548
296.3976,1.653985
296.2133,1.656009
296.2076,1.662401
296.0005,1.664679
295.9930,1.673116
295.8092,1.675141
295.8035,1.681532
295.6197,1.683813
295.6161,1.687903
295.4099,1.690182
295.4024,1.698619
295.2193,1.700643
295.2137,1.707035
295.0306,1.709316
295.0231,1.717753
294.8179,1.719774
294.8121,1.726422
294.6297,1.728447
294.6223,1.736884
294.4400,1.739165
294.4325,1.747601
294.2282,1.749623
294.2225,1.756015
294.0407,1.758296
294.0333,1.766733
293.8519,1.768758
293.8443,1.777450
293.6407,1.779472
293.6351,1.785864
293.4543,1.787889
293.4466,1.796582
293.2660,1.798606
293.2604,1.804998
293.0800,1.807023
293.0724,1.815716
292.8699,1.817738
292.8643,1.824130
292.6842,1.826410
292.6786,1.832801
292.4989,1.834826
292.4933,1.841218
292.2917,1.843240
292.2861,1.849632
292.1067,1.851912
292.0993,1.860349
291.9203,1.862374
291.9128,1.871067
291.7119,1.873089
291.7064,1.879481
291.5279,1.881506
291.5204,1.890199
291.3421,1.892223
291.3366,1.898615
291.1365,1.900637
291.1290,1.909330
290.9512,1.911355
290.9437,1.920047
290.7661,1.922072
290.7606,1.928464
290.5613,1.930486
290.5539,1.939179
290.3768,1.941203
290.3713,1.947595
290.1944,1.949620
290.1889,1.956012
289.9902,1.958290
289.9812,1.968772
289.8046,1.971052
289.7974,1.979489
289.6212,1.981514
289.6120,1.992252
289.4161,1.992229
289.4124,1.996575
289.2366,1.998600
289.2292,2.007293
289.0537,2.009318
289.0500,2.013664
288.8548,2.013641
288.8459,2.024123
288.6726,2.024103
288.6653,2.032795
288.4904,2.034820
288.4833,2.043257
288.2888,2.043234
288.2815,2.051927
288.1072,2.053952
288.1000,2.062389
287.9257,2.064669
287.9222,2.068760
287.7266,2.071038
287.7232,2.075128
287.5493,2.077409
287.5422,2.085846
287.3704,2.085825
287.3631,2.094518
287.1702,2.094495
287.1648,2.100887
286.9935,2.100866
286.9901,2.104957
286.8171,2.107237
286.8100,2.115674
286.6392,2.115654
286.6321,2.124091
286.4401,2.124068
286.4348,2.130459
286.2625,2.132740
286.2572,2.139131
286.0869,2.139111
286.0816,2.145503
285.8904,2.145480
285.8851,2.151871
285.7136,2.153896
285.7083,2.160288
285.5370,2.162313
285.5351,2.164614
285.3429,2.166636
285.3376,2.173027
285.1668,2.175052
285.1597,2.183745
284.9907,2.183724
284.9855,2.190116
284.7957,2.190093
284.7868,2.200831
284.6167,2.202856
284.6150,2.204901
284.4467,2.204881
284.4432,2.209227
284.2524,2.211249
284.2436,2.221987
284.0741,2.224012
284.0722,2.226313
283.9046,2.226293
283.8994,2.232684
283.7093,2.234707
283.7077,2.236752
283.5386,2.239032
283.5334,2.245424
283.3647,2.247449
283.3595,2.253841
283.1719,2.253818
283.1683,2.258164
283.0018,2.258143
282.9949,2.266580
282.8286,2.266560
282.8234,2.272951
282.6364,2.272929
282.6329,2.277275
282.4670,2.277254
282.4601,2.285691
282.2944,2.285671
282.2892,2.292062
282.1030,2.292039
282.0995,2.296386
281.9342,2.296365
281.9274,2.304802
281.7623,2.304782
281.7588,2.309128
281.5733,2.309105
281.5681,2.315497
281.4034,2.315476
281.3983,2.321868
281.2338,2.321847
281.2303,2.326194
281.0439,2.328216
281.0387,2.334608
280.8747,2.334587
280.8730,2.336632
280.7073,2.338913
280.7022,2.345305
280.5369,2.347329
280.5353,2.349375
280.3495,2.351653
280.3463,2.355743
280.1812,2.358024
280.1779,2.362115
280.0148,2.362094
280.0114,2.366440
279.8263,2.368718
279.8231,2.372809
279.6586,2.375089
279.6570,2.377135
279.4929,2.379160
279.4878,2.385551
279.3053,2.385528
279.3035,2.387829
279.1398,2.389854
279.1347,2.396246
278.9729,2.396225
278.9713,2.398271
278.7876,2.400549
278.7825,2.406940
278.6211,2.406920
278.6195,2.408965
278.4566,2.410990
278.4516,2.417382
278.2704,2.417359
278.2670,2.421705
278.1045,2.423730
278.1011,2.428076
277.9405,2.428056
277.9370,2.432402
277.7549,2.434424
277.7533,2.436470
277.5913,2.438750
277.5881,2.442841
277.4262,2.445121
277.4246,2.447167
277.2432,2.449189
277.2398,2.453535
277.0785,2.455560
277.0767,2.457861
276.9156,2.459886
276.9123,2.464232
276.7315,2.466254
276.7297,2.468555
276.5706,2.468535
276.5674,2.472626
276.4068,2.474906
276.4036,2.478997
276.2251,2.478974
276.2217,2.483320
276.0616,2.485345
276.0583,2.489691
275.8984,2.491716
275.8966,2.494017
275.7187,2.493994
275.7156,2.498085
275.5576,2.498064
275.5559,2.500365
275.3966,2.502390
275.3932,2.506736
275.2341,2.508761
275.2325,2.510807
275.0555,2.510784
275.0506,2.517175
274.8934,2.517155
274.8917,2.519456
274.7331,2.521481
274.7282,2.527872
274.5519,2.527849
274.5503,2.529894
274.3937,2.529874
274.3888,2.536266
274.0534,2.540568
274.0501,2.544915
273.8941,2.544894
273.8907,2.549241
273.7349,2.549220
273.7318,2.553311
273.5550,2.555589
273.5534,2.557634
273.2394,2.561939
273.2363,2.566030
272.9037,2.570333
272.9004,2.574679
272.4127,2.581007
272.4096,2.585098
272.2537,2.587378
272.2522,2.589423
272.0790,2.589400
272.0774,2.591446
271.9237,2.591425
271.9204,2.595772
271.5910,2.600074
271.5894,2.602120
271.4347,2.604145
271.4329,2.606446
271.1049,2.610493
271.1032,2.612794
270.9490,2.614819
270.9474,2.616864
270.4667,2.623192
270.4635,2.627538
270.3115,2.627518
270.3100,2.629563
270.1392,2.629540
270.1375,2.631841
269.9860,2.631820
269.9844,2.633866
269.8315,2.635891
269.8298,2.638192
269.3530,2.644519
269.3515,2.646564
268.7246,2.655173
268.7230,2.657218
268.5543,2.657195
268.5528,2.659240
268.4030,2.659220
268.4013,2.661521
268.2517,2.661500
268.2502,2.663546
268.0805,2.665568
268.0788,2.667869
267.9296,2.667849
267.7789,2.669873
267.6114,2.669850
267.6099,2.671896
267.4595,2.674176
267.4580,2.676222
267.3094,2.676201
267.3079,2.678247
266.9927,2.678203
266.9910,2.680504
266.8429,2.680484
266.8414,2.682529
266.6736,2.684551
266.6719,2.686852
266.5242,2.686832
266.5227,2.688877
266.2093,2.688834
266.2079,2.690879
266.0607,2.690858
266.0590,2.693159
265.9120,2.693139
265.9105,2.695184
265.7438,2.697207
265.5971,2.697186
265.5954,2.699487
265.1381,2.699423
265.1366,2.701469
264.9906,2.701448
264.9891,2.703493
264.8250,2.703470
264.8234,2.705771
264.6777,2.705751
264.6762,2.707796
264.2220,2.707732
264.2206,2.709778
263.7679,2.709714
263.7663,2.712015
263.6217,2.711994
263.3123,2.716041
263.0244,2.716001
262.8611,2.718278
260.9365,2.718002
260.7967,2.715681
260.4980,2.713592
260.4966,2.715637
260.3571,2.713572
260.2001,2.711503
260.0594,2.711483
259.9205,2.709161
259.4838,2.707052
259.4824,2.709097
259.0486,2.704943
259.0473,2.706988
258.9108,2.702622
258.9092,2.704922
258.7542,2.702599
258.4789,2.698467
258.0457,2.698403
257.4647,2.689623
257.3270,2.689603
257.1908,2.687537
257.0362,2.687514
256.9019,2.683147
256.9004,2.685448
256.7662,2.681082
256.7648,2.683127
256.6135,2.679013
256.4767,2.678993
256.3416,2.676671
256.1894,2.674603
256.1880,2.676649
255.7680,2.668148
255.6335,2.666082
255.6321,2.668127
255.4993,2.663760
255.4978,2.666061
255.3494,2.659647
255.3481,2.661692
255.2140,2.659626
254.9309,2.653191
254.9295,2.655237
254.3819,2.642369
254.3806,2.644414
253.8354,2.631547
253.8340,2.633592
253.4231,2.623046
253.4217,2.625091
253.2925,2.618679
253.2897,2.623025
253.1426,2.618656
252.8820,2.610178
252.8793,2.614269
252.7340,2.607854
252.7325,2.610155
252.6026,2.605788
252.6013,2.607834
252.4714,2.603723
252.4701,2.605768
252.3253,2.599353
252.3239,2.601399
252.0650,2.592921
252.0637,2.594966
251.9193,2.588552
251.9165,2.592898
251.7875,2.588531
251.6584,2.584420
251.6571,2.586465
251.5132,2.580051
251.5119,2.582096
251.1099,2.569249
251.1071,2.573595
250.8521,2.562816
250.8507,2.565117
250.7077,2.558703
250.7064,2.560748
250.4522,2.549969
250.4495,2.554315
250.0523,2.539167
250.0495,2.543514
249.9265,2.532755
249.9237,2.537102
249.7831,2.528642
249.7805,2.532732
249.6549,2.526320
249.5255,2.526300
249.3840,2.519885
249.3813,2.524231
249.2574,2.515774
249.2548,2.519865
249.1338,2.507061
249.1298,2.513453
248.9913,2.502947
248.9901,2.504993
248.8666,2.496535
248.8640,2.500626
248.7394,2.494214
248.7379,2.496515
248.5961,2.492146
248.4690,2.490080
248.4677,2.492125
248.3434,2.485713
248.3422,2.487758
248.2020,2.481344
248.2006,2.483645
248.0781,2.474932
248.0753,2.479278
247.8118,2.466451
247.8091,2.470797
247.6869,2.462084
247.6855,2.464385
247.5620,2.457973
247.5608,2.460019
247.4215,2.453604
247.4202,2.455649
247.2983,2.447192
247.2958,2.451282
247.0352,2.436411
247.0312,2.442802
246.7870,2.427933
246.7844,2.432023
246.6473,2.423563
246.6461,2.425609
246.5249,2.417151
246.5222,2.421498
246.2634,2.406370
246.2594,2.412762
246.1399,2.402259
246.1387,2.404304
246.0167,2.397892
246.0141,2.402238
245.8792,2.391477
245.8766,2.395824
245.7549,2.389412
245.7536,2.391457
245.6321,2.385045
245.6308,2.387090
245.5094,2.380678
245.5080,2.382979
245.3725,2.374264
245.3698,2.378610
245.2499,2.370152
245.2486,2.372198
245.1288,2.363740
245.1263,2.367831
244.8690,2.355004
244.8664,2.359351
244.7471,2.350638
244.7457,2.352938
244.6110,2.344223
244.6084,2.348569
244.4892,2.340112
244.4880,2.342157
244.3703,2.331399
244.3664,2.337790
244.2320,2.329331
244.2307,2.331376
244.1119,2.322918
244.1081,2.329310
243.9894,2.320853
243.9882,2.322898
243.8555,2.312137
243.8517,2.318529
243.7345,2.308026
243.7320,2.312117
243.6149,2.301614
243.6110,2.308006
243.4788,2.297245
243.4762,2.301591
243.3595,2.290833
243.3557,2.297224
243.2391,2.286466
243.2365,2.290812
243.1047,2.280051
243.1008,2.286443
242.9857,2.273639
242.9819,2.280031
242.8655,2.269528
242.8643,2.271573
242.7303,2.265159
242.7277,2.269505
242.6105,2.260792
242.6093,2.262837
242.4920,2.254380
242.4895,2.258726
242.3572,2.250010
242.3559,2.252311
242.2390,2.243598
242.2364,2.247945
242.1196,2.239487
242.1183,2.241533
241.9864,2.233073
241.9826,2.239464
241.8673,2.228706
241.8661,2.230751
241.7496,2.222294
241.7470,2.226640
241.6156,2.217925
241.6142,2.220226
241.4981,2.211512
241.4955,2.215859
241.3793,2.207401
241.3781,2.209447
241.2621,2.200989
241.2597,2.205080
241.1286,2.196620
241.1261,2.200966
241.0116,2.190208
241.0078,2.196599
240.8935,2.185841
240.8909,2.190187
240.7617,2.179427
240.7579,2.185818
240.6450,2.173015
240.6412,2.179406
240.5273,2.168648
240.5247,2.172994
240.3958,2.162233
240.3921,2.168625
240.2782,2.158122
240.2758,2.162213
240.1620,2.151710
240.1582,2.158102
240.0297,2.147341
240.0285,2.149386
239.9138,2.140929
239.9100,2.147320
239.7967,2.136562
239.7954,2.138863
239.6661,2.130147
239.6636,2.134493
239.5491,2.126036
239.5480,2.128082
239.4337,2.119624
239.4313,2.123714
239.3034,2.113209
239.3010,2.117300
239.1870,2.108843
239.1844,2.113189
239.0730,2.100385
239.0693,2.106777
238.9420,2.096016
238.9408,2.098061
238.8271,2.089604
238.8234,2.095995
238.7111,2.085237
238.7098,2.087538
238.5816,2.078822
238.5779,2.085214
238.4659,2.074456
238.4646,2.076757
238.3514,2.068044
238.3489,2.072390
238.2235,2.059584
238.2199,2.065975
237.9941,2.048805
237.9904,2.055196
237.7490,2.040325
237.7465,2.044671
237.6341,2.035958
237.6327,2.038259
237.5069,2.027498
237.5033,2.033890
237.3909,2.025432
237.3897,2.027477
237.2775,2.019020
237.2752,2.023110
237.1630,2.014653
237.1619,2.016698
237.0352,2.008239
237.0316,2.014630
236.8092,1.995414
236.8044,2.003851
236.6793,1.993346
236.6781,1.995391
236.5654,1.988979
236.5629,1.993326
236.4541,1.980266
236.4504,1.986658
236.3257,1.976153
236.3246,1.978198
236.2146,1.967439
236.2110,1.973831
235.9744,1.956914
235.9708,1.963306
235.8612,1.952547
235.8600,1.954592
235.7492,1.946135
235.7468,1.950481
235.6218,1.941766
235.6205,1.944066
235.5100,1.935354
235.5076,1.939700
235.3984,1.928941
235.3960,1.933288
235.2712,1.924828
235.2701,1.926873
235.1598,1.918416
235.1575,1.922506
235.0474,1.914049
235.0462,1.916094
234.9219,1.907634
234.9194,1.911981
234.8096,1.903267
234.8084,1.905569
234.6987,1.896856
234.6962,1.901202
234.5724,1.892486
234.5711,1.894787
234.4616,1.886074
234.4592,1.890420
234.3497,1.881963
234.3486,1.884009
234.2249,1.875549
234.2227,1.879639
234.1134,1.871182
234.1123,1.873227
234.0031,1.864770
234.0007,1.869116
233.8775,1.860400
233.8763,1.862701
233.7675,1.853988
233.7650,1.858334
233.6562,1.849877
233.6551,1.851923
233.5322,1.843463
233.5299,1.847553
233.3105,1.834729
233.3081,1.839076
233.1997,1.830618
233.1985,1.832663
233.0761,1.824203
233.0738,1.828294
232.9656,1.819837
232.9645,1.821882
232.8564,1.813425
232.8540,1.817771
232.6219,1.804689
232.6196,1.809035
232.5118,1.800578
232.5107,1.802623
232.3889,1.794163
232.3867,1.798253
232.1706,1.783384
232.1671,1.789775
231.9373,1.774904
231.9351,1.778994
231.8280,1.770537
231.8268,1.772582
231.7058,1.764122
231.7035,1.768469
231.4875,1.755644
231.4852,1.759735
231.3646,1.751275
231.3635,1.753320
231.2558,1.746908
231.2545,1.749209
231.1469,1.742797
231.1458,1.744843
231.0244,1.738428
231.0233,1.740473
230.9170,1.732016
230.9146,1.736362
230.6863,1.723535
230.6840,1.727626
230.5781,1.719169
230.5769,1.721214
230.4711,1.712757
230.4687,1.717103
230.3493,1.708387
230.3482,1.710432
230.2425,1.701975
230.2401,1.706322
230.0131,1.693495
230.0109,1.697585
229.9055,1.689128
229.9032,1.693475
229.7981,1.684761
229.7957,1.689107
229.6768,1.680647
229.6757,1.682693
229.5696,1.676281
229.5685,1.678326
229.4635,1.669869
229.4612,1.674215
229.2357,1.661389
229.2335,1.665479
229.0221,1.652655
229.0198,1.657001
228.9017,1.648541
228.9006,1.650586
228.7941,1.646219
228.7929,1.648521
228.6887,1.639808
228.6864,1.644154
228.4624,1.631327
228.4601,1.635674
228.3563,1.626960
228.3551,1.629262
228.2367,1.622591
228.2344,1.626937
228.1307,1.618480
228.1296,1.620525
227.9057,1.609744
227.9034,1.614090
227.6944,1.601267
227.6921,1.605612
227.5755,1.596897
227.5743,1.599198
227.3649,1.588420
227.3626,1.592765
227.1412,1.579939
227.1390,1.584029
227.0363,1.575572
227.0352,1.577617
226.9169,1.573504
226.9158,1.575549
226.8133,1.567091
226.8111,1.571182
226.5908,1.558356
226.5885,1.562702
226.3809,1.551923
226.3797,1.554224
226.2633,1.547809
226.2622,1.549855
226.1592,1.543442
226.1581,1.545488
226.0562,1.537030
226.0529,1.543422
225.9379,1.534962
225.9368,1.537008
225.8330,1.532641
225.8318,1.534942
225.7304,1.526228
225.7281,1.530575
225.6256,1.524162
225.6245,1.526209
225.5089,1.519794
225.5066,1.524140
225.4054,1.515427
225.4032,1.519773
225.3010,1.513361
225.2999,1.515406
225.1856,1.506946
225.1834,1.511292
225.0825,1.502580
225.0813,1.504881
224.9783,1.500514
224.9773,1.502560
224.8623,1.496145
224.8600,1.500490
224.7583,1.494079
224.6555,1.489712
224.6533,1.494059
224.5397,1.485598
224.5376,1.489689
224.2182,1.474796
224.2160,1.479143
224.1148,1.472730
224.1137,1.474776
224.0116,1.470409
224.0104,1.472710
223.8976,1.463994
223.8954,1.468341
223.7945,1.461929
223.7934,1.463974
223.5767,1.455494
223.5757,1.457540
223.3724,1.449062
223.3714,1.451106
223.2580,1.444693
223.2568,1.446994
222.9390,1.436191
222.9379,1.438237
222.8379,1.431825
222.8369,1.433869
222.7358,1.429759
222.7347,1.431804
222.6210,1.427434
222.6198,1.429736
222.5201,1.423323
222.5191,1.425370
222.2033,1.414567
222.2022,1.416868
221.8873,1.406066
221.8863,1.408111
221.5722,1.397565
221.5712,1.399611
221.3715,1.391133
221.3705,1.393178
221.2570,1.391110
221.1564,1.388788
221.0558,1.386722
221.0548,1.388767
220.8433,1.380287
220.8423,1.382332
220.6292,1.378198
220.6281,1.380244
220.5292,1.375878
220.4291,1.373811
220.4281,1.375857
220.3156,1.373789
220.1161,1.369401
220.0029,1.369379
219.9034,1.367313
219.6900,1.367268
219.5907,1.365203
219.4917,1.362882
219.4905,1.365183
219.3801,1.360813
219.3791,1.362859
219.0679,1.360749
218.9692,1.358685
217.3249,1.358344
217.2258,1.360368
217.0176,1.360324
216.8077,1.364628
216.7100,1.364607
216.6115,1.366632
216.5018,1.366610
216.4035,1.368635
216.3062,1.368614
216.1957,1.370892
216.0986,1.370872
216.0977,1.372918
216.0007,1.372895
215.9997,1.374941
215.8906,1.374919
215.8896,1.377219
215.7927,1.377199
215.5853,1.381247
215.5842,1.383548
215.4877,1.383526
215.4867,1.385572
215.3902,1.385551
215.3893,1.387596
215.2809,1.387573
215.2798,1.389875
215.1835,1.389855
215.1825,1.391900
215.0863,1.391879
215.0854,1.393924
214.9893,1.393905
214.9882,1.396205
214.7823,1.400253
214.7812,1.402554
214.3825,1.410905
214.3805,1.415252
214.0794,1.421579
214.0775,1.425671
213.8733,1.429973
213.8723,1.432018
213.7762,1.434299
213.7753,1.436344
213.5716,1.440648
213.5706,1.442693
213.4748,1.444973
213.4739,1.447018
213.2708,1.451321
213.2689,1.455411
213.0662,1.459715
213.0642,1.464062
212.9689,1.466086
212.9680,1.468132
212.7659,1.472435
212.7639,1.476781
212.6689,1.478806
212.6679,1.480850
212.5729,1.483131
212.5700,1.489523
212.4634,1.491545
212.4614,1.495891
212.3667,1.497916
##END=
