##TITLE=Methane, nitro-
##JCAMP-DX=4.24
##DATA TYPE=UV/VIS SPECTRUM
##ORIGIN=INSTITUTE OF ENERGY PROBLEMS OF CHEMICAL PHYSICS, RAS
##OWNER=INEP CP RAS, NIST OSRD
Collection (C) 2007 copyright by the U.S. Secretary of Commerce
on behalf of the United States of America. All rights reserved.
##CAS REGISTRY NO=75-52-5
##MOLFORM=CH3NO2
##MP=-28.5
##BP=101.1
##SOURCE REFERENCE=RAS UV No. 2
##$NIST SQUIB=1950GRA158-166
##$NIST SOURCE=TSGMTE
##SPECTROMETER/DATA SYSTEM=n.i.g.
##XUNITS=Wavelength (nm)
##YUNITS=Logarithm epsilon
##XFACTOR=1.000000
##YFACTOR=1.000000
##FIRSTX=341.0043
##LASTX=232.3857
##FIRSTY=0.090963
##MAXX=341.004
##MINX=232.386
##MAXY=1.93697
##MINY=0.090963
##NPOINTS=134
##$REF AUTHOR=Grammaticakis, P.
##$REF TITLE=Contribution a l'etude de l'absorption dans l'ultraviolet moyen des anilines ortho-substituees. III. Orthonitro- et orthocarboxy- anilines N-substituees
##$REF JOURNAL=Bull. Soc. Chim. Fr.
##$REF VOLUME=17
##$REF PAGE=158-166
##$REF DATE=1950
##XYPOINTS=(XY..XY)
341.0043,0.090963
338.4410,0.128755
335.8993,0.166637
333.3874,0.204771
333.3874,0.204771
333.1566,0.211708
332.9098,0.218667
332.6553,0.225619
332.6553,0.225619
331.0306,0.246031
330.3475,0.256742
330.0104,0.266866
330.0104,0.266866
328.0045,0.300769
326.0223,0.334695
324.0627,0.368696
322.1247,0.402708
320.2074,0.436751
318.3098,0.470822
316.4311,0.504892
316.4311,0.504892
315.9692,0.516839
315.5085,0.528891
315.0492,0.541167
315.0492,0.541167
314.5489,0.547122
314.0358,0.553094
313.5170,0.559056
313.5170,0.559056
309.0751,0.643255
306.6979,0.688562
305.4673,0.710473
304.5362,0.724522
304.5362,0.724522
304.4965,0.728646
304.4433,0.732988
304.3832,0.737439
304.3832,0.737439
302.5405,0.767015
301.0652,0.792504
299.3609,0.820425
299.3609,0.820425
299.2711,0.824549
299.1748,0.828892
299.0654,0.833345
299.0654,0.833345
298.8589,0.833988
298.6527,0.834853
298.4468,0.835830
298.4468,0.835830
294.7899,0.900482
292.4761,0.940492
291.1709,0.963074
290.5757,0.975459
290.5757,0.975459
288.1978,1.009765
285.8524,1.044179
283.5331,1.078816
283.5331,1.078816
282.2643,1.092380
281.0009,1.106164
279.7374,1.120060
279.7374,1.120060
275.5287,1.153315
273.8822,1.168129
273.3030,1.177205
273.3030,1.177205
271.1884,1.182449
269.9855,1.184382
268.6503,1.184657
268.6503,1.184657
267.7481,1.181529
266.8520,1.178180
265.9619,1.174720
265.9619,1.174720
265.2402,1.167763
264.5223,1.160805
263.8083,1.153848
263.8083,1.153848
261.9340,1.118496
260.5384,1.088993
258.4306,1.040056
258.4306,1.040056
257.2093,0.999991
256.6501,0.983888
256.2666,0.977943
256.2666,0.977943
254.4524,0.935064
252.6544,0.891961
250.8770,0.848749
250.8770,0.848749
250.2370,0.842678
249.8197,0.837266
249.2671,0.827880
249.2671,0.827880
247.2533,0.831134
246.2819,0.835056
245.6895,0.838314
245.6895,0.838314
244.6717,0.871754
243.6537,0.905413
242.6398,0.939185
242.6398,0.939185
241.7464,0.985341
241.1876,1.018913
240.8269,1.037574
240.8269,1.037574
240.5691,1.067205
240.0665,1.113619
239.1541,1.205526
239.1541,1.205526
239.0968,1.226048
239.0353,1.246789
238.9655,1.267641
238.9655,1.267641
238.5663,1.305646
238.0596,1.364474
237.5900,1.419483
237.2998,1.446029
237.2998,1.446029
236.8998,1.500327
236.5720,1.539814
236.2540,1.574362
235.8839,1.613848
235.4009,1.668146
235.4009,1.668146
235.1742,1.683367
234.8912,1.709407
234.5444,1.733241
234.5444,1.733241
233.7674,1.811892
233.2848,1.859330
232.8914,1.894658
232.3857,1.936972
##END=
