##TITLE=2-Methyl-2-propanethiol
##JCAMP-DX=4.24
##DATA TYPE=UV/VIS SPECTRUM
##ORIGIN=INSTITUTE OF ENERGY PROBLEMS OF CHEMICAL PHYSICS, RAS
##OWNER=INEP CP RAS, NIST OSRD
Collection (C) 2007 copyright by the U.S. Secretary of Commerce
on behalf of the United States of America. All rights reserved.
##CAS REGISTRY NO=75-66-1
##MOLFORM=C4H10S
##MP=-0.5
##BP=64.3
##SOURCE REFERENCE=RAS UV No. 852
##$NIST SQUIB=1954HAI/HEL270-278
##$NIST SOURCE=TSGMTE
##SPECTROMETER/DATA SYSTEM=Beckman DU
##XUNITS=Wavelength (nm)
##YUNITS=Logarithm epsilon
##XFACTOR=1.000000
##YFACTOR=1.000000
##FIRSTX=211.7285
##LASTX=277.6160
##FIRSTY=2.50799
##MAXX=277.616
##MINX=211.729
##MAXY=2.50799
##MINY=0.050998
##NPOINTS=99
##$REF AUTHOR=Haines, W.E.; Helm, R.V.; Bailey, c.W.; Ball, J.S.
##$REF TITLE=Purification and properties of ten organic sulfur compounds
##$REF JOURNAL=J. Phys. Chem.
##$REF VOLUME=58
##$REF PAGE=270-278
##$REF DATE=1954
##XYPOINTS=(XY..XY)
211.7285,2.507988
212.2184,2.475724
212.6965,2.440173
213.1949,2.402779
213.7453,2.364987
214.3798,2.328241
215.1302,2.293988
216.0286,2.263671
217.1067,2.238736
217.1067,2.238736
217.9461,2.233341
218.4741,2.227428
218.8414,2.223484
219.0265,2.221372
220.4349,2.224246
222.1025,2.229500
225.1541,2.237740
226.7427,2.250910
228.6790,2.249841
230.5297,2.247882
232.3925,2.243338
234.3652,2.234511
234.3652,2.234511
236.2497,2.206276
238.1380,2.177948
240.0337,2.149432
240.0337,2.149432
241.4480,2.120742
242.8670,2.092012
244.2892,2.063203
245.7129,2.034277
245.7129,2.034277
246.6972,2.009030
247.8122,1.980368
248.9765,1.949304
250.1090,1.916848
251.1284,1.884012
251.9534,1.851805
252.5028,1.821242
252.5028,1.821242
254.4732,1.740500
255.7086,1.688943
256.3938,1.659949
256.7137,1.646900
256.8533,1.643177
256.8533,1.643177
257.3926,1.605919
258.1452,1.523970
258.1868,1.569093
258.3988,1.523398
258.6561,1.522639
258.8379,1.528480
258.9209,1.521786
258.9209,1.521786
259.6418,1.479913
260.3865,1.437958
261.2040,1.396152
262.1433,1.354721
262.1433,1.354721
262.4889,1.320999
262.9364,1.290420
263.3414,1.272285
263.3414,1.272285
263.8247,1.238641
264.3030,1.204923
264.7767,1.171132
265.2456,1.137272
265.7100,1.103342
266.1698,1.069350
266.6253,1.035294
267.0765,1.001175
267.5234,0.967000
267.9662,0.932773
268.4050,0.898489
268.8399,0.864155
269.2709,0.829773
269.6981,0.795345
270.1217,0.760875
270.5417,0.726360
270.9583,0.691806
271.3714,0.657218
271.7813,0.622597
272.1880,0.587947
272.5916,0.553264
272.9921,0.518553
273.3898,0.483830
273.7846,0.449077
274.1767,0.414305
274.5661,0.379505
274.5661,0.379505
274.8322,0.343487
275.1654,0.307368
275.5447,0.271168
275.9492,0.234871
276.3580,0.198410
276.7500,0.161817
277.1043,0.125058
277.3999,0.088136
277.6160,0.050998
##END=
