##TITLE=Methane, bromotrifluoro-
##JCAMP-DX=4.24
##DATA TYPE=UV/VIS SPECTRUM
##ORIGIN=INSTITUTE OF ENERGY PROBLEMS OF CHEMICAL PHYSICS, RAS
##OWNER=INEP CP RAS, NIST OSRD
Collection (C) 2007 copyright by the U.S. Secretary of Commerce
on behalf of the United States of America. All rights reserved.
##CAS REGISTRY NO=75-63-8
##MOLFORM=CBrF3
##MP=-172
##BP=-57.8
##SOURCE REFERENCE=RAS UV No. 2830
##$NIST SQUIB=1951DAV467-468
##$NIST SOURCE=TSGMTE
##SPECTROMETER/DATA SYSTEM=Beckman DU
##XUNITS=Wavelength (nm)
##YUNITS=Logarithm epsilon
##XFACTOR=1.000000
##YFACTOR=1.000000
##FIRSTX=205.5125
##LASTX=256.8290
##FIRSTY=1.42442
##MAXX=256.829
##MINX=205.512
##MAXY=1.5065
##MINY=-0.940437
##NPOINTS=65
##$REF AUTHOR=Davidson, N.
##$REF TITLE=The ultraviolet absorption spectra and the refractive indices of some fluorobromomethanes
##$REF JOURNAL=J. Am. Chem. Soc.
##$REF VOLUME=73
##$REF PAGE=467-468
##$REF DATE=1951
##XYPOINTS=(XY..XY)
205.5125,1.424418
205.9067,1.448754
208.3553,1.501909
208.4510,1.503439
208.5508,1.504968
208.6590,1.506496
210.7140,1.502676
211.0234,1.501648
211.3411,1.500534
211.3411,1.500534
211.7609,1.495222
212.1848,1.489909
212.9033,1.478146
213.0372,1.471774
213.1711,1.465572
213.1711,1.465572
213.4943,1.460268
217.8149,1.362136
218.8316,1.336714
222.2385,1.227699
222.7318,1.208911
223.3221,1.190978
223.3221,1.190978
223.5495,1.180828
223.7129,1.175500
223.9522,1.170435
223.9522,1.170435
224.2074,1.152539
224.4709,1.134642
225.5099,1.088094
228.8312,0.933113
229.5074,0.898204
231.4358,0.808265
233.9600,0.672550
234.5155,0.640948
236.2640,0.536028
237.7722,0.449463
237.7722,0.449463
238.1748,0.423180
238.5774,0.396914
241.7608,0.183099
242.2399,0.153876
242.7190,0.124635
243.1980,0.095344
243.6771,0.066065
246.5362,-0.117305
247.0155,-0.152798
248.1333,-0.234331
248.4522,-0.254223
248.4522,-0.254223
249.1894,-0.306801
249.6012,-0.337998
249.8372,-0.360016
250.9958,-0.443215
252.7535,-0.593630
252.9270,-0.606776
252.9270,-0.606776
253.0451,-0.619970
253.2478,-0.638083
253.5401,-0.662541
253.9269,-0.694649
254.4129,-0.735654
255.9299,-0.858550
256.3364,-0.892790
256.8290,-0.940437
##END=
