##TITLE=2-Butanone, 3,3-dimethyl-
##JCAMP-DX=4.24
##DATA TYPE=UV/VIS SPECTRUM
##ORIGIN=INSTITUTE OF ENERGY PROBLEMS OF CHEMICAL PHYSICS, RAS
##OWNER=INEP CP RAS, NIST OSRD
Collection (C) 2007 copyright by the U.S. Secretary of Commerce
on behalf of the United States of America. All rights reserved.
##CAS REGISTRY NO=75-97-8
##MOLFORM=C6H12O
##BP=106
##SOURCE REFERENCE=RAS UV No. 17357
##$NIST SQUIB=1988UNO/1431
##$NIST SOURCE=TYUGLMTE
##SPECTROMETER/DATA SYSTEM=Hitachi 323
##XUNITS=Wavelength (nm)
##YUNITS=Logarithm epsilon
##XFACTOR=1.0
##YFACTOR=1.0
##FIRSTX=217.9
##LASTX=330.32
##FIRSTY=1.41
##MAXX=330.32
##MINX=217.9
##MAXY=1.41
##MINY=-0.383
##NPOINTS=205
##$REF AUTHOR=Uno, B.; et al.
##$REF JOURNAL=Bull. Chem. Soc. Japan
##$REF VOLUME=61
##$REF PAGE=1431
##$REF DATE=1988
##XYPOINTS=(XY..XY)
217.90,1.410
218.02,1.401
218.23,1.382
218.53,1.359
218.90,1.333
219.31,1.303
219.81,1.269
220.45,1.227
221.10,1.188
221.74,1.158
222.38,1.125
223.03,1.085
223.67,1.048
224.31,1.015
224.96,0.969
225.60,0.936
226.24,0.890
226.89,0.850
227.53,0.803
228.17,0.759
228.73,0.710
229.46,0.652
229.72,0.629
229.85,0.617
229.92,0.610
229.99,0.604
230.11,0.593
230.20,0.585
230.38,0.569
230.60,0.552
230.92,0.528
231.52,0.484
232.16,0.438
232.80,0.404
233.45,0.376
234.09,0.357
234.71,0.344
235.38,0.337
235.97,0.334
236.71,0.337
237.39,0.346
237.97,0.353
238.59,0.367
239.29,0.382
239.88,0.395
240.45,0.406
241.06,0.418
241.77,0.437
242.45,0.454
243.10,0.469
243.74,0.486
244.32,0.501
245.07,0.522
245.67,0.540
246.31,0.565
246.96,0.589
247.60,0.617
248.24,0.638
249.14,0.677
250.06,0.711
250.64,0.738
251.20,0.763
251.33,0.767
251.46,0.770
251.59,0.774
251.72,0.778
251.84,0.782
251.97,0.785
252.10,0.789
252.23,0.793
252.36,0.796
252.49,0.800
252.62,0.803
252.74,0.807
252.84,0.809
253.15,0.819
253.35,0.830
253.77,0.844
254.42,0.866
255.02,0.888
255.70,0.912
256.31,0.932
256.95,0.954
257.63,0.978
258.31,1.000
259.23,1.028
260.21,1.048
260.33,1.050
260.44,1.051
260.58,1.052
260.67,1.053
260.77,1.054
260.92,1.056
261.11,1.058
261.29,1.060
261.49,1.062
262.14,1.070
262.78,1.077
263.42,1.083
264.07,1.092
264.71,1.101
265.35,1.113
265.99,1.127
266.64,1.143
267.14,1.157
267.48,1.167
267.75,1.178
268.02,1.188
268.30,1.197
268.57,1.201
268.88,1.201
269.21,1.199
269.85,1.194
270.50,1.189
271.14,1.189
271.78,1.192
272.43,1.198
273.07,1.205
273.71,1.213
274.37,1.221
275.00,1.231
275.64,1.240
276.29,1.248
276.93,1.255
277.57,1.261
278.22,1.267
278.81,1.272
279.42,1.275
280.15,1.279
280.79,1.282
282.08,1.288
282.77,1.291
283.36,1.293
283.99,1.295
284.62,1.297
285.29,1.299
285.93,1.300
286.58,1.300
287.28,1.300
287.86,1.299
288.51,1.298
289.15,1.297
289.79,1.294
290.44,1.292
291.06,1.289
291.70,1.286
292.37,1.282
292.91,1.278
293.49,1.275
294.31,1.270
294.94,1.266
295.58,1.261
296.23,1.254
296.87,1.245
297.51,1.237
298.19,1.229
298.90,1.220
299.44,1.210
300.09,1.202
300.78,1.190
301.37,1.180
302.02,1.170
302.66,1.158
303.30,1.145
303.95,1.137
304.52,1.125
305.23,1.113
306.52,1.086
307.16,1.070
307.80,1.050
308.45,1.025
309.08,1.005
309.73,0.978
310.38,0.959
311.02,0.941
311.66,0.918
312.30,0.894
312.95,0.869
313.54,0.849
314.24,0.824
314.88,0.800
315.52,0.774
316.12,0.749
316.81,0.718
317.45,0.687
318.05,0.654
318.74,0.617
319.38,0.577
320.03,0.546
320.67,0.499
321.31,0.438
321.98,0.394
322.59,0.346
323.19,0.308
323.89,0.258
324.53,0.205
325.17,0.145
325.81,0.094
326.46,0.036
327.10,-0.031
327.48,-0.086
328.09,-0.186
329.03,-0.286
329.67,-0.332
330.32,-0.383
##END=
