##TITLE=4-Phenylazophenyl isothiocyanate
##JCAMP-DX=4.24
##DATA TYPE=UV/VIS SPECTRUM
##ORIGIN=INSTITUTE OF ENERGY PROBLEMS OF CHEMICAL PHYSICS, RAS
##OWNER=INEP CP RAS, NIST OSRD
Collection (C) 2007 copyright by the U.S. Secretary of Commerce
on behalf of the United States of America. All rights reserved.
##CAS REGISTRY NO=7612-96-6
##MOLFORM=C13H9N3S
##MP=125
##SOURCE REFERENCE=RAS UV No. 15201
##$NIST SQUIB=1969MAR/3912
##$NIST SOURCE=TYUGLMTE
##SPECTROMETER/DATA SYSTEM=JASCO ORD/UV
##XUNITS=Wavelength (nm)
##YUNITS=Logarithm epsilon
##XFACTOR=1.0
##YFACTOR=1.0
##FIRSTX=205.76
##LASTX=485.47
##FIRSTY=4.546
##MAXX=485.47
##MINX=205.76
##MAXY=4.546
##MINY=3.017
##NPOINTS=163
##$REF AUTHOR=Martron, A.; et al.
##$REF JOURNAL=Coll. Czech. Chem Comm.
##$REF VOLUME=34
##$REF PAGE=3912
##$REF DATE=1969
##XYPOINTS=(XY..XY)
205.76,4.546
206.33,4.534
207.48,4.440
209.21,4.374
210.94,4.320
212.66,4.280
214.39,4.251
216.12,4.234
217.84,4.229
219.57,4.234
221.29,4.240
223.02,4.251
224.75,4.260
226.47,4.271
228.20,4.283
229.93,4.291
233.38,4.294
235.11,4.286
236.83,4.263
238.56,4.234
240.29,4.180
242.01,4.149
243.74,4.137
245.47,4.126
247.19,4.097
248.92,4.060
250.65,4.014
252.37,3.960
254.10,3.877
255.83,3.811
257.55,3.757
259.28,3.740
261.01,3.729
262.73,3.723
264.46,3.723
266.19,3.731
267.91,3.737
269.64,3.746
271.37,3.751
273.09,3.763
274.82,3.771
276.55,3.777
278.27,3.800
280.00,3.823
281.73,3.851
283.45,3.877
285.18,3.903
286.91,3.923
288.63,3.949
290.36,3.971
292.09,3.997
293.81,4.017
295.54,4.040
297.27,4.054
298.99,4.074
300.72,4.094
302.45,4.117
304.17,4.137
305.90,4.166
307.63,4.189
309.35,4.203
311.08,4.223
312.81,4.254
314.53,4.280
316.26,4.300
317.99,4.320
319.71,4.340
321.44,4.354
323.17,4.371
324.89,4.391
326.62,4.409
328.35,4.426
330.07,4.437
331.80,4.449
333.53,4.469
335.25,4.480
336.98,4.486
338.71,4.491
340.43,4.500
342.16,4.500
343.88,4.494
345.61,4.491
347.34,4.489
349.06,4.489
350.79,4.486
352.52,4.463
354.24,4.429
355.97,4.397
357.70,4.349
359.42,4.300
361.15,4.269
362.88,4.240
364.60,4.206
366.33,4.177
368.06,4.154
369.78,4.126
371.51,4.097
373.24,4.066
374.96,4.020
376.69,3.986
378.42,3.946
380.14,3.849
381.87,3.734
383.60,3.180
384.17,3.180
385.32,3.140
387.05,3.111
388.78,3.097
390.50,3.080
392.23,3.066
393.96,3.051
395.68,3.040
397.41,3.029
399.14,3.026
400.86,3.023
402.59,3.020
404.32,3.017
406.04,3.023
407.77,3.026
409.50,3.031
411.22,3.040
412.95,3.046
414.68,3.051
416.40,3.057
418.13,3.069
419.86,3.074
421.58,3.080
423.31,3.091
425.04,3.100
426.76,3.106
428.49,3.109
430.22,3.114
431.94,3.120
433.67,3.126
435.40,3.131
437.12,3.131
438.85,3.134
440.58,3.134
442.30,3.137
444.03,3.140
445.76,3.143
447.48,3.143
449.21,3.143
450.94,3.143
452.66,3.143
454.39,3.143
456.12,3.134
457.84,3.131
459.57,3.131
461.29,3.129
463.02,3.126
464.75,3.117
466.47,3.114
468.20,3.109
469.93,3.106
471.65,3.097
473.38,3.091
475.11,3.086
478.56,3.071
480.29,3.066
482.01,3.063
483.74,3.054
485.47,3.049
##END=
