##TITLE=2,4-Hexadiene, 2,5-dimethyl-
##JCAMP-DX=4.24
##DATA TYPE=UV/VIS SPECTRUM
##ORIGIN=INSTITUTE OF ENERGY PROBLEMS OF CHEMICAL PHYSICS, RAS
##OWNER=INEP CP RAS, NIST OSRD
Collection (C) 2007 copyright by the U.S. Secretary of Commerce
on behalf of the United States of America. All rights reserved.
##CAS REGISTRY NO=764-13-6
##MOLFORM=C8H14
##MP=14
##BP=134.5
##SOURCE REFERENCE=RAS UV No. 7337
##$NIST SQUIB=1964FOR/SHI3527-3531
##$NIST SOURCE=TSGMTE
##SPECTROMETER/DATA SYSTEM=Unicam SP 500, Beckman DU, Cary 14
##XUNITS=Wavelength (nm)
##YUNITS=Logarithm epsilon
##XFACTOR=1.000000
##YFACTOR=1.000000
##FIRSTX=285.4692
##LASTX=218.0531
##FIRSTY=2.19683
##MAXX=285.469
##MINX=218.053
##MAXY=4.3889
##MINY=2.19683
##NPOINTS=263
##$REF AUTHOR=Forbes, W.F.; Shilton, R.; Balasubramanian, A.
##$REF TITLE=The ultraviolet absorption spectra of some conjugated dienes
##$REF JOURNAL=J. Org. Chem.
##$REF VOLUME=29
##$REF PAGE=3527-3531
##$REF DATE=1964
##XYPOINTS=(XY..XY)
285.4692,2.196826
284.4777,2.330817
283.4891,2.433065
282.4995,2.515760
282.4995,2.515760
281.3777,2.666469
280.4581,2.785493
279.7051,2.884376
279.0843,2.969199
278.5626,3.043582
278.1074,3.109860
277.6867,3.169634
277.2690,3.224050
276.8232,3.273964
276.8232,3.273964
276.5087,3.312859
276.2056,3.348594
275.9134,3.381647
275.6316,3.412393
275.3600,3.441134
275.0980,3.468116
274.8452,3.493542
274.6013,3.517582
274.3659,3.540380
274.1385,3.562057
273.9189,3.582719
273.7065,3.602456
273.5010,3.621347
273.3021,3.639462
273.1093,3.656861
272.9223,3.673598
272.7408,3.689722
272.5643,3.705276
272.3924,3.720298
272.2249,3.734822
272.0614,3.748881
271.9015,3.762502
271.7448,3.775712
271.5910,3.788535
271.4398,3.800991
271.2908,3.813101
271.1436,3.824883
271.1436,3.824883
271.0340,3.836439
270.9268,3.847693
270.8216,3.858661
270.7183,3.869357
270.6170,3.879793
270.5174,3.889982
270.4194,3.899937
270.3229,3.909666
270.2278,3.919180
270.1339,3.928488
270.0412,3.937600
269.9496,3.946522
269.8588,3.955264
269.7688,3.963831
269.6796,3.972231
269.5908,3.980471
269.5026,3.988555
269.4146,3.996491
269.3269,4.004282
269.2393,4.011935
269.1516,4.019455
269.0638,4.026845
268.9758,4.034110
268.8875,4.041254
268.7986,4.048282
268.7092,4.055196
268.6191,4.062002
268.5281,4.068701
268.4363,4.075297
268.3434,4.081794
268.2493,4.088194
268.1540,4.094500
268.0574,4.100714
267.9593,4.106840
267.8595,4.112880
267.7581,4.118837
267.6549,4.124712
267.5497,4.130507
267.4425,4.136226
267.3332,4.141869
267.2217,4.147440
267.1078,4.152938
266.9914,4.158368
266.8725,4.163729
266.7509,4.169025
266.6266,4.174256
266.4993,4.179424
266.3691,4.184531
266.2358,4.189578
266.0993,4.194566
265.9596,4.199497
265.9596,4.199497
265.6424,4.207488
265.3869,4.213788
265.1750,4.218848
264.9894,4.223087
264.8123,4.226902
264.6264,4.230675
264.4143,4.234772
264.1590,4.239549
263.8432,4.245339
263.8432,4.245339
263.3441,4.252463
262.8863,4.258820
262.4658,4.264511
262.0787,4.269625
261.7213,4.274247
261.3899,4.278457
261.0807,4.282331
260.7901,4.285940
260.5146,4.289354
260.2506,4.292639
259.9945,4.295862
259.7429,4.299083
259.7429,4.299083
259.5720,4.303123
259.3982,4.307129
259.2222,4.311101
259.0445,4.315040
258.8658,4.318945
258.6866,4.322816
258.5075,4.326653
258.3290,4.330456
258.1516,4.334225
257.9760,4.337961
257.8028,4.341662
257.6323,4.345330
257.4653,4.348963
257.3022,4.352563
257.1436,4.356129
256.9901,4.359660
256.8421,4.363158
256.7002,4.366622
256.7002,4.366622
256.4883,4.369432
256.2167,4.373235
255.8976,4.377546
255.5426,4.381893
255.1638,4.385824
254.7727,4.388901
253.6307,4.388643
252.9105,4.385405
252.2258,4.381490
251.5818,4.377420
250.9841,4.373736
250.9841,4.373736
250.0595,4.364105
249.6633,4.360233
249.6325,4.357642
249.5764,4.357953
249.5173,4.358252
249.4521,4.358527
249.4515,4.358944
249.4515,4.358944
248.4944,4.357779
247.9112,4.355580
247.3028,4.351700
247.3028,4.351700
246.9601,4.348103
246.6170,4.344495
246.2742,4.340867
245.9321,4.337216
245.5914,4.333534
245.2527,4.329816
244.9165,4.326054
244.5834,4.322242
244.2540,4.318374
243.9289,4.314442
243.6085,4.310438
243.2934,4.306355
242.9842,4.302184
242.9842,4.302184
242.7407,4.298316
242.4976,4.294412
242.2549,4.290473
242.0126,4.286497
241.7707,4.282484
241.5292,4.278433
241.2882,4.274343
241.0475,4.270214
240.8072,4.266046
240.5673,4.261836
240.3279,4.257585
240.0889,4.253292
239.8503,4.248955
239.6121,4.244575
239.3743,4.240149
239.1370,4.235678
238.9001,4.231160
238.6636,4.226594
238.4275,4.221980
238.1919,4.217316
237.9567,4.212601
237.7220,4.207834
237.4877,4.203014
237.2539,4.198140
237.0205,4.193211
236.7875,4.188225
236.5550,4.183181
236.3230,4.178077
236.3230,4.178077
235.9033,4.167583
235.5220,4.157794
235.1762,4.148696
234.8628,4.140265
234.5789,4.132474
234.3216,4.125285
234.0881,4.118656
233.8755,4.112538
233.6810,4.106879
233.5020,4.101618
233.3356,4.096693
233.1792,4.092036
233.0300,4.087575
232.8854,4.083236
232.7428,4.078941
232.5994,4.074607
232.4527,4.070151
232.3000,4.065485
232.1386,4.060515
231.9661,4.055145
231.7798,4.049273
231.5772,4.042790
231.5772,4.042790
231.3341,4.036015
231.0850,4.029140
230.8298,4.022165
230.5686,4.015088
230.3013,4.007908
230.0279,4.000624
229.7483,3.993233
229.4625,3.985736
229.1705,3.978129
228.8722,3.970412
228.5676,3.962583
228.2567,3.954640
227.9395,3.946582
227.6159,3.938408
227.2859,3.930115
226.9495,3.921701
226.6067,3.913166
226.2574,3.904507
225.9017,3.895723
225.5396,3.886812
225.1710,3.877772
224.7958,3.868601
224.4142,3.859298
224.0261,3.849860
223.6316,3.840287
223.2305,3.830575
223.2305,3.830575
222.5959,3.817654
221.9626,3.804295
221.3280,3.790426
221.3280,3.790426
219.8253,3.761444
218.9123,3.742785
218.4191,3.732662
218.1849,3.728439
218.0531,3.727026
##END=
