##TITLE=Benzyl methyl sulfide
##JCAMP-DX=4.24
##DATA TYPE=UV/VIS SPECTRUM
##ORIGIN=INSTITUTE OF ENERGY PROBLEMS OF CHEMICAL PHYSICS, RAS
##OWNER=INEP CP RAS, NIST OSRD
Collection (C) 2007 copyright by the U.S. Secretary of Commerce
on behalf of the United States of America. All rights reserved.
##CAS REGISTRY NO=766-92-7
##MOLFORM=C8H10S
##BP=210
##SOURCE REFERENCE=RAS UV No. 20128
##$NIST SQUIB=1969BOL/112
##$NIST SOURCE=TYUGLMTE
##SPECTROMETER/DATA SYSTEM=unknown
##XUNITS=Wavelength (nm)
##YUNITS=Logarithm epsilon
##XFACTOR=1.0
##YFACTOR=1.0
##FIRSTX=220.27
##LASTX=295.94
##FIRSTY=3.286
##MAXX=295.94
##MINX=220.27
##MAXY=3.286
##MINY=0.415
##NPOINTS=120
##$REF AUTHOR=Bol'shakov, G.F.; et al.
##$REF JOURNAL=Ultraviolet spectra of heteroorganic compounds
##$REF PAGE=112
##$REF DATE=1969
##XYPOINTS=(XY..XY)
220.27,3.286
220.44,3.282
220.61,3.282
220.94,3.269
221.62,3.244
222.30,3.206
222.97,3.173
223.65,3.143
224.32,3.105
225.00,3.076
225.67,3.038
226.35,2.992
227.03,2.942
227.70,2.896
228.38,2.854
229.05,2.807
229.73,2.770
230.40,2.732
231.08,2.694
231.75,2.665
232.43,2.644
233.11,2.623
233.78,2.602
234.46,2.581
235.13,2.568
235.81,2.560
236.48,2.543
237.16,2.534
237.84,2.526
238.51,2.522
239.19,2.518
239.86,2.518
240.54,2.518
241.21,2.518
241.89,2.522
242.56,2.522
243.24,2.522
243.92,2.522
244.59,2.522
245.26,2.521
245.94,2.518
246.51,2.512
247.29,2.505
247.96,2.497
248.64,2.487
249.26,2.476
249.88,2.463
250.67,2.446
251.18,2.429
252.02,2.396
252.70,2.362
253.37,2.325
253.93,2.296
254.73,2.262
255.33,2.230
255.90,2.207
256.57,2.177
257.43,2.148
257.77,2.143
258.10,2.144
258.78,2.157
259.46,2.169
260.13,2.173
260.81,2.173
261.48,2.169
262.16,2.152
262.83,2.132
263.21,2.111
263.51,2.081
263.78,2.041
264.18,2.006
264.51,1.984
264.86,1.964
265.24,1.957
265.54,1.964
266.21,1.980
266.89,1.997
267.56,1.997
268.24,1.980
268.91,1.951
269.59,1.913
270.27,1.871
270.94,1.829
271.62,1.783
272.29,1.729
272.97,1.678
273.64,1.607
274.32,1.561
274.99,1.510
275.67,1.447
276.35,1.380
277.02,1.317
277.70,1.254
278.37,1.191
279.05,1.111
279.72,1.053
280.40,0.990
281.08,0.935
281.75,0.868
282.43,0.809
283.10,0.746
283.78,0.692
284.45,0.662
285.13,0.641
285.81,0.629
286.48,0.633
287.16,0.645
287.83,0.662
288.51,0.679
289.18,0.692
289.86,0.704
290.53,0.704
291.21,0.700
291.89,0.679
292.56,0.641
293.24,0.578
293.91,0.532
294.59,0.486
295.26,0.452
295.94,0.415
##END=
