##TITLE=Triphenylmethyl chloride
##JCAMP-DX=4.24
##DATA TYPE=UV/VIS SPECTRUM
##ORIGIN=INSTITUTE OF ENERGY PROBLEMS OF CHEMICAL PHYSICS, RAS
##OWNER=INEP CP RAS, NIST OSRD
Collection (C) 2007 copyright by the U.S. Secretary of Commerce
on behalf of the United States of America. All rights reserved.
##CAS REGISTRY NO=76-83-5
##MOLFORM=C19H15Cl
##MP=113.5
##BP=310
##SOURCE REFERENCE=RAS UV No. 1266
##$NIST SQUIB=1957EVA/MCE4644-4649
##$NIST SOURCE=TSGMTE
##SPECTROMETER/DATA SYSTEM=n.i.g.
##XUNITS=Wavelength (nm)
##YUNITS=Logarithm epsilon
##XFACTOR=1.000000
##YFACTOR=1.000000
##FIRSTX=362.4184
##LASTX=499.1471
##FIRSTY=3.08137
##MAXX=499.147
##MINX=362.418
##MAXY=3.66789
##MINY=2.83397
##NPOINTS=909
##$REF AUTHOR=Evans, A.G.; McEwan, I.H.; Thomas, J.H.
##$REF TITLE=The effect of solvents on the ionisation of organic halides. Part V. Ionisation in mixed solvents
##$REF JOURNAL=J. Chem. Soc.
##$REF PAGE=4644-4649
##$REF DATE=1957
##XYPOINTS=(XY..XY)
362.4184,3.081372
362.8490,3.072957
362.8532,3.081351
362.8544,3.083612
363.0600,3.085602
363.0622,3.089823
363.2934,3.091783
363.2944,3.093746
363.5001,3.095691
363.5023,3.099814
363.7069,3.099805
363.7079,3.101732
363.9137,3.103880
363.9157,3.107690
364.1460,3.107680
364.1481,3.111691
364.3538,3.113557
364.3549,3.115657
364.5596,3.115648
364.5616,3.119357
364.7918,3.119346
365.4399,3.134513
365.4419,3.138065
365.6465,3.138056
365.6487,3.141798
365.8544,3.143539
365.8565,3.147235
366.0867,3.147225
366.0931,3.157915
366.2978,3.157907
366.2988,3.159593
366.5034,3.159584
366.7091,3.161256
366.9393,3.161246
366.9415,3.164795
367.1471,3.166446
367.1525,3.175058
367.3581,3.176671
367.3603,3.180096
367.5915,3.181689
367.5936,3.184877
367.7994,3.186651
367.8014,3.189803
368.0061,3.189795
368.0072,3.191557
368.2384,3.193109
368.2395,3.194665
368.4452,3.196400
368.4473,3.199481
368.6519,3.199474
368.6551,3.204245
368.8863,3.205753
368.8875,3.207452
369.0932,3.208949
369.0953,3.212130
369.3010,3.213611
369.3052,3.219699
370.7994,3.234592
370.8036,3.240394
371.0350,3.241955
371.0382,3.246285
371.2438,3.247654
371.2460,3.250564
371.4506,3.250558
371.4548,3.256152
371.6605,3.257491
371.6637,3.261668
371.8939,3.261661
371.8981,3.267115
372.3096,3.269885
372.3138,3.275237
372.5450,3.276518
372.5462,3.277962
372.7518,3.279235
372.7528,3.280511
372.9586,3.281935
372.9628,3.287142
373.1931,3.287135
373.1951,3.289637
373.4009,3.291032
373.4019,3.292274
373.6076,3.293506
373.6108,3.297353
373.8410,3.297346
373.8431,3.299943
374.0488,3.301153
374.0510,3.303727
374.2556,3.303721
374.2588,3.307479
374.4644,3.308668
374.4655,3.309861
374.6968,3.311192
374.6989,3.313559
374.9047,3.314880
374.9067,3.317227
375.1125,3.318537
375.1135,3.319702
375.3447,3.320858
375.3479,3.324471
375.5526,3.324466
375.5547,3.326905
375.7604,3.328043
376.2016,3.335110
376.4073,3.336227
376.6375,3.336220
376.6439,3.343168
376.8485,3.343163
376.8495,3.344264
377.0553,3.345495
377.0584,3.348773
377.2642,3.349991
377.2674,3.353370
377.4976,3.353364
377.4996,3.355513
377.7054,3.356712
377.7075,3.358845
377.9121,3.358840
377.9153,3.362151
378.1455,3.362145
378.1465,3.363200
378.3523,3.364378
378.3555,3.367647
378.5601,3.367642
378.5633,3.370888
378.7935,3.370882
378.7956,3.372946
379.0014,3.374098
379.0034,3.376147
379.2080,3.376142
379.2091,3.377163
379.4137,3.377158
379.4148,3.378304
379.6451,3.378298
379.6483,3.381465
379.8539,3.382469
379.8623,3.390701
380.0681,3.391807
380.0702,3.393775
380.3015,3.394872
380.3036,3.396826
380.5094,3.397916
380.5104,3.398887
380.7160,3.399851
380.7182,3.401903
380.9494,3.402860
380.9516,3.404898
381.1573,3.405849
381.1583,3.406802
381.3641,3.407868
381.3661,3.409764
381.5975,3.410822
381.6059,3.418539
381.8116,3.419460
381.8127,3.420500
382.0184,3.421417
382.2230,3.421413
382.2240,3.422333
382.4542,3.422327
382.4574,3.425190
382.6536,3.417587
382.6579,3.421403
382.6621,3.425186
382.6663,3.428936
382.8709,3.428931
382.8731,3.430851
383.1043,3.431746
383.1075,3.434547
383.3132,3.435435
383.3154,3.437326
383.5210,3.438209
383.5242,3.440969
383.7556,3.441953
383.7598,3.445562
383.9644,3.445558
383.9665,3.447297
384.1722,3.448268
384.1754,3.450965
384.4057,3.450960
384.4089,3.453640
384.6135,3.453636
384.6155,3.455343
384.8213,3.456296
384.8223,3.457145
385.0280,3.457988
385.0290,3.458834
385.0354,3.464084
385.4638,3.458825
385.4650,3.459775
385.4714,3.465013
385.6707,3.460613
385.6749,3.464071
385.6770,3.465841
385.6792,3.467604
385.9105,3.468427
385.9125,3.470077
386.1183,3.470998
386.1203,3.472638
386.3261,3.473554
386.3271,3.474370
386.5573,3.474365
386.5595,3.476095
386.7652,3.476902
386.7684,3.479427
386.9740,3.480228
386.9762,3.481934
387.2074,3.482730
387.2085,3.483529
387.4142,3.484423
387.4163,3.486013
387.6221,3.486901
387.6241,3.488482
387.8298,3.489267
387.8319,3.490938
388.0632,3.491717
388.0664,3.494158
388.2721,3.495030
388.2742,3.496582
388.4800,3.497449
388.4862,3.502158
388.7165,3.502154
388.7176,3.503014
388.9222,3.503010
389.3591,3.504526
389.3633,3.507652
389.5680,3.507648
389.5691,3.508497
389.7748,3.509246
389.7758,3.509998
389.9816,3.510838
389.9836,3.512335
390.2150,3.513170
390.2170,3.514659
390.4228,3.515490
390.4249,3.516971
390.6305,3.517706
390.6317,3.518535
390.8629,3.519267
390.8651,3.520826
391.0707,3.521555
391.0729,3.523106
391.2786,3.523831
391.2807,3.525374
391.2924,3.533543
391.2945,3.535052
391.5120,3.526094
391.5130,3.526817
391.7186,3.527536
391.7208,3.529066
391.7304,3.535753
391.7314,3.536460
391.9265,3.529780
391.9286,3.531303
392.1599,3.532013
392.1642,3.535037
392.1663,3.536453
392.1673,3.537159
392.3731,3.537948
392.3751,3.539354
392.5809,3.540140
392.5829,3.541539
392.7887,3.542321
392.7908,3.543713
393.0220,3.544403
393.0232,3.545183
393.2288,3.545872
393.2310,3.547339
393.4366,3.548024
393.4388,3.549484
393.6690,3.549480
393.6711,3.550850
393.8768,3.551615
394.0815,3.551611
394.0825,3.552293
394.3127,3.552289
394.3137,3.552970
394.5194,3.553646
394.5216,3.555087
394.7272,3.555761
394.7294,3.557195
394.9606,3.557864
394.9618,3.558620
395.1674,3.559288
395.1696,3.560710
395.3753,3.561375
395.3773,3.562707
395.5831,3.563452
395.5851,3.564778
395.8165,3.565518
395.8175,3.566179
396.0232,3.566835
396.0253,3.568233
396.2310,3.568886
396.2332,3.570277
396.4644,3.570927
396.4686,3.573611
396.6733,3.573608
396.6754,3.574984
396.8811,3.575627
396.8843,3.577641
397.1155,3.578279
397.1177,3.579641
397.3223,3.579638
397.3245,3.580995
397.3277,3.582984
397.3309,3.584963
397.5301,3.581629
397.5312,3.582266
397.5365,3.585592
397.5376,3.586222
397.7432,3.586849
397.7444,3.587556
397.9746,3.587553
398.1802,3.588177
398.1824,3.589508
398.3870,3.589505
398.3881,3.590130
398.6193,3.590751
398.6215,3.592074
398.8261,3.592071
398.8283,3.593390
399.0329,3.593387
399.0349,3.594625
399.2662,3.595239
399.2684,3.596549
399.4730,3.596546
399.4752,3.597851
399.6798,3.597848
399.6808,3.598461
399.9110,3.598458
399.9120,3.599070
400.1167,3.599067
400.1178,3.599755
400.3235,3.600362
400.3255,3.601581
400.5302,3.601578
400.5313,3.602261
400.7625,3.602865
400.7647,3.604152
400.9693,3.604149
400.9714,3.605356
401.1760,3.605353
401.1856,3.610970
401.6226,3.612227
401.6236,3.612820
401.8283,3.612817
401.8293,3.613409
402.0607,3.614072
402.0617,3.614662
402.2673,3.615249
402.2685,3.615912
402.4731,3.615909
402.4741,3.616497
402.7054,3.617081
402.7086,3.618911
402.9132,3.618908
402.9154,3.620149
403.1200,3.620146
403.1210,3.620728
403.5559,3.620722
403.5569,3.621304
403.7627,3.621954
403.9673,3.621951
403.9683,3.622531
404.1996,3.623107
404.2006,3.623686
404.6120,3.624907
404.6130,3.625483
404.8433,3.625479
404.8444,3.626127
405.0490,3.626124
405.0501,3.626698
405.2557,3.627269
405.2569,3.627914
405.4871,3.627910
405.4881,3.628483
405.6937,3.629051
405.6949,3.629693
405.9006,3.630260
405.9026,3.631397
406.1072,3.631394
406.1084,3.632033
406.3396,3.632596
406.3418,3.633798
406.5474,3.634360
406.5496,3.635557
406.7553,3.636116
407.1901,3.636110
407.3958,3.636669
407.6260,3.636666
407.8318,3.637293
407.8328,3.637853
408.0374,3.637851
408.0384,3.638410
408.2431,3.638407
408.2441,3.638965
408.4743,3.638962
409.1170,3.640694
409.1181,3.641319
409.3227,3.641316
409.3238,3.641871
409.5284,3.641868
409.9654,3.643039
409.9664,3.643591
411.0173,3.644749
411.0204,3.646398
411.2518,3.647012
411.2528,3.647559
411.4574,3.647557
411.4584,3.648104
411.6631,3.648101
411.6642,3.648715
411.8955,3.649257
411.8965,3.649802
412.1011,3.649799
412.1023,3.650411
412.3079,3.650952
412.5381,3.650949
412.5392,3.651491
412.7438,3.651489
412.7448,3.652031
412.9506,3.652637
412.9516,3.653177
413.3864,3.653172
413.5901,3.652628
414.2295,3.652620
414.4352,3.653158
414.4362,3.653698
414.6676,3.654301
414.6696,3.655377
415.0789,3.655372
415.3102,3.655973
415.5149,3.655970
415.7205,3.656504
416.1554,3.656498
416.3610,3.657031
416.3622,3.657633
416.7990,3.658695
417.0037,3.658693
417.0047,3.659226
417.2093,3.659223
417.2105,3.659822
417.8500,3.659814
418.2868,3.660871
418.4915,3.660868
418.6972,3.661462
418.9275,3.661459
418.9285,3.661988
419.1331,3.661986
419.5701,3.663103
419.7748,3.663101
419.9782,3.662504
420.4131,3.662498
420.6189,3.663090
420.6199,3.663618
421.0569,3.664731
422.1056,3.664718
422.1066,3.665243
422.3369,3.665240
422.3379,3.665765
422.5425,3.665763
422.7482,3.666284
423.6178,3.666273
423.8236,3.666860
424.2329,3.666855
424.4641,3.667375
424.8734,3.667370
425.1046,3.667889
426.7928,3.667868
426.9964,3.667342
429.3497,3.667312
429.5521,3.666197
429.5533,3.666787
429.7557,3.665670
430.3952,3.665662
430.6234,3.664608
430.6244,3.665134
430.8258,3.663486
430.8268,3.664013
431.0294,3.662956
431.0305,3.663483
431.4621,3.661826
431.8682,3.660163
431.8714,3.661821
432.0962,3.659029
432.0973,3.659628
432.7314,3.656817
432.7326,3.657419
433.1387,3.655739
434.4122,3.652894
434.4154,3.654580
434.4176,3.655722
434.6211,3.655115
434.8503,3.654574
435.0539,3.654033
435.2574,3.653423
435.2585,3.654030
435.4865,3.652880
435.4876,3.653420
435.6901,3.652336
435.6912,3.652877
435.8936,3.651724
435.8948,3.652333
436.1228,3.651179
436.1238,3.651721
436.3254,3.650090
436.3264,3.650633
436.5289,3.649474
436.5300,3.650087
436.7325,3.648927
436.7335,3.649472
436.9617,3.648378
436.9627,3.648924
437.1652,3.647760
437.1663,3.648375
437.3688,3.647210
437.3698,3.647757
437.5979,3.646659
437.5990,3.647207
437.8004,3.645490
437.8014,3.646039
438.0040,3.644937
438.0050,3.645487
438.2332,3.644383
438.2342,3.644934
438.4356,3.643207
438.4378,3.644380
438.6381,3.642028
438.6393,3.642651
438.8683,3.642025
439.2723,3.639170
439.2755,3.640910
439.4770,3.639167
439.4790,3.640282
439.7104,3.640904
439.7114,3.641459
439.9138,3.640276
439.9160,3.641457
439.9192,3.643187
440.3455,3.638527
440.3466,3.639155
440.5481,3.637406
440.5491,3.637966
440.7505,3.636211
440.7517,3.636843
440.9797,3.635646
440.9807,3.636208
441.1822,3.634446
441.1833,3.635080
441.3848,3.633314
441.3858,3.633879
441.6138,3.632675
441.6150,3.633311
441.8164,3.631538
441.8174,3.632105
442.0189,3.630327
442.0199,3.630896
442.2214,3.629184
442.2225,3.629754
442.4505,3.628538
442.4517,3.629181
442.6531,3.627390
442.6541,3.627963
442.8555,3.626168
442.8566,3.626742
443.0847,3.625589
443.0857,3.626164
443.2872,3.624362
443.2882,3.624938
443.4896,3.623130
443.4908,3.623781
443.7146,3.620150
443.7188,3.622548
443.9171,3.618907
443.9182,3.619564
444.1207,3.618319
444.3253,3.618316
444.5545,3.617728
444.7580,3.617065
444.7591,3.617725
444.9605,3.615886
444.9616,3.616474
445.1886,3.614630
445.1897,3.615294
445.3900,3.612779
445.3922,3.614037
445.5926,3.611589
445.5936,3.612183
445.8206,3.610320
445.8217,3.610916
446.0231,3.609049
446.0242,3.609721
446.2257,3.607848
446.2267,3.608447
446.4537,3.606569
446.4549,3.607245
446.6551,3.604683
446.6573,3.605964
446.8577,3.603470
446.8588,3.604075
447.0602,3.602178
447.0612,3.602785
447.2882,3.600882
447.2894,3.601567
447.4908,3.599659
447.4918,3.600269
447.6912,3.597128
447.6954,3.599656
447.9182,3.595200
447.9203,3.596433
447.9256,3.599652
447.9267,3.600263
448.1143,3.589996
448.1217,3.594502
448.1313,3.600260
448.3370,3.600866
448.5471,3.588738
448.5672,3.600863
448.7506,3.588030
448.7517,3.588735
448.9489,3.584165
448.9542,3.587398
449.3816,3.582811
450.0157,3.579454
450.0211,3.582801
450.2183,3.578169
450.2193,3.578810
450.2257,3.582798
450.4197,3.576155
450.4218,3.577443
450.4313,3.583430
450.6477,3.574778
450.6489,3.575505
450.6616,3.583426
450.8492,3.572748
450.8513,3.574127
451.0518,3.571443
451.0528,3.572095
451.2788,3.569397
451.2808,3.570705
451.4802,3.567342
451.4822,3.568656
451.6827,3.565938
451.6838,3.566680
451.9097,3.563866
451.9118,3.565273
452.1111,3.561784
452.1133,3.563198
452.3137,3.560445
452.3147,3.561114
452.5151,3.558347
452.5183,3.560442
452.7432,3.556913
452.7443,3.557671
452.9457,3.555559
452.9468,3.556235
453.1472,3.553437
453.1492,3.554795
453.3742,3.551305
453.3774,3.553434
453.5756,3.549162
453.5778,3.550618
453.7749,3.545540
453.7792,3.548472
454.0051,3.545536
454.2077,3.544147
454.2087,3.544840
454.4091,3.541968
454.4112,3.543361
454.6116,3.540479
454.6127,3.541266
454.8386,3.538282
454.8407,3.539775
455.0400,3.536073
455.0422,3.537574
455.2426,3.534653
455.2436,3.535362
455.4674,3.530907
455.4718,3.533939
455.6678,3.527941
455.6710,3.530187
455.8650,3.522681
455.8682,3.524954
455.8714,3.527216
456.0931,3.521124
456.0942,3.521947
456.0995,3.525675
456.1017,3.527212
456.2967,3.520387
456.5013,3.520384
456.7262,3.516513
456.7305,3.519646
456.9287,3.515027
456.9298,3.515768
457.1292,3.511949
457.1324,3.514280
457.3306,3.509603
457.3338,3.511946
457.5554,3.505634
457.5596,3.508752
457.7558,3.502489
457.7590,3.504871
457.9573,3.500091
457.9594,3.501720
458.1843,3.497678
458.1865,3.499317
458.3837,3.493696
458.3879,3.496901
458.5839,3.490365
458.5871,3.492814
458.8099,3.487107
458.8131,3.489574
459.0114,3.484622
459.0146,3.487103
459.2128,3.482123
459.2150,3.483821
459.4388,3.478802
459.4420,3.481317
459.6412,3.477080
459.6434,3.478798
459.8406,3.472903
459.8449,3.476265
460.0453,3.472899
460.2733,3.471153
460.2745,3.472076
460.4779,3.471148
460.6805,3.469498
460.6815,3.470322
460.9107,3.469494
461.3178,3.467730
461.9318,3.446619
461.9350,3.449327
462.1290,3.440268
462.1353,3.445636
462.3549,3.436499
462.3581,3.439270
462.5553,3.432809
462.5585,3.435604
462.7567,3.429992
462.7589,3.431906
462.9817,3.425334
462.9859,3.429083
463.1831,3.422468
463.1852,3.424301
463.3846,3.419582
463.3868,3.421543
463.6116,3.416677
463.6148,3.419577
463.8140,3.414689
463.8162,3.416672
464.0155,3.411751
464.0177,3.413748
464.2436,3.409859
464.2447,3.410803
466.1035,3.378184
466.1057,3.380340
466.3316,3.376138
466.3327,3.377159
466.5331,3.372927
466.5351,3.374982
466.7335,3.368653
466.7367,3.371891
467.1630,3.363147
467.1662,3.366426
467.3654,3.360898
467.3676,3.363142
467.5658,3.356503
467.5700,3.360892
467.7928,3.353142
467.7950,3.355426
467.9954,3.350976
467.9964,3.352057
468.1968,3.347572
468.1989,3.349750
468.4249,3.345240
468.4271,3.347566
468.6253,3.340683
468.6285,3.344135
468.8289,3.339566
468.8299,3.340677
469.0559,3.336071
469.0580,3.338307
469.2573,3.332548
469.2594,3.334803
469.4546,3.324270
469.4610,3.331411
469.6912,3.331404
470.3051,3.331387
471.9880,3.295783
471.9901,3.298236
472.1894,3.291916
472.1915,3.294391
472.1947,3.298230
472.1969,3.300821
472.3919,3.289264
472.3929,3.290511
472.6199,3.286596
472.6211,3.288007
472.8215,3.282804
472.8235,3.285332
473.0240,3.280097
473.0261,3.282798
473.2520,3.277371
473.2531,3.278812
473.4534,3.273336
473.4556,3.276080
473.6560,3.270731
473.6581,3.273329
473.8840,3.267946
473.8852,3.269419
474.2891,3.262489
474.2913,3.265302
474.7217,3.259644
474.9232,3.255440
474.9264,3.259637
476.8193,3.224976
476.8215,3.228042
477.0208,3.220421
477.0229,3.223519
477.2489,3.217476
477.2510,3.220413
477.4504,3.212841
477.4524,3.215809
477.6528,3.209658
477.6550,3.212834
477.8553,3.206452
477.8575,3.209651
478.0834,3.203411
478.0845,3.204930
478.2849,3.198623
478.2869,3.201689
478.4863,3.193781
478.4885,3.197074
482.2901,3.140305
482.2913,3.142280
482.4917,3.134986
482.4937,3.138533
482.6941,3.131175
482.6963,3.134977
482.9212,3.125513
482.9233,3.129364
483.1236,3.121618
483.1258,3.125504
483.3251,3.115831
483.3282,3.121609
483.5532,3.112081
483.5553,3.115820
483.7557,3.108063
483.7568,3.110190
483.9583,3.104247
483.9593,3.106155
484.1863,3.100155
484.1873,3.102080
486.9170,3.035355
486.9180,3.037589
487.1194,3.030556
487.1206,3.033097
487.3208,3.023407
487.3230,3.028274
487.5490,3.018764
487.5500,3.021085
487.7515,3.013777
487.7525,3.016126
487.9529,3.006344
487.9561,3.013766
488.1555,3.001515
488.1575,3.006332
488.3845,2.998768
488.3857,3.001502
488.5860,2.991072
488.5892,2.998756
488.7886,2.986069
488.7906,2.991059
489.2212,2.980676
489.4237,2.975229
489.4259,2.980663
489.8533,2.961810
489.8565,2.970025
491.7568,2.921380
491.7611,2.933232
492.4005,2.933188
492.8002,2.905735
493.0038,2.902690
493.0048,2.905720
493.2330,2.899621
493.6401,2.893033
493.6423,2.899591
493.6433,2.902642
493.8693,2.889895
493.8703,2.893016
493.8735,2.902625
493.8767,2.912027
494.2774,2.886326
494.2785,2.889864
494.5055,2.879947
494.5066,2.883139
495.5531,2.876244
495.5543,2.879864
495.7567,2.872984
495.9848,2.865990
495.9869,2.872965
496.6232,2.862616
496.6242,2.865939
497.0304,2.855861
497.2606,2.855842
497.8713,2.845074
498.3062,2.845037
498.7388,2.837557
498.9435,2.837540
499.1471,2.833974
##END=
