##TITLE=Triphenylmethanol
##JCAMP-DX=4.24
##DATA TYPE=UV/VIS SPECTRUM
##ORIGIN=INSTITUTE OF ENERGY PROBLEMS OF CHEMICAL PHYSICS, RAS
##OWNER=INEP CP RAS, NIST OSRD
Collection (C) 2007 copyright by the U.S. Secretary of Commerce
on behalf of the United States of America. All rights reserved.
##CAS REGISTRY NO=76-84-6
##MOLFORM=C19H16O
##MP=164.2
##BP=380
##SOURCE REFERENCE=RAS UV No. 4797
##$NIST SQUIB=1957LAV/VER312-314
##$NIST SOURCE=TSGMTE
##SPECTROMETER/DATA SYSTEM=n.i.g.
##XUNITS=Wavelength (nm)
##YUNITS=Logarithm epsilon
##XFACTOR=1.000000
##YFACTOR=1.000000
##FIRSTX=212.1251
##LASTX=482.8171
##FIRSTY=4.00465
##MAXX=482.817
##MINX=212.125
##MAXY=4.63507
##MINY=2.43211
##NPOINTS=388
##$REF AUTHOR=Lavrushin, V.F.; Verkhovod, N.N.
##$REF TITLE=Halochromism of phenyl- and cyclohexylcarbinols
##$REF JOURNAL=Dokl. Akad. Nauk SSSR
##$REF VOLUME=115
##$REF NUMBER=2
##$REF PAGE=312-314
##$REF DATE=1957
##XYPOINTS=(XY..XY)
212.1251,4.004648
212.1839,4.021759
212.8102,4.027703
212.8690,4.044814
213.4069,4.044623
213.4257,4.050098
213.9847,4.056067
214.0036,4.061542
215.7432,4.078054
215.7832,4.089690
216.3210,4.089498
216.3399,4.094974
216.9449,4.094758
216.9638,4.100234
217.5016,4.100042
218.0606,4.106011
218.6657,4.105795
219.2224,4.111079
219.7602,4.110887
220.3841,4.116147
221.4598,4.115763
221.4810,4.121924
224.3047,4.120917
224.8213,4.114565
226.4833,4.108490
226.5021,4.113966
227.0695,4.102799
227.6074,4.102607
229.2081,4.078737
229.2293,4.084897
229.7459,4.078545
230.3133,4.067378
230.3322,4.072854
230.8300,4.061026
230.8512,4.067187
231.3490,4.055359
231.3678,4.060835
231.9140,4.043508
231.9352,4.049668
232.4119,4.031680
232.4519,4.043316
232.9309,4.026013
232.9497,4.031489
233.4687,4.025821
234.0550,4.020130
237.8048,3.818689
238.3322,3.795886
238.4099,3.818473
238.8488,3.789534
239.4079,3.795503
239.4079,3.795503
239.4267,3.800978
240.5108,3.783459
240.5296,3.788935
240.9686,3.759996
241.5360,3.748830
241.5548,3.754305
242.0338,3.737002
242.0526,3.742478
242.5128,3.719699
242.5528,3.731335
243.0590,3.702372
243.0990,3.714008
243.5192,3.679594
243.5780,3.696705
244.0358,3.673242
244.0570,3.679402
245.1199,3.655723
245.1411,3.661883
245.6201,3.644580
245.6389,3.650056
246.2040,3.638204
246.2252,3.644364
246.6241,3.603790
246.6830,3.620901
246.7230,3.632537
247.1831,3.609758
247.2020,3.615234
247.4539,3.512351
247.4916,3.523302
247.9329,3.495048
247.9918,3.512159
248.0294,3.523110
248.5296,3.511967
248.5673,3.522918
249.4960,3.460226
250.0338,3.460034
251.6557,3.442324
252.1936,3.442132
252.7987,3.441916
253.3553,3.447200
254.4982,3.446793
255.0549,3.452077
255.0949,3.463712
255.1138,3.469188
255.1138,3.469188
256.8746,3.491860
257.4124,3.491669
257.4713,3.508780
258.0952,3.514040
259.1308,3.502021
259.1709,3.513656
260.7928,3.495946
260.8116,3.501421
261.3790,3.490255
261.9168,3.490063
262.6478,3.369876
263.1645,3.363525
264.6957,3.162874
265.2043,3.134596
265.2819,3.157183
265.6432,3.105657
265.7209,3.128244
266.0822,3.076719
266.1622,3.099990
266.6284,3.059392
266.6684,3.071027
267.1074,3.042089
267.1474,3.053724
267.6052,3.030261
267.6264,3.036421
268.1054,3.019118
268.1242,3.024594
268.6893,3.012742
268.7105,3.018903
269.2083,3.007075
269.2271,3.012551
270.3112,2.995032
270.8302,2.989365
270.8491,2.994840
271.3681,2.989173
274.7296,2.987975
275.3535,2.993235
275.3747,2.999395
275.9313,3.004679
276.4692,3.004487
277.0931,3.009747
277.6309,3.009555
277.6898,3.026666
278.2488,3.032635
278.2888,3.044270
278.9127,3.049530
278.9316,3.055006
279.4906,3.060974
279.5683,3.083561
280.1250,3.088845
281.6798,3.208216
282.2389,3.214185
282.3566,3.248407
282.9616,3.248192
286.7751,3.378408
286.8128,3.389359
287.3718,3.395328
287.9097,3.395136
287.9285,3.400611
291.2500,3.387778
291.2900,3.399413
291.7690,3.382110
297.2080,3.162934
297.6093,3.123044
297.7458,3.162743
300.3423,2.939098
300.7496,2.881388
300.8296,2.904659
300.8885,2.921771
300.9262,2.932722
301.7288,2.852942
301.7876,2.870053
302.2350,2.823980
302.3127,2.846566
302.6551,2.789565
302.7540,2.818312
303.1341,2.772262
303.1741,2.783898
303.5415,2.714553
303.7180,2.765887
304.0016,2.691774
304.0605,2.708885
304.3441,2.634773
304.5395,2.691582
304.7642,2.600359
304.8607,2.628421
305.2304,2.559760
305.3481,2.593983
305.6906,2.536982
305.7494,2.554093
306.1295,2.508043
306.2072,2.530630
306.6758,2.490716
306.7158,2.502352
307.1547,2.473413
307.1948,2.485049
307.6526,2.461586
307.6926,2.473221
308.2200,2.450419
308.2388,2.455894
308.7366,2.444067
308.7578,2.450227
309.2556,2.438400
310.9364,2.437800
311.5226,2.432109
312.0793,2.437393
313.2222,2.436986
314.9618,2.453498
314.9807,2.458973
316.0964,2.470226
316.1152,2.475701
316.7203,2.475486
316.7415,2.481646
317.2981,2.486930
317.3570,2.504041
317.8948,2.503849
317.9725,2.526436
318.5776,2.526220
318.6388,2.544016
319.1955,2.549300
319.3132,2.583522
319.8699,2.588806
319.8910,2.594966
320.5149,2.600226
320.6138,2.628973
324.6543,2.844770
325.2782,2.850030
325.3959,2.884252
325.9526,2.889536
326.0326,2.912808
326.5893,2.918091
332.7121,3.230457
333.3172,3.230241
333.3948,3.252828
333.9515,3.258112
334.0127,3.275908
334.5694,3.281192
334.6283,3.298303
335.2522,3.303563
335.3110,3.320674
335.8700,3.326643
335.9477,3.349230
337.9039,3.428711
338.4606,3.433995
338.5194,3.451106
339.1433,3.456366
344.7765,3.626366
344.7953,3.631842
345.3520,3.637126
345.4108,3.654237
353.9558,3.868428
354.5820,3.874372
354.6009,3.879848
355.1575,3.885132
355.1787,3.891292
356.3216,3.890884
356.3405,3.896360
356.8971,3.901644
357.6115,3.952786
358.2378,3.958730
358.2566,3.964206
358.8133,3.969490
358.8345,3.975650
359.3912,3.980934
359.4312,3.992569
360.0551,3.997829
360.0763,4.003989
360.6141,4.003798
360.6330,4.009273
361.1896,4.014557
361.2108,4.020717
361.8159,4.020502
361.8747,4.037613
375.5208,4.267118
375.5585,4.278069
375.5985,4.289705
375.6573,4.306816
376.1764,4.301149
376.7414,4.289297
376.7602,4.294773
377.3381,4.306217
390.9065,4.513135
390.9253,4.518610
392.1083,4.529839
394.4045,4.551635
395.0285,4.556895
395.0496,4.563055
396.7892,4.579567
397.3271,4.579375
409.8068,4.626323
409.8256,4.631799
416.0108,4.629594
416.0297,4.635070
417.1053,4.634686
417.6727,4.623519
417.6916,4.628995
418.7484,4.623136
418.7673,4.628611
420.4292,4.622537
420.4480,4.628012
427.0345,4.585918
427.0534,4.591393
427.5512,4.579566
427.5724,4.585726
428.1374,4.573874
428.1563,4.579350
428.6564,4.568207
429.7782,4.561640
429.7993,4.567800
430.2972,4.555972
430.8162,4.550305
430.8350,4.555781
431.9379,4.543737
431.9591,4.549898
432.4758,4.543546
442.0895,4.403061
442.5285,4.374122
442.5873,4.391233
442.6273,4.402869
443.1547,4.380066
443.1736,4.385542
443.1924,4.391018
443.6926,4.379875
444.7366,4.350720
444.7955,4.367832
445.2344,4.338893
445.2556,4.345053
445.7535,4.333226
446.3397,4.327534
446.3585,4.333010
446.8775,4.327343
452.7096,4.222470
452.7285,4.227946
453.7265,4.204975
453.7453,4.210451
454.2915,4.193124
454.3104,4.198600
455.3084,4.175629
455.3272,4.181105
455.8734,4.163778
455.8922,4.169253
456.8902,4.146283
456.9091,4.151759
457.4553,4.134432
457.4765,4.140592
457.9743,4.128764
457.9931,4.134240
458.4721,4.116937
458.4933,4.123097
468.3883,3.907815
468.4283,3.919451
468.9746,3.902124
468.9934,3.907599
469.4536,3.884821
469.4912,3.895772
469.9514,3.872993
469.9914,3.884629
470.5164,3.861142
470.5376,3.867302
471.0166,3.849999
471.0354,3.855475
471.5144,3.838172
471.5333,3.843647
472.0795,3.826320
472.1007,3.832480
472.5797,3.815177
472.5985,3.820653
473.0587,3.797874
473.0963,3.808826
473.6237,3.786023
473.6426,3.791499
474.1027,3.768720
474.1427,3.780356
474.6005,3.756893
474.6406,3.768528
475.1679,3.745726
475.1868,3.751201
475.6469,3.728423
475.6846,3.739374
476.6910,3.699268
476.7498,3.716380
477.2076,3.692917
477.2288,3.699077
477.6866,3.675614
477.7267,3.687249
478.1868,3.664471
478.2056,3.669946
478.7519,3.652619
478.7707,3.658095
479.2709,3.646952
479.8087,3.646760
482.8171,3.542894
##END=
