##TITLE=4-t-Butylbenzeneamine
##JCAMP-DX=4.24
##DATA TYPE=UV/VIS SPECTRUM
##ORIGIN=INSTITUTE OF ENERGY PROBLEMS OF CHEMICAL PHYSICS, RAS
##OWNER=INEP CP RAS, NIST OSRD
Collection (C) 2007 copyright by the U.S. Secretary of Commerce
on behalf of the United States of America. All rights reserved.
##CAS REGISTRY NO=769-92-6
##MOLFORM=C10H15N
##BP=239.5
##SOURCE REFERENCE=RAS UV No. 19732
##$NIST SQUIB=1973LAN11
##$NIST SOURCE=TYUGLMTE
##SPECTROMETER/DATA SYSTEM=Unicam SP 800 B
##XUNITS=Wavelength (nm)
##YUNITS=Logarithm epsilon
##XFACTOR=1.0
##YFACTOR=1.0
##FIRSTX=200.7
##LASTX=339.03
##FIRSTY=3.498
##MAXX=339.03
##MINX=200.7
##MAXY=3.956
##MINY=1.177
##NPOINTS=175
##$REF AUTHOR=Lang (editor), L.
##$REF JOURNAL=Absorption Spectra in the Ultraviolet and Visible Region
##$REF VOLUME=18
##$REF PAGE=11
##$REF DATE=1973
##XYPOINTS=(XY..XY)
200.70,3.498
201.04,3.529
201.39,3.560
201.74,3.590
202.09,3.621
202.61,3.652
203.31,3.679
203.83,3.710
204.52,3.737
205.39,3.764
206.61,3.782
208.00,3.792
208.87,3.764
209.92,3.741
210.61,3.713
211.48,3.686
212.35,3.659
213.22,3.635
213.75,3.607
214.79,3.584
216.18,3.567
217.75,3.570
218.97,3.587
220.01,3.607
220.88,3.635
221.92,3.655
222.79,3.683
223.66,3.706
224.53,3.734
225.40,3.758
226.45,3.782
227.49,3.802
228.54,3.823
229.41,3.846
230.45,3.870
231.67,3.891
232.89,3.911
234.11,3.928
235.50,3.942
236.89,3.956
238.46,3.956
240.02,3.952
241.41,3.935
242.63,3.915
243.68,3.891
244.72,3.870
245.76,3.850
246.63,3.826
247.50,3.802
248.03,3.775
249.07,3.751
249.59,3.724
250.46,3.696
251.16,3.669
252.03,3.645
252.55,3.614
253.25,3.587
253.77,3.560
254.29,3.529
254.81,3.502
255.33,3.474
255.51,3.444
256.03,3.416
256.55,3.389
257.07,3.362
257.60,3.334
258.12,3.307
258.64,3.280
259.16,3.249
259.68,3.218
260.21,3.191
260.73,3.164
261.25,3.136
261.60,3.106
262.12,3.075
262.82,3.048
263.51,3.020
264.38,2.997
265.25,2.969
266.12,2.945
267.17,2.925
268.56,2.908
269.95,2.894
271.52,2.894
273.08,2.904
274.30,2.925
275.34,2.949
276.39,2.969
277.26,2.993
278.30,3.014
279.35,3.034
280.56,3.051
281.61,3.072
282.83,3.092
283.87,3.113
285.26,3.123
286.48,3.140
287.87,3.154
289.44,3.160
290.83,3.171
292.40,3.171
293.96,3.171
295.36,3.154
296.75,3.140
298.14,3.123
299.36,3.102
300.58,3.082
301.62,3.061
302.66,3.038
303.53,3.014
304.58,2.990
305.27,2.962
306.32,2.939
307.01,2.911
307.88,2.887
308.58,2.860
309.45,2.836
309.97,2.809
310.84,2.782
311.36,2.754
312.23,2.727
312.58,2.696
313.28,2.669
313.97,2.642
314.50,2.614
315.19,2.587
315.71,2.560
316.24,2.532
316.76,2.505
317.28,2.478
317.80,2.447
318.15,2.416
318.67,2.389
319.19,2.362
319.72,2.331
320.24,2.304
320.59,2.273
321.11,2.246
321.46,2.215
321.98,2.188
322.33,2.157
322.67,2.126
323.02,2.096
323.20,2.065
323.72,2.038
324.07,2.007
324.59,1.976
324.94,1.945
325.46,1.915
325.81,1.884
326.33,1.857
326.85,1.829
327.37,1.802
327.89,1.775
328.24,1.744
328.76,1.713
329.29,1.686
329.81,1.659
330.33,1.631
331.03,1.604
331.55,1.577
332.24,1.549
332.94,1.522
333.46,1.495
334.16,1.468
334.68,1.440
335.20,1.413
335.55,1.382
336.07,1.355
336.60,1.324
337.12,1.293
337.47,1.263
338.16,1.235
338.51,1.205
339.03,1.177
##END=
