##TITLE=2-methyl-1-phenyl-2-propen1-one
##JCAMP-DX=4.24
##DATA TYPE=UV/VIS SPECTRUM
##ORIGIN=INSTITUTE OF ENERGY PROBLEMS OF CHEMICAL PHYSICS, RAS
##OWNER=INEP CP RAS, NIST OSRD
Collection (C) 2007 copyright by the U.S. Secretary of Commerce
on behalf of the United States of America. All rights reserved.
##CAS REGISTRY NO=769-60-8
##MOLFORM=C10H10O
##BP=56.7-57.5/ 1 mm
##SOURCE REFERENCE=RAS UV No. 22787
##$NIST SQUIB=1976SUG/1901
##$NIST SOURCE=TYUGLMTE
##SPECTROMETER/DATA SYSTEM=unknown
##XUNITS=Wavelength (nm)
##YUNITS=Logarithm epsilon
##XFACTOR=1.0
##YFACTOR=1.0
##FIRSTX=255.631
##LASTX=398.3
##FIRSTY=4.029
##MAXX=398.3
##MINX=255.631
##MAXY=4.029
##MINY=0.103
##NPOINTS=146
##$REF AUTHOR=Sugita, K.; et al.
##$REF JOURNAL=J. Pol. Sci., Pol. Chem. Ed.
##$REF VOLUME=14
##$REF PAGE=1901
##$REF DATE=1976
##XYPOINTS=(XY..XY)
255.631,4.029
255.855,4.028
256.855,4.029
257.855,4.028
258.855,4.015
259.855,3.984
260.855,3.934
261.855,3.868
262.855,3.793
263.855,3.716
264.855,3.645
265.855,3.586
266.855,3.542
267.855,3.513
268.644,3.500
269.644,3.466
270.644,3.432
271.644,3.397
272.644,3.364
273.644,3.333
274.644,3.305
275.644,3.278
276.644,3.252
277.644,3.227
278.644,3.203
279.644,3.179
280.644,3.154
281.644,3.129
282.644,3.103
283.644,3.076
284.644,3.047
285.644,3.018
286.644,2.987
287.644,2.954
288.644,2.918
289.644,2.877
290.632,2.830
291.632,2.757
292.632,2.690
293.632,2.627
294.632,2.566
295.632,2.506
296.632,2.446
297.632,2.385
298.632,2.323
299.632,2.260
300.632,2.196
301.632,2.133
302.632,2.070
303.632,2.011
304.632,1.956
305.632,1.908
306.632,1.870
307.460,1.847
308.460,1.834
309.460,1.832
310.460,1.836
311.460,1.845
312.460,1.855
313.460,1.866
314.460,1.876
315.460,1.885
316.460,1.892
317.460,1.899
318.460,1.904
319.460,1.909
320.460,1.913
321.460,1.917
322.460,1.921
323.460,1.926
324.460,1.932
325.460,1.938
326.460,1.944
327.460,1.951
328.460,1.958
329.460,1.964
330.460,1.969
331.460,1.973
332.460,1.975
333.460,1.974
334.460,1.972
335.460,1.968
336.460,1.962
337.460,1.957
337.525,1.956
338.525,1.955
339.525,1.953
340.525,1.951
341.525,1.947
342.525,1.943
343.525,1.938
344.525,1.931
345.525,1.924
346.525,1.915
347.525,1.904
348.525,1.893
349.525,1.881
350.525,1.868
351.525,1.855
352.525,1.840
353.525,1.825
354.525,1.810
355.525,1.794
356.525,1.778
357.525,1.760
358.525,1.742
359.525,1.722
360.525,1.700
361.525,1.676
362.429,1.652
363.429,1.617
364.429,1.584
365.429,1.552
366.429,1.520
367.429,1.488
368.429,1.455
369.429,1.422
370.429,1.386
371.429,1.350
372.429,1.312
373.429,1.274
374.429,1.234
375.429,1.193
376.429,1.152
377.429,1.110
378.429,1.068
379.429,1.026
380.429,0.984
381.429,0.942
382.300,0.900
383.300,0.863
384.300,0.821
385.300,0.776
386.300,0.727
387.300,0.676
388.300,0.623
389.300,0.569
390.300,0.515
391.300,0.462
392.300,0.409
393.300,0.357
394.300,0.306
395.300,0.255
396.300,0.205
397.300,0.155
398.300,0.103
##END=
