##TITLE=Benzenethiol, pentafluoro-
##JCAMP-DX=4.24
##DATA TYPE=UV/VIS SPECTRUM
##ORIGIN=INSTITUTE OF ENERGY PROBLEMS OF CHEMICAL PHYSICS, RAS
##OWNER=INEP CP RAS, NIST OSRD
Collection (C) 2007 copyright by the U.S. Secretary of Commerce
on behalf of the United States of America. All rights reserved.
##CAS REGISTRY NO=771-62-0
##MOLFORM=C6HF5S
##BP=143
##SOURCE REFERENCE=RAS UV No. 508
##$NIST SQUIB=1960ROB/STA4754-4760
##$NIST SOURCE=TSGMTE
##SPECTROMETER/DATA SYSTEM=Spectrophotometer SF-16
##XUNITS=Wavelength (nm)
##YUNITS=Logarithm epsilon
##XFACTOR=1.000000
##YFACTOR=1.000000
##FIRSTX=210.0000
##LASTX=319.0000
##FIRSTY=3.72
##MAXX=319
##MINX=210
##MAXY=3.97
##MINY=2.08
##NPOINTS=110
##$REF AUTHOR=Robson, P.; Stacey, M.; Stephens, R.; Tatlow, J.C.
##$REF TITLE=Aromatic polyfluoro-compounds. Part VI. Penta- and 2,3,5,6-tetra-fluorothiophenol
##$REF JOURNAL=J. Chem. Soc.
##$REF PAGE=4754-4760
##$REF DATE=1960
##XYPOINTS=(XY..XY)
210.0000,3.720002
211.0000,3.730000
212.0000,3.740000
213.0000,3.760000
214.0000,3.770000
215.0000,3.790000
216.0000,3.810000
217.0000,3.830000
218.0000,3.850000
219.0000,3.870000
220.0000,3.890002
221.0000,3.910000
222.0000,3.930000
223.0000,3.940000
224.0000,3.950000
225.0000,3.960000
226.0000,3.970000
227.0000,3.970000
228.0000,3.970000
229.0000,3.970000
230.0000,3.969998
231.0000,3.960000
232.0000,3.950000
233.0000,3.910000
234.0000,3.890000
235.0000,3.850000
236.0000,3.800000
237.0000,3.770000
238.0000,3.750000
239.0000,3.720000
240.0000,3.700002
241.0000,3.690000
242.0000,3.670000
243.0000,3.660000
244.0000,3.650000
245.0000,3.640000
246.0000,3.640000
247.0000,3.630000
248.0000,3.630000
249.0000,3.630000
250.0000,3.620001
251.0000,3.620000
252.0000,3.610000
253.0000,3.610000
254.0000,3.600000
255.0000,3.590000
256.0000,3.580000
257.0000,3.570000
258.0000,3.560000
259.0000,3.550000
260.0000,3.540004
261.0000,3.530000
262.0000,3.510000
263.0000,3.500000
264.0000,3.490000
265.0000,3.470000
266.0000,3.450000
267.0000,3.430000
268.0000,3.410000
269.0000,3.400000
270.0000,3.379994
271.0000,3.360000
272.0000,3.330000
273.0000,3.290000
274.0000,3.250000
275.0000,3.210000
276.0000,3.180000
277.0000,3.150000
278.0000,3.120000
279.0000,3.070000
280.0000,3.040009
281.0000,2.980000
282.0000,2.950000
283.0000,2.910000
284.0000,2.890000
285.0000,2.870000
286.0000,2.840000
287.0000,2.820000
288.0000,2.800000
289.0000,2.770000
290.0000,2.749999
291.0000,2.730000
292.0000,2.710000
293.0000,2.690000
294.0000,2.660000
295.0000,2.640000
296.0000,2.620000
297.0000,2.600000
298.0000,2.580000
299.0000,2.560000
300.0000,2.540004
301.0000,2.520000
302.0000,2.500000
303.0000,2.480000
304.0000,2.460000
305.0000,2.440000
306.0000,2.420000
307.0000,2.400000
308.0000,2.390000
309.0000,2.370000
310.0000,2.349996
311.0000,2.330000
312.0000,2.300000
313.0000,2.270000
314.0000,2.240000
315.0000,2.210000
316.0000,2.180000
317.0000,2.160000
318.0000,2.120000
319.0000,2.080000
##END=
