##TITLE=1-Phenylcyclohexane
##JCAMP-DX=4.24
##DATA TYPE=UV/VIS SPECTRUM
##ORIGIN=INSTITUTE OF ENERGY PROBLEMS OF CHEMICAL PHYSICS, RAS
##OWNER=INEP CP RAS, NIST OSRD
Collection (C) 2007 copyright by the U.S. Secretary of Commerce
on behalf of the United States of America. All rights reserved.
##CAS REGISTRY NO=771-98-2
##MOLFORM=C12H14
##MP=-11
##BP=252
##SOURCE REFERENCE=RAS UV No. 6212
##$NIST SQUIB=1958EGO/KAP3284-3287
##$NIST SOURCE=TSGMTE
##SPECTROMETER/DATA SYSTEM=Spectrophotometer SF-4
##XUNITS=Wavelength (nm)
##YUNITS=Logarithm epsilon
##XFACTOR=1.000000
##YFACTOR=1.000000
##FIRSTX=225.2541
##LASTX=274.3372
##FIRSTY=2.15955
##MAXX=274.337
##MINX=225.254
##MAXY=2.4571
##MINY=2.10663
##NPOINTS=62
##$REF AUTHOR=Egorov, Iu.P.; Kaplan, E.P.; Letina, Z.I.; Shliapochnikov, V.A.; Petrov, A.D.
##$REF TITLE=On the order of addition of lithium to biphenyl
##$REF JOURNAL=Zh. Obshch. Khim.
##$REF VOLUME=28
##$REF PAGE=3284-3287
##$REF DATE=1958
##XYPOINTS=(XY..XY)
225.2541,2.159550
226.8811,2.132839
228.1239,2.117708
228.8041,2.106627
229.1128,2.106627
230.6800,2.115402
232.1262,2.125821
233.4648,2.137755
234.7095,2.151068
235.8736,2.165624
236.9707,2.181277
238.0145,2.197893
239.0182,2.215337
239.9956,2.233482
240.9601,2.252211
241.9252,2.271415
242.9045,2.290995
243.9114,2.310861
244.9595,2.330933
246.0624,2.351140
247.2335,2.371418
247.2335,2.371418
248.9767,2.378805
250.2073,2.388600
251.2053,2.401248
252.2507,2.417085
253.6235,2.436323
253.6235,2.436323
256.2566,2.447065
257.7871,2.452727
258.8024,2.455417
259.8901,2.457096
259.8901,2.457096
260.2297,2.457096
261.6828,2.435121
262.3059,2.410422
262.6067,2.368467
262.6067,2.368467
263.4263,2.353421
263.9629,2.331504
264.4448,2.304586
265.0999,2.274903
266.1567,2.245349
266.7741,2.240605
267.8695,2.266326
268.5302,2.294352
268.9388,2.322841
269.2780,2.350347
269.7303,2.375762
270.4785,2.398223
270.4785,2.398223
270.9106,2.398223
271.3428,2.398223
271.7750,2.398223
271.7750,2.398223
272.4112,2.374058
272.7435,2.339063
272.9080,2.297876
273.0407,2.256988
273.6672,2.212695
273.9988,2.177385
274.3372,2.138947
##END=
