##TITLE=3,4-Dimethoxyphenylacetone
##JCAMP-DX=4.24
##DATA TYPE=UV/VIS SPECTRUM
##ORIGIN=INSTITUTE OF ENERGY PROBLEMS OF CHEMICAL PHYSICS, RAS
##OWNER=INEP CP RAS, NIST OSRD
Collection (C) 2007 copyright by the U.S. Secretary of Commerce
on behalf of the United States of America. All rights reserved.
##CAS REGISTRY NO=776-99-8
##MOLFORM=C11H14O3
##BP=118/ 0.4 mm
##SOURCE REFERENCE=RAS UV No. 19102
##$NIST SQUIB=1968LAN123
##$NIST SOURCE=TYUGLMTE
##SPECTROMETER/DATA SYSTEM=Spektromom 201
##XUNITS=Wavelength (nm)
##YUNITS=Logarithm epsilon
##XFACTOR=1.0
##YFACTOR=1.0
##FIRSTX=204.89
##LASTX=337.85
##FIRSTY=4.366
##MAXX=337.85
##MINX=204.89
##MAXY=4.379
##MINY=0.956
##NPOINTS=179
##$REF AUTHOR=Lang (editor), L.
##$REF JOURNAL=Absorption Spectra in the Ultraviolet and Visible Region
##$REF VOLUME=11
##$REF PAGE=123
##$REF DATE=1968
##XYPOINTS=(XY..XY)
204.89,4.366
206.24,4.379
207.58,4.362
208.26,4.335
209.10,4.311
209.77,4.284
210.62,4.257
211.29,4.230
211.80,4.203
212.47,4.176
213.14,4.148
213.65,4.121
214.32,4.094
215.00,4.067
215.50,4.040
216.18,4.013
216.85,3.986
217.36,3.959
218.37,3.935
219.38,3.911
220.56,3.891
221.91,3.874
223.26,3.860
224.77,3.853
226.29,3.843
227.81,3.840
229.32,3.843
230.84,3.847
232.36,3.836
233.70,3.823
235.05,3.806
236.23,3.785
237.07,3.762
237.92,3.738
238.59,3.711
239.27,3.684
239.94,3.657
240.95,3.633
241.79,3.609
242.64,3.585
243.31,3.558
243.98,3.531
244.49,3.504
244.99,3.477
245.67,3.450
246.17,3.422
246.68,3.395
247.19,3.368
247.69,3.341
248.20,3.314
248.70,3.287
249.38,3.260
249.88,3.233
250.56,3.205
251.23,3.178
251.99,3.151
252.75,3.127
253.59,3.100
254.43,3.073
255.27,3.046
256.45,3.020
257.80,3.009
259.32,3.015
260.50,3.036
261.68,3.056
262.69,3.080
263.53,3.104
264.37,3.127
265.22,3.154
265.89,3.182
266.73,3.209
267.41,3.236
268.42,3.260
269.09,3.287
270.10,3.311
270.95,3.334
271.79,3.361
272.80,3.382
273.64,3.406
274.65,3.429
275.83,3.446
277.01,3.463
278.36,3.480
279.88,3.484
281.40,3.484
282.91,3.480
284.09,3.463
285.27,3.446
286.45,3.426
287.46,3.406
288.30,3.378
289.15,3.355
289.82,3.328
290.33,3.300
290.86,3.274
291.34,3.243
291.84,3.216
292.35,3.188
292.85,3.161
293.36,3.131
293.75,3.104
294.20,3.070
294.57,3.042
295.05,3.012
295.55,2.981
296.06,2.951
296.56,2.924
297.07,2.893
297.45,2.862
297.91,2.832
298.42,2.805
298.97,2.778
299.60,2.747
300.27,2.720
300.94,2.693
301.79,2.666
302.80,2.646
303.81,2.622
304.58,2.600
305.33,2.571
306.06,2.547
306.84,2.520
307.52,2.493
308.19,2.466
308.86,2.439
309.54,2.412
310.21,2.384
310.72,2.354
311.22,2.327
311.73,2.300
312.23,2.272
312.91,2.245
313.41,2.218
313.92,2.191
314.22,2.164
314.76,2.133
315.27,2.106
315.77,2.079
316.28,2.052
316.78,2.025
317.29,1.998
317.80,1.971
318.30,1.943
318.70,1.918
319.14,1.886
319.65,1.859
320.16,1.831
320.66,1.804
321.17,1.777
321.67,1.750
322.18,1.723
322.51,1.692
323.19,1.665
323.69,1.638
324.20,1.611
324.71,1.584
325.21,1.557
325.94,1.519
326.37,1.496
326.88,1.469
327.40,1.445
327.91,1.418
328.41,1.390
328.92,1.363
329.59,1.336
330.10,1.309
330.77,1.282
331.28,1.255
331.78,1.228
332.46,1.200
332.96,1.173
333.64,1.146
334.31,1.119
334.82,1.092
335.66,1.065
336.16,1.038
336.67,1.010
337.34,0.983
337.85,0.956
##END=
