##TITLE=1,3-Propanediol, 2-amino-2-(hydroxymethyl)-
##JCAMP-DX=4.24
##DATA TYPE=UV/VIS SPECTRUM
##ORIGIN=INSTITUTE OF ENERGY PROBLEMS OF CHEMICAL PHYSICS, RAS
##OWNER=INEP CP RAS, NIST OSRD
Collection (C) 2007 copyright by the U.S. Secretary of Commerce
on behalf of the United States of America. All rights reserved.
##CAS REGISTRY NO=77-86-1
##MOLFORM=C4H11NO3
##SOURCE REFERENCE=RAS UV No. 19878
##$NIST SQUIB=1971PARk2/4
##$NIST SOURCE=TYUGLMTE
##SPECTROMETER/DATA SYSTEM=Unicam SP 500
##XUNITS=Wavelength (nm)
##YUNITS=Logarithm epsilon
##XFACTOR=1.0
##YFACTOR=1.0
##FIRSTX=203.87
##LASTX=365.51
##FIRSTY=1.855
##MAXX=365.51
##MINX=203.87
##MAXY=1.855
##MINY=-1.553
##NPOINTS=171
##$REF AUTHOR=Parish, C.
##$REF JOURNAL=UV atlas of organic compounds
##$REF VOLUME=5
##$REF PAGE=K2/4
##$REF DATE=1971
##XYPOINTS=(XY..XY)
203.87,1.855
204.10,1.836
204.32,1.816
204.73,1.778
205.27,1.725
205.81,1.670
206.36,1.617
206.91,1.563
207.46,1.508
208.01,1.455
208.57,1.399
209.13,1.350
209.70,1.299
210.27,1.242
210.84,1.195
211.41,1.137
211.99,1.078
212.57,1.020
213.15,0.961
213.73,0.918
214.32,0.863
214.92,0.807
215.51,0.754
216.11,0.696
216.71,0.635
217.32,0.575
217.93,0.522
218.54,0.471
219.16,0.411
219.78,0.358
220.40,0.309
221.03,0.258
221.66,0.209
222.29,0.168
222.93,0.124
223.57,0.081
224.22,0.045
224.87,0.006
225.52,-0.034
226.17,-0.062
226.83,-0.094
227.50,-0.124
228.17,-0.151
228.84,-0.173
229.51,-0.200
230.19,-0.222
230.88,-0.245
231.57,-0.266
232.26,-0.290
232.95,-0.311
233.65,-0.332
234.36,-0.349
235.07,-0.371
235.78,-0.390
236.50,-0.407
237.22,-0.428
237.95,-0.445
238.68,-0.464
239.41,-0.483
240.15,-0.498
240.90,-0.515
241.64,-0.532
242.40,-0.547
243.16,-0.564
243.92,-0.579
244.69,-0.594
245.46,-0.607
246.24,-0.624
247.02,-0.637
247.81,-0.650
248.60,-0.665
249.40,-0.675
250.20,-0.688
251.01,-0.699
251.82,-0.709
252.64,-0.718
253.46,-0.728
254.29,-0.739
255.13,-0.748
255.97,-0.756
256.82,-0.760
257.67,-0.769
258.52,-0.775
259.39,-0.780
260.25,-0.788
261.13,-0.792
262.01,-0.799
262.90,-0.803
263.79,-0.809
264.69,-0.814
265.32,-0.821
266.12,-0.826
267.09,-0.834
268.33,-0.842
269.27,-0.848
270.28,-0.853
271.15,-0.856
272.10,-0.860
273.06,-0.867
274.02,-0.869
274.99,-0.873
275.96,-0.878
276.95,-0.880
277.94,-0.886
278.94,-0.888
279.94,-0.890
280.95,-0.895
281.97,-0.897
283.00,-0.899
284.03,-0.901
285.07,-0.905
286.12,-0.907
287.18,-0.909
288.25,-0.912
289.32,-0.914
290.40,-0.918
291.49,-0.918
292.59,-0.920
293.69,-0.924
294.81,-0.929
295.93,-0.931
297.06,-0.937
298.20,-0.941
299.35,-0.948
300.50,-0.950
301.67,-0.952
302.85,-0.958
304.03,-0.961
305.23,-0.965
306.43,-0.969
307.64,-0.973
308.86,-0.978
310.10,-0.982
311.34,-0.988
312.59,-0.990
313.85,-0.997
315.13,-1.003
316.41,-1.007
317.70,-1.012
319.01,-1.020
320.32,-1.029
321.65,-1.035
322.98,-1.044
324.33,-1.052
325.69,-1.063
327.06,-1.076
328.44,-1.086
329.84,-1.101
331.24,-1.116
332.66,-1.133
334.09,-1.148
335.53,-1.163
336.99,-1.182
338.45,-1.195
339.93,-1.214
341.43,-1.235
342.93,-1.257
344.45,-1.278
345.99,-1.299
347.53,-1.325
349.10,-1.346
350.67,-1.367
352.26,-1.391
353.86,-1.419
355.48,-1.440
357.12,-1.461
358.76,-1.480
360.43,-1.502
362.11,-1.519
363.80,-1.534
365.51,-1.553
##END=
