##TITLE=Anthracene, 9-methyl-
##JCAMP-DX=4.24
##DATA TYPE=UV/VIS SPECTRUM
##ORIGIN=INSTITUTE OF ENERGY PROBLEMS OF CHEMICAL PHYSICS, RAS
##OWNER=INEP CP RAS, NIST OSRD
Collection (C) 2007 copyright by the U.S. Secretary of Commerce
on behalf of the United States of America. All rights reserved.
##CAS REGISTRY NO=779-02-2
##MOLFORM=C15H12
##MP=81.5
##BP=196-7(12)
##SOURCE REFERENCE=RAS UV No. 697
##$NIST SQUIB=1949CLA495-514
##$NIST SOURCE=TSGMTE
##SPECTROMETER/DATA SYSTEM=n.i.g.
##XUNITS=Wavelength (nm)
##YUNITS=Logarithm epsilon
##XFACTOR=1.000000
##YFACTOR=1.000000
##FIRSTX=230.4454
##LASTX=396.6855
##FIRSTY=4.34839
##MAXX=396.685
##MINX=230.445
##MAXY=5.36131
##MINY=2.10531
##NPOINTS=332
##$REF AUTHOR=Clar, E.
##$REF TITLE=Das anellierungsprinzip und die resonanz in aromatischen kohlenwasserstoffen (aromatische kohlenwasserstoffe, LIV. Mitteil)
##$REF JOURNAL=Chem. Ber.
##$REF VOLUME=82
##$REF NUMBER=6
##$REF PAGE=495-514
##$REF DATE=1949
##XYPOINTS=(XY..XY)
230.4454,4.348385
232.1647,4.397071
233.7168,4.445092
235.1123,4.492720
236.3616,4.540230
237.4756,4.587897
238.4647,4.635994
239.3396,4.684796
240.1108,4.734576
240.1108,4.734576
240.5509,4.784544
240.9925,4.834441
241.4371,4.884280
241.8859,4.934076
242.3406,4.983845
242.8024,5.033599
242.8024,5.033599
243.3057,5.038022
243.9721,5.039700
245.3728,5.040071
245.3728,5.040071
246.1551,5.030830
246.9373,5.021588
247.7196,5.012347
249.4588,5.025466
249.7657,5.072288
250.0737,5.119056
250.3834,5.165778
250.6959,5.212464
251.0120,5.259124
251.3327,5.305766
251.6587,5.352399
251.6587,5.352399
252.0164,5.355523
252.3741,5.358531
252.7321,5.361309
252.7321,5.361309
253.0062,5.360148
253.3035,5.358759
253.6123,5.357255
253.6123,5.357255
253.7144,5.350551
253.8060,5.343166
253.8947,5.333256
253.9883,5.318978
254.0945,5.298488
254.2210,5.269943
254.3757,5.231498
254.5662,5.181310
254.8004,5.117534
255.0858,5.038328
255.4303,4.941848
255.8416,4.826249
255.8416,4.826249
256.7448,4.782374
257.4688,4.738858
258.0341,4.695564
258.4613,4.652356
258.7710,4.609100
258.9837,4.565658
259.1202,4.521896
259.2008,4.477678
259.2462,4.432868
259.2771,4.387330
259.3139,4.340930
259.3139,4.340930
259.5282,4.296799
259.7346,4.250324
259.9334,4.201877
260.1249,4.151830
260.3092,4.100555
260.4867,4.048425
260.6577,3.995811
260.8225,3.943085
260.9812,3.890619
261.1341,3.838785
261.2816,3.787956
261.4239,3.738504
261.5613,3.690799
261.6940,3.645214
261.8223,3.602122
261.9464,3.561894
262.0667,3.524903
262.1835,3.491520
262.2968,3.462117
262.4072,3.437067
262.5147,3.416741
262.6197,3.401512
262.6197,3.401512
263.2807,3.393389
264.0183,3.377221
265.4649,3.339147
265.4649,3.339147
266.0476,3.264677
266.5174,3.205178
266.9058,3.157152
267.2443,3.117099
267.5643,3.081518
267.8975,3.046910
268.2750,3.009775
268.7286,2.966613
269.2896,2.913926
269.2896,2.913926
270.2685,2.868938
271.3531,2.824591
272.5675,2.780792
273.9362,2.737445
275.4832,2.694456
277.2329,2.651729
279.2096,2.609171
281.4374,2.566688
281.4374,2.566688
284.0083,2.536244
286.6023,2.505573
289.2080,2.474787
289.2080,2.474787
291.1890,2.476962
292.0825,2.478796
292.6539,2.481865
292.6539,2.481865
294.4532,2.528645
296.1543,2.581973
297.8165,2.628394
297.8165,2.628394
298.6358,2.631756
300.3046,2.633132
304.2534,2.633701
304.2534,2.633701
304.8044,2.649654
305.3557,2.665376
305.9071,2.680984
305.9071,2.680984
306.1878,2.725126
306.4686,2.769264
306.7493,2.813396
307.0301,2.857519
307.3109,2.901630
307.5917,2.945725
307.8725,2.989801
308.1533,3.033856
308.4342,3.077886
308.7151,3.121887
308.7151,3.121887
309.4442,3.133371
309.5050,3.156657
309.5050,3.156657
309.5667,3.144563
312.5584,3.170829
315.7923,3.164653
319.3524,3.152987
319.3524,3.152987
319.7080,3.158200
320.0635,3.163414
320.4191,3.168627
320.4191,3.168627
321.3204,3.216869
322.2259,3.265105
323.1351,3.313330
324.0473,3.361537
324.9620,3.409720
325.8785,3.457872
326.7962,3.505988
327.7145,3.554062
327.7145,3.554062
328.1263,3.556539
328.5497,3.558787
328.9962,3.560922
328.9962,3.560922
331.6524,3.531082
334.4587,3.476979
336.6487,3.432249
336.6487,3.432249
337.1278,3.432297
337.6298,3.432347
338.1432,3.432399
338.1432,3.432399
339.3232,3.465242
340.3034,3.508654
341.0748,3.558892
341.4145,3.770313
341.4186,3.766152
341.4229,3.761876
341.4273,3.757370
341.6286,3.612214
341.8953,3.753275
341.8953,3.753275
341.9559,3.664880
342.0478,3.713147
342.1548,3.753301
342.4258,3.753328
342.7198,3.753358
342.7198,3.753358
342.9620,3.795743
343.9529,3.833831
346.9006,3.850600
346.9006,3.850600
348.2738,3.819154
349.6584,3.787710
351.0660,3.756267
351.0660,3.756267
351.7641,3.707004
352.4684,3.641722
353.1709,3.578382
353.8632,3.534943
353.8632,3.534943
354.2779,3.534448
354.7041,3.533839
355.1535,3.533002
355.1535,3.533002
356.2797,3.583806
356.9577,3.635014
357.3462,3.686216
357.6040,3.737009
357.8899,3.786983
357.8899,3.786983
359.9763,3.836582
361.4297,3.881976
362.3838,3.925679
362.9720,3.970209
363.3278,4.018081
363.5848,4.071811
363.5848,4.071811
363.9159,4.090023
364.1877,4.098910
364.6329,4.106089
364.6329,4.106089
365.0471,4.106130
365.4727,4.106173
365.9212,4.106218
365.9212,4.106218
367.3462,4.057189
368.2179,4.005872
368.7914,3.953166
369.3219,3.899970
369.3219,3.899970
369.8139,3.781635
370.2316,3.681425
370.5825,3.597785
370.8738,3.529160
371.1133,3.473996
371.3082,3.430737
371.4661,3.397830
371.5944,3.373719
371.7005,3.356850
371.7920,3.345668
371.8763,3.338619
371.9609,3.334147
372.0531,3.330699
372.0531,3.330699
372.7015,3.329459
373.1418,3.330041
373.7516,3.332940
373.7516,3.332940
374.7405,3.376741
375.6404,3.420403
376.4666,3.463950
377.2349,3.507407
377.9608,3.550799
378.6597,3.594151
379.3473,3.637488
380.0390,3.680834
380.7505,3.724216
381.4972,3.767656
382.2947,3.811182
382.2947,3.811182
383.0129,3.872983
383.5994,3.934772
384.0728,3.992320
384.4515,4.041403
384.7541,4.077792
384.9991,4.097262
384.9991,4.097262
385.4132,4.097303
385.8389,4.097346
386.2874,4.097391
386.2874,4.097391
386.7263,4.072563
387.1768,4.047621
387.6504,4.022452
387.6504,4.022452
387.7723,4.002573
387.8896,3.983418
388.0027,3.964886
388.1122,3.946872
388.2186,3.929274
388.3224,3.911989
388.4239,3.894914
388.5238,3.877946
388.6225,3.860982
388.7204,3.843918
388.8182,3.826654
388.9161,3.809085
389.0148,3.791108
389.1147,3.772620
389.2163,3.753520
389.3200,3.733702
389.4265,3.713065
389.5361,3.691506
389.6493,3.668922
389.7666,3.645210
389.8885,3.620266
390.0156,3.593988
390.1481,3.566274
390.2867,3.537019
390.4319,3.506122
390.5841,3.473478
390.7437,3.438987
390.9114,3.402543
391.0875,3.364045
391.2726,3.323390
391.4671,3.280474
391.6715,3.235194
391.8863,3.187449
392.1120,3.137134
392.3491,3.084146
392.5980,3.028384
392.8592,2.969744
393.1333,2.908123
393.3180,3.040296
393.3684,3.043388
393.4207,2.843418
393.4303,3.046367
393.5154,3.049117
393.7219,2.775526
394.0373,2.704344
394.3675,2.629769
394.7129,2.551699
395.0741,2.470030
395.4514,2.384660
395.8454,2.295486
396.2566,2.202404
396.6855,2.105311
##END=
