##TITLE=2-Hydroxybenzaldehyde N-phenylimine
##JCAMP-DX=4.24
##DATA TYPE=UV/VIS SPECTRUM
##ORIGIN=INSTITUTE OF ENERGY PROBLEMS OF CHEMICAL PHYSICS, RAS
##OWNER=INEP CP RAS, NIST OSRD
Collection (C) 2007 copyright by the U.S. Secretary of Commerce
on behalf of the United States of America. All rights reserved.
##CAS REGISTRY NO=779-84-0
##MOLFORM=C13H11NO
##SOURCE REFERENCE=RAS UV No. 15961
##$NIST SQUIB=1971BIR/KUL1203
##$NIST SOURCE=TYUGLMTE
##SPECTROMETER/DATA SYSTEM=Hilger Uvispeck H-700
##XUNITS=Wavelength (nm)
##YUNITS=Logarithm epsilon
##XFACTOR=1.0
##YFACTOR=1.0
##FIRSTX=212.11
##LASTX=400.42
##FIRSTY=2.747
##MAXX=400.42
##MINX=212.11
##MAXY=3.394
##MINY=2.385
##NPOINTS=105
##$REF AUTHOR=Biradar, N.S.; Kulkarni, V.H.
##$REF JOURNAL=Revue Roumaine Chim.
##$REF VOLUME=16
##$REF PAGE=1203
##$REF DATE=1971
##XYPOINTS=(XY..XY)
212.11,2.747
212.66,2.750
213.21,2.753
213.77,2.756
214.32,2.758
214.87,2.761
215.42,2.764
215.97,2.767
216.52,2.770
217.07,2.773
218.72,2.790
220.37,2.807
222.02,2.824
223.68,2.838
225.33,2.850
226.98,2.875
228.63,2.878
230.28,2.893
231.94,2.910
233.59,2.912
235.24,2.924
238.54,2.938
240.20,2.950
243.50,2.970
245.15,2.972
246.80,2.984
250.11,2.998
251.76,3.001
253.41,3.007
255.06,3.009
256.71,3.012
258.37,3.012
260.02,3.015
263.32,3.032
264.97,3.061
266.62,3.115
268.28,3.175
269.93,3.181
271.58,3.206
273.23,3.223
274.88,3.246
276.54,3.278
279.84,3.320
281.49,3.326
283.14,3.329
286.45,3.340
288.10,3.340
289.75,3.340
291.40,3.352
294.71,3.357
296.36,3.366
298.01,3.369
301.31,3.380
302.97,3.383
304.62,3.386
307.92,3.394
309.57,3.394
311.22,3.389
312.88,3.389
314.53,3.377
316.18,3.369
317.83,3.363
321.14,3.352
322.79,3.349
324.44,3.352
326.09,3.352
329.40,3.355
331.05,3.357
332.70,3.363
336.00,3.366
337.65,3.369
339.31,3.369
342.61,3.369
344.26,3.366
345.91,3.366
349.22,3.357
350.87,3.355
352.52,3.355
355.82,3.349
357.48,3.343
359.13,3.337
360.78,3.323
362.43,3.309
364.08,3.283
365.74,3.269
367.39,3.252
369.04,3.240
370.69,3.238
372.34,3.223
374.00,3.220
375.65,3.215
378.95,3.192
380.60,3.138
382.25,3.052
383.91,2.972
385.56,2.915
387.21,2.830
388.86,2.744
390.51,2.681
392.17,2.630
393.82,2.579
395.47,2.536
397.12,2.450
398.77,2.385
400.42,2.388
##END=
