##TITLE=Aniline, N-benzylidene-p-chloro-,
##JCAMP-DX=4.24
##DATA TYPE=UV/VIS SPECTRUM
##ORIGIN=INSTITUTE OF ENERGY PROBLEMS OF CHEMICAL PHYSICS, RAS
##OWNER=INEP CP RAS, NIST OSRD
Collection (C) 2007 copyright by the U.S. Secretary of Commerce
on behalf of the United States of America. All rights reserved.
##CAS REGISTRY NO=780-21-2
##MOLFORM=C13H10ClN
##SOURCE REFERENCE=RAS UV No. 1877
##$NIST SQUIB=1960EBA534-539
##$NIST SOURCE=TSGMTE
##SPECTROMETER/DATA SYSTEM=Cary 14M
##XUNITS=Wavelength (nm)
##YUNITS=Logarithm epsilon
##XFACTOR=1.000000
##YFACTOR=1.000000
##FIRSTX=212.0350
##LASTX=349.4308
##FIRSTY=4.28475
##MAXX=349.431
##MINX=212.035
##MAXY=4.28475
##MINY=3.35793
##NPOINTS=236
##$REF AUTHOR=Ebara, N.
##$REF TITLE=Benzylideneaniline. I. Structure and ultraviolet absorption spectrum of benzylideneaniline
##$REF JOURNAL=Bull. Chem. Soc. Jpn.
##$REF VOLUME=33
##$REF NUMBER=4
##$REF PAGE=534-539
##$REF DATE=1960
##XYPOINTS=(XY..XY)
212.0350,4.284749
212.3132,4.282546
212.6004,4.280332
212.8921,4.278107
213.5467,4.271250
214.5037,4.261530
215.1485,4.254414
215.7369,4.249120
216.6182,4.240783
217.1192,4.234301
217.7061,4.227611
218.1687,4.220280
218.8194,4.213637
218.9261,4.212006
219.0329,4.210344
219.1399,4.208627
219.9180,4.200019
219.9868,4.197738
220.0603,4.195395
220.1428,4.193014
221.0167,4.185960
221.1529,4.183173
221.2982,4.180343
221.4482,4.177443
221.8961,4.170084
221.9899,4.167840
222.1299,4.166723
222.4362,4.165783
222.4362,4.165783
222.6949,4.160543
222.9536,4.155212
223.2125,4.149758
223.8870,4.140649
224.2496,4.134454
224.6168,4.128140
224.9931,4.121674
226.0718,4.104638
226.2540,4.099122
226.4454,4.093473
226.6414,4.087717
227.8564,4.071708
228.0689,4.067897
228.2861,4.063985
228.5124,4.060004
229.6022,4.044513
229.8179,4.039034
230.0381,4.033450
230.2675,4.027719
230.7193,4.015408
230.9326,4.010720
231.1505,4.005903
231.3775,4.000995
232.8726,3.993877
232.8775,3.991340
232.8825,3.988788
232.8875,3.986222
232.8875,3.986222
233.1967,3.984058
233.5104,3.981885
233.8332,3.979702
234.2609,3.978836
234.3617,3.979545
234.4672,3.980170
234.5818,3.980754
236.4385,3.996234
236.6072,3.996027
236.7851,3.995741
236.9676,3.995416
239.1619,4.003956
239.5445,4.010923
240.4495,4.013733
241.4516,4.015280
242.9286,4.017215
243.4784,4.019126
244.0374,4.020953
244.6009,4.022736
246.0648,4.030822
246.1232,4.032316
246.1862,4.033768
246.2584,4.035144
248.0119,4.049610
248.9447,4.063057
249.7313,4.076878
250.5547,4.089987
251.6795,4.102686
252.3878,4.112222
253.1107,4.121135
253.6157,4.130431
254.4416,4.140051
254.9771,4.146370
255.4294,4.150130
256.1862,4.154584
256.1862,4.154584
256.6435,4.164871
257.6233,4.172026
258.4227,4.180617
258.4227,4.180617
259.1241,4.185687
259.7897,4.189161
260.8234,4.191652
260.8234,4.191652
261.1504,4.196903
261.5689,4.200257
262.2653,4.204107
263.8014,4.212197
264.3917,4.213422
264.9913,4.214595
265.5954,4.215741
267.4776,4.217108
268.0396,4.215757
268.5396,4.214057
269.4061,4.210537
270.8958,4.201476
271.2474,4.199597
271.6035,4.197685
271.9689,4.195715
273.4789,4.186338
273.5792,4.184475
273.7738,4.182769
274.2292,4.179750
275.8459,4.168218
276.0209,4.165932
276.2050,4.163635
276.3935,4.161326
277.3779,4.150481
277.6305,4.147220
277.8831,4.143934
278.1358,4.140623
279.3398,4.130588
279.5518,4.127435
279.7684,4.124259
279.9940,4.121061
281.4947,4.105591
282.6909,4.092381
284.0758,4.079045
285.6098,4.065135
285.6098,4.065135
285.8113,4.060175
286.2076,4.054765
287.1383,4.044133
288.6241,4.032597
288.9954,4.031135
289.3184,4.029069
289.6897,4.027596
289.6897,4.027596
289.6922,4.026424
289.6947,4.025249
289.6972,4.024071
290.3149,4.029355
290.6035,4.027176
290.8923,4.024912
291.1812,4.022599
293.5448,3.997717
293.9331,3.996288
294.3215,3.994775
294.7100,3.993216
297.1605,3.985015
297.2623,3.984792
297.3643,3.984487
297.4664,3.984141
300.1158,3.977864
300.5666,3.977861
300.7885,3.977362
300.9715,3.975936
303.5009,3.968563
303.8129,3.967648
304.1341,3.966691
304.4598,3.965646
307.1202,3.952985
307.5073,3.952057
307.8944,3.951128
308.2815,3.950196
311.3646,3.938994
312.1857,3.936893
312.5140,3.935614
312.6309,3.934063
314.5650,3.917936
314.6932,3.917681
314.8305,3.917331
314.9724,3.916934
317.7416,3.898059
318.0285,3.896242
318.3155,3.894316
318.6027,3.892330
320.7361,3.876955
320.9414,3.875813
321.1512,3.874669
321.3701,3.873523
323.5035,3.857455
323.8942,3.853803
324.2849,3.850064
324.6758,3.846179
326.4847,3.828972
326.8350,3.825525
327.1899,3.821933
327.5539,3.818253
329.0529,3.804300
329.1529,3.805431
329.2530,3.806497
329.3532,3.807437
329.3532,3.807437
329.4243,3.804110
329.5044,3.800759
329.5891,3.797384
331.6321,3.768839
332.0509,3.762748
332.4789,3.756434
332.9115,3.749957
334.4179,3.726619
334.8100,3.720334
335.2021,3.713956
335.5942,3.707482
336.9733,3.687527
337.1181,3.684623
337.2630,3.681616
337.4081,3.678422
339.3496,3.640444
339.7734,3.626382
340.2064,3.611659
340.6440,3.596322
340.6440,3.596322
341.6254,3.579653
342.0695,3.569624
342.3568,3.557869
342.3568,3.557869
342.4988,3.557930
342.6407,3.557990
342.7827,3.558050
342.7827,3.558050
344.0415,3.525222
345.4657,3.492092
346.6466,3.447700
347.9282,3.402954
348.4229,3.388724
348.9223,3.373679
349.4308,3.357928
##END=
