##TITLE=Benzenamine, N-[(4-nitrophenyl)methylene]-
##JCAMP-DX=4.24
##DATA TYPE=UV/VIS SPECTRUM
##ORIGIN=INSTITUTE OF ENERGY PROBLEMS OF CHEMICAL PHYSICS, RAS
##OWNER=INEP CP RAS, NIST OSRD
Collection (C) 2007 copyright by the U.S. Secretary of Commerce
on behalf of the United States of America. All rights reserved.
##CAS REGISTRY NO=785-80-8
##MOLFORM=C13H10N2O2
##MP=117-118
##SOURCE REFERENCE=RAS UV No. 23489
##$NIST SQUIB=1975SKR/800
##$NIST SOURCE=TYUGLMTE
##SPECTROMETER/DATA SYSTEM=Beckman Acta II
##XUNITS=Wavelength (nm)
##YUNITS=Logarithm epsilon
##XFACTOR=1.0
##YFACTOR=1.0
##FIRSTX=220.353
##LASTX=393.202
##FIRSTY=4.215
##MAXX=393.202
##MINX=220.353
##MAXY=4.25
##MINY=2.589
##NPOINTS=83
##$REF AUTHOR=Skrabal, P.; et al.
##$REF JOURNAL=Helv. Chim. Acta
##$REF VOLUME=58
##$REF PAGE=800
##$REF DATE=1975
##XYPOINTS=(XY..XY)
220.353,4.215
221.574,4.211
222.808,4.205
224.056,4.195
225.318,4.181
226.595,4.163
227.886,4.139
229.191,4.110
230.512,4.075
231.848,4.035
233.200,3.991
234.567,3.943
235.951,3.896
236.033,3.899
237.434,3.866
238.852,3.838
240.286,3.816
241.739,3.802
243.208,3.797
244.696,3.798
246.202,3.807
247.727,3.822
249.271,3.841
250.834,3.864
252.310,3.887
253.911,3.910
255.533,3.933
257.176,3.955
258.840,3.976
260.526,3.997
262.234,4.017
263.965,4.036
265.718,4.055
267.495,4.074
269.296,4.091
271.121,4.107
272.971,4.122
274.779,4.136
276.680,4.151
278.607,4.167
280.561,4.184
282.543,4.203
282.570,4.204
284.580,4.222
286.619,4.235
288.688,4.244
290.787,4.249
292.916,4.250
295.077,4.249
297.270,4.246
299.496,4.240
301.755,4.228
303.789,4.220
306.114,4.212
308.474,4.205
310.872,4.201
313.307,4.198
315.780,4.197
318.293,4.196
320.846,4.194
323.440,4.191
326.077,4.184
328.757,4.171
331.482,4.151
334.164,4.133
336.979,4.110
339.842,4.083
342.754,4.050
345.716,4.010
348.730,3.962
351.797,3.904
354.919,3.834
358.010,3.776
361.243,3.705
364.535,3.618
367.888,3.513
371.303,3.391
374.782,3.258
378.327,3.125
381.939,3.004
385.621,2.891
389.375,2.766
393.202,2.589
##END=
