##TITLE=Propanamide
##JCAMP-DX=4.24
##DATA TYPE=UV/VIS SPECTRUM
##ORIGIN=INSTITUTE OF ENERGY PROBLEMS OF CHEMICAL PHYSICS, RAS
##OWNER=INEP CP RAS, NIST OSRD
Collection (C) 2007 copyright by the U.S. Secretary of Commerce
on behalf of the United States of America. All rights reserved.
##CAS REGISTRY NO=79-05-0
##MOLFORM=C3H7NO
##MP=78-79
##SOURCE REFERENCE=RAS UV No. 19952
##$NIST SQUIB=1966JOHb10/1
##$NIST SOURCE=TYUGLMTE
##SPECTROMETER/DATA SYSTEM=Unicam SP 500
##XUNITS=Wavelength (nm)
##YUNITS=Logarithm epsilon
##XFACTOR=1.0
##YFACTOR=1.0
##FIRSTX=191.67
##LASTX=241.7
##FIRSTY=3.623
##MAXX=241.7
##MINX=191.67
##MAXY=3.623
##MINY=0.058
##NPOINTS=138
##$REF AUTHOR=Johnson, E.A.
##$REF JOURNAL=UV atlas of organic compouds
##$REF VOLUME=1
##$REF PAGE=B10/1
##$REF DATE=1966
##XYPOINTS=(XY..XY)
191.67,3.623
191.75,3.619
191.83,3.616
191.91,3.612
191.99,3.608
192.07,3.604
192.15,3.599
192.23,3.595
192.31,3.591
192.38,3.587
192.46,3.582
192.54,3.578
192.62,3.574
192.70,3.569
192.78,3.567
192.94,3.561
193.26,3.539
193.58,3.518
193.90,3.492
194.23,3.471
194.55,3.447
194.87,3.419
195.20,3.394
195.53,3.364
195.86,3.334
196.19,3.306
196.52,3.282
196.85,3.250
197.18,3.218
197.51,3.184
197.85,3.149
198.18,3.115
198.52,3.077
198.86,3.040
199.20,3.002
199.54,2.965
199.88,2.922
200.22,2.884
200.57,2.841
200.91,2.802
201.26,2.764
201.61,2.725
201.96,2.689
202.31,2.650
202.66,2.618
203.01,2.584
203.37,2.552
203.72,2.522
204.08,2.490
204.43,2.462
204.79,2.432
205.15,2.406
205.51,2.380
205.88,2.357
206.24,2.337
206.61,2.316
206.97,2.297
207.34,2.275
207.71,2.256
208.08,2.241
208.45,2.224
208.82,2.211
209.20,2.196
209.57,2.183
209.95,2.166
210.33,2.155
210.71,2.145
211.09,2.132
211.47,2.121
211.86,2.108
212.24,2.093
212.63,2.082
213.02,2.070
213.41,2.052
213.80,2.042
214.19,2.027
214.58,2.012
214.98,1.999
215.38,1.980
215.78,1.960
216.17,1.948
216.58,1.928
216.98,1.915
217.38,1.896
217.79,1.877
218.20,1.858
218.60,1.843
219.02,1.823
219.43,1.804
219.84,1.783
220.26,1.763
220.67,1.742
221.09,1.723
221.51,1.699
221.93,1.684
222.35,1.652
222.78,1.633
223.20,1.609
223.63,1.583
224.06,1.558
224.49,1.532
224.93,1.506
225.36,1.478
225.80,1.453
226.23,1.420
226.67,1.393
227.11,1.363
227.56,1.328
228.00,1.294
228.45,1.262
228.90,1.230
229.35,1.198
229.80,1.161
230.25,1.127
230.71,1.088
231.16,1.050
231.62,1.011
232.08,0.966
232.55,0.923
233.01,0.883
233.48,0.840
233.94,0.797
234.41,0.758
234.89,0.716
235.36,0.668
235.84,0.623
236.31,0.572
236.79,0.521
237.27,0.478
237.76,0.428
238.24,0.396
238.73,0.349
239.22,0.300
239.71,0.255
240.20,0.206
240.70,0.161
241.20,0.109
241.70,0.058
##END=
