##TITLE=Trichloroethylene
##JCAMP-DX=4.24
##DATA TYPE=UV/VIS SPECTRUM
##ORIGIN=INSTITUTE OF ENERGY PROBLEMS OF CHEMICAL PHYSICS, RAS
##OWNER=INEP CP RAS, NIST OSRD
Collection (C) 2007 copyright by the U.S. Secretary of Commerce
on behalf of the United States of America. All rights reserved.
##CAS REGISTRY NO=79-01-6
##MOLFORM=C2HCl3
##BP=87
##SOURCE REFERENCE=RAS UV No. 19916
##$NIST SQUIB=1966PER/BRAa1/6
##$NIST SOURCE=TYUGLMTE
##SPECTROMETER/DATA SYSTEM=Zeiss PMQ II
##XUNITS=Wavelength (nm)
##YUNITS=Logarithm epsilon
##XFACTOR=1.0
##YFACTOR=1.0
##FIRSTX=185
##LASTX=252.57
##FIRSTY=3.546
##MAXX=252.57
##MINX=185
##MAXY=4.036
##MINY=1.315
##NPOINTS=231
##$REF AUTHOR=Perkampus, H.-H.; Braunsweig, T.H.
##$REF JOURNAL=UV atlas of organic compounds
##$REF VOLUME=1
##$REF PAGE=A1/6
##$REF DATE=1966
##XYPOINTS=(XY..XY)
185.00,3.546
185.08,3.548
185.15,3.550
185.22,3.552
185.30,3.554
185.37,3.556
185.45,3.558
185.52,3.558
185.59,3.560
185.67,3.562
185.89,3.569
186.11,3.577
186.34,3.587
186.56,3.596
186.79,3.606
187.01,3.614
187.24,3.623
187.47,3.631
187.69,3.639
187.92,3.650
188.15,3.658
188.38,3.669
188.61,3.679
188.84,3.690
189.07,3.698
189.30,3.706
189.53,3.719
189.76,3.727
190.00,3.740
190.23,3.748
190.46,3.761
190.70,3.769
190.93,3.781
191.17,3.788
191.40,3.800
191.64,3.811
191.88,3.821
192.12,3.829
192.35,3.840
192.59,3.850
192.83,3.861
193.07,3.871
193.31,3.882
193.56,3.892
193.80,3.900
194.04,3.911
194.28,3.921
194.53,3.930
194.77,3.938
195.02,3.948
195.26,3.952
195.51,3.961
195.76,3.969
196.01,3.978
196.25,3.982
196.50,3.990
196.75,3.998
197.00,4.003
197.25,4.009
197.51,4.013
197.76,4.019
198.01,4.021
198.26,4.021
198.52,4.021
198.77,4.023
199.03,4.028
199.28,4.030
199.54,4.030
199.80,4.032
200.06,4.034
200.31,4.034
200.57,4.036
200.86,4.034
201.10,4.032
201.32,4.028
201.60,4.025
201.88,4.019
202.14,4.011
202.41,4.003
202.68,3.997
202.94,3.992
203.20,3.988
203.47,3.982
203.74,3.980
204.01,3.973
204.28,3.971
204.55,3.969
204.82,3.963
205.09,3.961
205.36,3.961
205.63,3.959
205.91,3.957
206.18,3.952
206.45,3.950
206.73,3.948
207.01,3.942
207.28,3.940
207.56,3.938
207.84,3.932
208.12,3.930
208.40,3.925
208.68,3.919
208.96,3.917
209.24,3.911
209.53,3.909
209.81,3.900
210.10,3.898
210.38,3.892
210.67,3.888
210.95,3.882
211.24,3.877
211.53,3.869
211.82,3.865
212.11,3.859
212.40,3.850
212.69,3.846
212.98,3.840
213.28,3.827
213.57,3.823
213.87,3.817
214.16,3.806
214.46,3.800
214.76,3.794
215.05,3.786
215.35,3.777
215.65,3.767
215.95,3.763
216.25,3.754
216.56,3.744
216.86,3.735
217.16,3.725
217.47,3.717
217.77,3.706
218.06,3.697
218.39,3.685
218.70,3.675
219.01,3.669
219.32,3.660
219.63,3.652
219.94,3.644
220.25,3.635
220.60,3.628
220.88,3.621
221.20,3.612
221.51,3.604
221.86,3.596
222.15,3.585
222.47,3.575
222.76,3.566
223.11,3.552
223.43,3.541
223.75,3.531
224.06,3.518
224.40,3.504
224.73,3.491
225.05,3.481
225.38,3.468
225.71,3.454
226.04,3.441
226.36,3.428
226.70,3.413
227.03,3.400
227.36,3.383
227.70,3.368
228.05,3.353
228.37,3.337
228.71,3.320
229.05,3.299
229.38,3.283
229.72,3.262
230.07,3.249
230.41,3.228
230.75,3.210
231.10,3.189
231.44,3.160
231.79,3.137
232.13,3.116
232.48,3.093
232.83,3.070
233.18,3.041
233.53,3.020
233.89,2.997
234.24,2.970
234.60,2.947
234.95,2.917
235.31,2.890
235.67,2.859
236.03,2.830
236.39,2.803
236.75,2.776
237.11,2.748
237.47,2.717
237.84,2.686
238.20,2.648
238.57,2.619
238.94,2.588
239.31,2.554
239.68,2.529
240.05,2.504
240.42,2.471
240.79,2.440
241.17,2.408
241.55,2.377
241.92,2.344
242.30,2.306
242.68,2.275
243.06,2.233
243.44,2.198
243.83,2.164
244.21,2.114
244.60,2.077
244.98,2.041
245.37,2.001
245.76,1.966
246.15,1.924
246.52,1.886
246.96,1.844
247.34,1.806
247.72,1.772
248.09,1.744
248.63,1.694
248.94,1.667
249.41,1.627
249.73,1.600
250.17,1.560
250.53,1.524
250.94,1.486
251.34,1.446
251.75,1.403
252.16,1.363
252.57,1.315
##END=
