##TITLE=Triphenylphosphine oxide
##JCAMP-DX=4.24
##DATA TYPE=UV/VIS SPECTRUM
##ORIGIN=INSTITUTE OF ENERGY PROBLEMS OF CHEMICAL PHYSICS, RAS
##OWNER=INEP CP RAS, NIST OSRD
Collection (C) 2007 copyright by the U.S. Secretary of Commerce
on behalf of the United States of America. All rights reserved.
##CAS REGISTRY NO=791-28-6
##MOLFORM=C18H15OP
##MP=153
##SOURCE REFERENCE=RAS UV No. 19639
##$NIST SQUIB=1965LAN189
##$NIST SOURCE=TYUGLMTE
##SPECTROMETER/DATA SYSTEM=Zeiss PMQ II
##XUNITS=Wavelength (nm)
##YUNITS=Logarithm epsilon
##XFACTOR=1.0
##YFACTOR=1.0
##FIRSTX=202.03
##LASTX=343.07
##FIRSTY=4.539
##MAXX=343.07
##MINX=202.03
##MAXY=4.539
##MINY=0.709
##NPOINTS=186
##$REF AUTHOR=Lang (editor), L.
##$REF JOURNAL=Absorption Spectra in the Ultraviolet and Visible Region
##$REF VOLUME=5
##$REF PAGE=189
##$REF DATE=1965
##XYPOINTS=(XY..XY)
202.03,4.539
202.52,4.527
202.87,4.515
203.72,4.498
204.57,4.481
205.41,4.464
206.26,4.444
207.10,4.420
207.95,4.399
208.79,4.372
209.64,4.341
210.48,4.321
211.33,4.304
212.18,4.287
213.02,4.270
213.87,4.256
214.71,4.249
215.56,4.235
216.40,4.235
217.25,4.235
218.09,4.239
218.94,4.246
219.79,4.252
220.63,4.259
221.48,4.270
222.32,4.270
223.17,4.273
224.01,4.280
224.86,4.280
225.70,4.283
226.55,4.287
227.40,4.283
228.24,4.270
229.09,4.249
229.93,4.222
230.78,4.191
231.62,4.147
232.47,4.089
233.31,4.024
234.16,3.952
235.01,3.904
235.85,3.839
236.70,3.751
237.54,3.652
238.39,3.542
239.23,3.389
240.08,3.228
240.92,3.140
241.77,3.058
242.62,3.007
243.46,2.969
244.31,2.942
245.15,2.921
246.00,2.911
246.84,2.901
247.69,2.904
248.53,2.918
249.38,2.931
250.23,2.949
251.07,2.962
251.92,2.972
252.76,2.986
253.95,3.007
254.11,3.007
254.28,3.010
254.45,3.013
254.62,3.013
254.79,3.017
254.96,3.020
255.13,3.020
255.30,3.024
255.47,3.027
255.64,3.027
255.98,3.024
256.31,3.034
256.65,3.037
256.99,3.044
257.33,3.054
257.67,3.058
258.00,3.068
258.34,3.075
258.68,3.085
259.02,3.092
259.36,3.102
259.70,3.106
260.03,3.106
260.37,3.102
260.71,3.095
261.05,3.071
261.39,3.061
261.72,3.054
262.06,3.054
262.40,3.058
262.74,3.061
263.08,3.068
263.42,3.078
263.75,3.095
264.09,3.123
264.43,3.143
264.77,3.170
265.11,3.187
265.45,3.191
265.78,3.187
266.12,3.170
266.46,3.109
266.80,3.071
267.14,3.054
267.47,3.047
267.81,3.041
268.15,3.037
268.49,3.037
268.83,3.041
269.17,3.041
269.50,3.044
269.84,3.047
270.18,3.054
270.52,3.065
270.86,3.075
271.20,3.085
271.53,3.092
271.87,3.102
272.21,3.106
272.55,3.102
272.89,3.088
273.22,3.063
273.65,3.026
274.26,2.966
275.03,2.874
275.59,2.805
276.78,2.648
277.96,2.484
279.14,2.365
280.33,2.276
281.51,2.187
282.69,2.105
283.88,2.054
285.06,2.006
286.25,1.962
287.43,1.921
288.61,1.884
289.80,1.846
290.98,1.805
292.16,1.764
293.35,1.730
294.53,1.689
295.72,1.651
296.90,1.614
298.08,1.580
299.27,1.546
300.45,1.511
301.63,1.477
302.82,1.447
304.00,1.412
305.19,1.382
306.37,1.344
307.55,1.313
308.74,1.283
309.92,1.252
311.10,1.221
312.29,1.187
313.47,1.160
314.66,1.136
315.84,1.105
317.02,1.081
318.21,1.057
319.39,1.037
320.57,1.016
321.76,0.999
322.94,0.986
324.13,0.969
325.31,0.955
326.49,0.931
327.68,0.914
328.86,0.890
330.05,0.870
331.23,0.853
332.41,0.832
333.60,0.805
334.78,0.791
335.96,0.778
337.15,0.760
338.33,0.750
339.52,0.740
340.70,0.726
341.88,0.720
343.07,0.709
##END=
