##TITLE=Oxalyl chloride
##JCAMP-DX=4.24
##DATA TYPE=UV/VIS SPECTRUM
##ORIGIN=INSTITUTE OF ENERGY PROBLEMS OF CHEMICAL PHYSICS, RAS
##OWNER=INEP CP RAS, NIST OSRD
Collection (C) 2007 copyright by the U.S. Secretary of Commerce
on behalf of the United States of America. All rights reserved.
##CAS REGISTRY NO=79-37-8
##MOLFORM=C2Cl2O2
##MP=- 12
##BP=63.5-64/ 763 mm
##SOURCE REFERENCE=RAS UV No. 10174
##$NIST SQUIB=1951SAK/KAG999
##$NIST SOURCE=TYUGLMTE
##SPECTROMETER/DATA SYSTEM=Beckman quartz spectrophotometer
##STATE=<none>
##XUNITS=Wavelength (nm)
##YUNITS=Logarithm epsilon
##XFACTOR=1.0
##YFACTOR=1.0
##FIRSTX=266.77
##LASTX=382.17
##FIRSTY=1.686
##MAXX=382.17
##MINX=266.77
##MAXY=1.686
##MINY=-0.053
##NPOINTS=123
##$REF AUTHOR=Saksena, B.D.; Kagarise, R.E.
##$REF JOURNAL=J. Chem. Phys.
##$REF VOLUME=19
##$REF PAGE=999
##$REF DATE=1951
##XYPOINTS=(XY..XY)
266.77,1.686
267.25,1.680
267.57,1.674
267.90,1.667
268.06,1.660
268.38,1.652
268.70,1.645
268.86,1.638
269.19,1.630
269.51,1.622
269.67,1.614
269.99,1.606
270.48,1.598
270.80,1.590
271.28,1.581
271.77,1.573
272.09,1.564
272.73,1.556
273.22,1.548
273.86,1.540
274.67,1.532
275.63,1.526
276.60,1.518
277.41,1.510
278.21,1.502
278.86,1.493
279.66,1.484
280.47,1.474
281.44,1.466
282.40,1.458
283.37,1.450
284.34,1.441
285.14,1.432
286.27,1.425
287.56,1.418
288.85,1.413
290.14,1.407
291.43,1.400
292.72,1.393
293.85,1.385
295.13,1.378
296.42,1.372
297.71,1.366
299.16,1.364
300.61,1.366
301.90,1.370
303.19,1.375
304.64,1.376
305.93,1.370
307.22,1.364
308.67,1.359
310.12,1.355
311.57,1.355
312.86,1.361
313.83,1.370
314.80,1.379
316.09,1.385
317.05,1.396
317.86,1.407
318.83,1.416
319.95,1.409
320.76,1.397
321.57,1.385
322.21,1.373
323.18,1.364
324.47,1.356
325.92,1.351
327.37,1.353
328.50,1.361
329.62,1.369
331.07,1.370
332.36,1.375
333.33,1.385
334.14,1.396
335.10,1.387
335.43,1.373
335.91,1.361
336.23,1.346
336.55,1.331
336.88,1.316
337.36,1.302
338.17,1.289
339.13,1.278
340.10,1.266
340.91,1.250
341.39,1.233
342.52,1.220
343.97,1.214
345.42,1.214
346.71,1.205
348.16,1.200
349.45,1.212
350.74,1.220
351.70,1.207
352.35,1.189
352.83,1.170
353.15,1.147
353.48,1.123
353.96,1.101
354.44,1.077
354.93,1.052
355.73,1.025
356.38,0.997
357.35,0.971
359.12,0.913
360.09,0.885
361.21,0.861
362.50,0.841
363.79,0.819
365.24,0.808
366.69,0.791
368.14,0.773
369.43,0.754
370.56,0.721
371.69,0.677
372.49,0.621
374.11,0.478
375.40,0.413
376.85,0.369
378.14,0.302
379.26,0.200
380.55,0.098
382.17,-0.053
##END=
