##TITLE=Ethanedithioamide
##JCAMP-DX=4.24
##DATA TYPE=UV/VIS SPECTRUM
##ORIGIN=INSTITUTE OF ENERGY PROBLEMS OF CHEMICAL PHYSICS, RAS
##OWNER=INEP CP RAS, NIST OSRD
Collection (C) 2007 copyright by the U.S. Secretary of Commerce
on behalf of the United States of America. All rights reserved.
##CAS REGISTRY NO=79-40-3
##MOLFORM=C2H4N2S2
##MP=140
##SOURCE REFERENCE=RAS UV No. 19691
##$NIST SQUIB=1962LAN55
##$NIST SOURCE=TYUGLMTE
##SPECTROMETER/DATA SYSTEM=Beckman DU
##XUNITS=Wavelength (nm)
##YUNITS=Logarithm epsilon
##XFACTOR=1.0
##YFACTOR=1.0
##FIRSTX=221.33
##LASTX=398.05
##FIRSTY=2.502
##MAXX=398.05
##MINX=221.33
##MAXY=2.95
##MINY=1.146
##NPOINTS=178
##$REF AUTHOR=Lang (editor), L.
##$REF JOURNAL=Absorption Spectra in the Ultraviolet and Visible Region
##$REF VOLUME=3
##$REF PAGE=55
##$REF DATE=1962
##XYPOINTS=(XY..XY)
221.33,2.502
222.01,2.475
222.68,2.448
223.35,2.421
224.02,2.394
224.86,2.367
225.53,2.341
226.04,2.314
226.88,2.287
227.55,2.260
228.22,2.233
229.06,2.209
229.73,2.182
230.40,2.155
231.24,2.132
231.92,2.105
232.76,2.081
233.60,2.054
234.44,2.028
235.28,2.001
236.12,1.974
236.96,1.950
237.80,1.927
238.64,1.903
239.48,1.876
240.48,1.852
241.49,1.829
242.50,1.809
243.68,1.789
244.85,1.768
246.20,1.758
247.71,1.752
249.22,1.758
250.73,1.768
252.07,1.785
253.25,1.802
254.59,1.819
255.77,1.836
256.95,1.852
258.12,1.869
259.30,1.890
260.31,1.910
261.31,1.930
262.32,1.950
263.33,1.970
264.17,1.994
265.18,2.017
266.02,2.044
266.86,2.068
267.70,2.095
268.54,2.122
269.38,2.145
270.22,2.172
271.06,2.196
271.90,2.223
272.74,2.246
273.58,2.273
274.42,2.300
275.42,2.324
276.26,2.351
277.10,2.378
277.94,2.401
278.78,2.428
279.62,2.452
280.46,2.475
281.30,2.499
282.14,2.522
283.15,2.546
284.16,2.569
285.17,2.593
286.01,2.617
287.01,2.640
287.85,2.664
288.86,2.684
289.87,2.707
290.88,2.731
291.89,2.751
292.89,2.771
293.90,2.792
295.08,2.808
296.25,2.825
297.43,2.842
298.61,2.859
299.95,2.876
301.29,2.889
302.64,2.903
303.98,2.916
305.49,2.923
306.84,2.933
308.35,2.936
309.86,2.943
311.37,2.946
312.88,2.950
314.40,2.950
315.91,2.950
317.42,2.946
318.93,2.940
320.44,2.933
321.96,2.923
323.47,2.913
324.81,2.899
326.15,2.889
327.50,2.876
328.84,2.862
330.02,2.845
331.19,2.829
332.37,2.808
333.71,2.792
334.89,2.775
335.90,2.755
336.91,2.734
338.08,2.714
339.26,2.694
340.27,2.674
341.27,2.654
342.28,2.633
343.29,2.613
344.30,2.593
345.30,2.573
346.31,2.553
347.32,2.529
348.33,2.509
349.34,2.485
350.34,2.462
351.35,2.438
352.36,2.415
353.37,2.391
354.38,2.367
355.38,2.344
356.56,2.324
357.40,2.297
358.41,2.277
359.25,2.253
360.25,2.233
361.26,2.209
362.27,2.186
363.28,2.166
364.29,2.142
365.29,2.122
366.30,2.098
367.14,2.075
368.15,2.051
369.16,2.031
370.00,2.007
371.01,1.984
371.85,1.960
372.85,1.937
373.69,1.913
374.70,1.893
375.54,1.869
376.55,1.846
377.39,1.822
378.40,1.799
379.24,1.775
380.08,1.752
380.92,1.728
381.76,1.704
382.76,1.681
383.44,1.654
384.28,1.627
385.12,1.600
385.96,1.573
386.80,1.546
387.64,1.519
388.48,1.496
389.15,1.469
389.99,1.442
390.83,1.415
391.50,1.388
392.34,1.361
393.01,1.334
393.85,1.307
394.52,1.280
395.36,1.253
396.04,1.226
396.71,1.199
397.21,1.173
398.05,1.146
##END=
