##TITLE=Propane, 2-nitro-
##JCAMP-DX=4.24
##DATA TYPE=UV/VIS SPECTRUM
##ORIGIN=INSTITUTE OF ENERGY PROBLEMS OF CHEMICAL PHYSICS, RAS
##OWNER=INEP CP RAS, NIST OSRD
Collection (C) 2007 copyright by the U.S. Secretary of Commerce
on behalf of the United States of America. All rights reserved.
##CAS REGISTRY NO=79-46-9
##MOLFORM=C3H7NO2
##MP=-91.3
##BP=120.2
##SOURCE REFERENCE=RAS UV No. 782
##$NIST SQUIB=1954HAS/JAN691-695
##$NIST SOURCE=TSGMTE
##SPECTROMETER/DATA SYSTEM=Unicam spectrophotometer or Perkim-Elmer 21
##XUNITS=Wavelength (nm)
##YUNITS=Logarithm epsilon
##XFACTOR=1.000000
##YFACTOR=1.000000
##FIRSTX=250.6434
##LASTX=349.0128
##FIRSTY=0.899771
##MAXX=349.013
##MINX=250.643
##MAXY=1.31722
##MINY=0.056295
##NPOINTS=112
##$REF AUTHOR=Haszeldine, R.N.; Jander, J.
##$REF TITLE=Studies in spectroscopy. Part VI. Ultra-violet and infra-red spectra of nitrosamines, nitrites, and related compounds
##$REF JOURNAL=J. Chem. Soc.
##$REF PAGE=691-695
##$REF DATE=1954
##XYPOINTS=(XY..XY)
250.6434,0.899771
250.6434,0.899771
251.1780,0.914020
251.8270,0.931376
252.5741,0.951235
253.4033,0.972985
254.2984,0.996021
255.2431,1.019731
256.2213,1.043508
257.2169,1.066743
258.2137,1.088827
259.1954,1.109153
260.1460,1.127108
261.0492,1.142089
261.8889,1.153483
262.6489,1.160685
262.9390,1.159128
262.9975,1.157330
263.0063,1.163984
263.2568,1.176057
263.2568,1.176057
264.4300,1.193378
265.5789,1.209475
266.7093,1.224362
267.8268,1.238064
268.9371,1.250596
270.0459,1.261981
271.1589,1.272239
272.2818,1.281390
273.4201,1.289453
274.5797,1.296448
275.7662,1.302398
276.9853,1.307318
278.2427,1.311232
279.5440,1.314158
280.8949,1.316119
282.3011,1.317131
283.7683,1.317217
283.7683,1.317217
285.1322,1.311449
286.5052,1.305495
287.8828,1.299451
287.8828,1.299451
289.4674,1.283823
291.0611,1.268011
292.6594,1.252110
292.6594,1.252110
292.8368,1.247848
293.0724,1.242874
293.4030,1.236426
293.8652,1.227735
294.4958,1.216037
295.3315,1.200563
296.4089,1.180550
297.7649,1.155233
299.4361,1.123842
301.4593,1.085612
303.8711,1.039779
303.8711,1.039779
304.0131,1.036066
304.3487,1.028588
304.8624,1.017597
305.5388,1.003344
306.3627,0.986082
307.3185,0.966062
308.3909,0.943539
309.5646,0.918759
310.8240,0.891978
312.1539,0.863454
313.5390,0.833428
314.9636,0.802151
314.9636,0.802151
315.7746,0.782666
316.5882,0.763241
317.4046,0.743855
318.2237,0.724530
319.0453,0.705239
319.8695,0.685992
320.6963,0.666780
321.5255,0.647598
322.3571,0.628450
323.1910,0.609328
324.0273,0.590217
324.8658,0.571138
325.7066,0.552072
326.5495,0.533009
327.3945,0.513963
328.2416,0.494920
329.0907,0.475874
329.9418,0.456837
330.7947,0.437782
331.6496,0.418715
332.5062,0.399639
333.3646,0.380537
334.2248,0.361426
335.0865,0.342284
335.9499,0.323108
335.9499,0.323108
336.9216,0.303628
337.8935,0.284160
338.8656,0.264676
339.8380,0.245192
340.8110,0.225723
341.7845,0.206232
342.7588,0.186759
343.7340,0.167258
344.7102,0.147800
345.6874,0.128302
345.6874,0.128302
346.7362,0.103667
347.8121,0.079109
349.0128,0.056295
##END=
