##TITLE=Benzenesulfonic acid, 4-methyl-, ethyl ester
##JCAMP-DX=4.24
##DATA TYPE=UV/VIS SPECTRUM
##ORIGIN=INSTITUTE OF ENERGY PROBLEMS OF CHEMICAL PHYSICS, RAS
##OWNER=INEP CP RAS, NIST OSRD
Collection (C) 2007 copyright by the U.S. Secretary of Commerce
on behalf of the United States of America. All rights reserved.
##CAS REGISTRY NO=80-40-0
##MOLFORM=C9H12O3S
##MP=31
##SOURCE REFERENCE=RAS UV No. 18980
##$NIST SQUIB=1972LAN35
##$NIST SOURCE=TYUGLMTE
##SPECTROMETER/DATA SYSTEM=Unicam SP 800
##XUNITS=Wavelength (nm)
##YUNITS=Logarithm epsilon
##XFACTOR=1.0
##YFACTOR=1.0
##FIRSTX=211.11
##LASTX=298.99
##FIRSTY=3.057
##MAXX=298.99
##MINX=211.11
##MAXY=3.279
##MINY=0.879
##NPOINTS=146
##$REF AUTHOR=Lang (editor), L.
##$REF JOURNAL=Absorption Spectra in the Ultraviolet and Visible Region
##$REF VOLUME=17
##$REF PAGE=35
##$REF DATE=1972
##XYPOINTS=(XY..XY)
211.11,3.057
212.29,3.061
213.80,3.067
215.15,3.081
216.50,3.095
217.85,3.108
219.19,3.122
220.54,3.136
221.89,3.160
223.23,3.177
224.58,3.190
225.93,3.207
227.27,3.228
228.62,3.248
229.97,3.262
231.31,3.276
232.66,3.279
234.01,3.279
235.35,3.259
236.70,3.242
238.05,3.197
239.39,3.102
240.74,2.931
242.09,2.760
243.43,2.654
244.78,2.624
246.13,2.606
247.47,2.589
248.82,2.572
250.17,2.569
251.52,2.572
251.68,2.583
251.85,2.586
252.02,2.586
252.19,2.589
252.36,2.589
252.53,2.593
252.69,2.596
252.86,2.596
253.03,2.600
253.20,2.600
253.37,2.603
253.70,2.603
254.04,2.606
254.38,2.613
254.71,2.617
255.05,2.624
255.39,2.624
255.72,2.627
256.06,2.627
256.40,2.627
256.73,2.624
257.07,2.624
257.41,2.624
257.74,2.624
258.08,2.624
258.42,2.620
258.75,2.630
259.09,2.637
259.43,2.647
259.76,2.654
260.10,2.661
260.44,2.668
260.77,2.671
261.11,2.678
261.45,2.682
261.78,2.682
262.12,2.675
262.46,2.668
262.79,2.661
263.13,2.651
263.47,2.651
263.80,2.651
264.48,2.651
264.81,2.651
265.15,2.654
265.49,2.665
265.82,2.668
266.16,2.668
266.50,2.665
266.84,2.661
267.17,2.658
267.51,2.654
267.85,2.641
268.18,2.627
268.52,2.610
268.86,2.600
269.19,2.576
269.53,2.552
269.87,2.528
270.20,2.525
270.54,2.521
270.88,2.521
271.21,2.525
271.55,2.538
271.89,2.555
272.22,2.583
272.56,2.596
272.90,2.634
273.23,2.634
273.57,2.627
273.91,2.456
274.24,2.378
274.58,2.344
274.92,2.316
275.25,2.286
275.59,2.262
275.93,2.238
276.26,2.221
276.77,2.221
276.94,2.217
277.10,2.214
277.27,2.207
277.44,2.200
278.11,2.163
278.79,2.142
279.46,2.122
280.13,2.094
280.81,2.074
281.48,2.057
282.15,2.036
282.83,2.019
283.50,1.999
284.18,1.971
284.85,1.944
285.52,1.913
286.20,1.866
286.87,1.814
287.54,1.746
288.22,1.671
288.89,1.609
289.56,1.545
290.24,1.487
290.91,1.428
291.58,1.374
292.26,1.326
292.93,1.275
293.60,1.237
294.28,1.183
294.95,1.145
295.62,1.094
296.30,1.060
296.97,1.029
297.64,0.991
298.32,0.944
298.99,0.879
##END=
