##TITLE=1-Aminoanthraquinone
##JCAMP-DX=4.24
##DATA TYPE=UV/VIS SPECTRUM
##ORIGIN=INSTITUTE OF ENERGY PROBLEMS OF CHEMICAL PHYSICS, RAS
##OWNER=INEP CP RAS, NIST OSRD
Collection (C) 2007 copyright by the U.S. Secretary of Commerce
on behalf of the United States of America. All rights reserved.
##CAS REGISTRY NO=82-45-1
##MOLFORM=C14H9NO2
##MP=253.5
##BP=sub
##SOURCE REFERENCE=RAS UV No. 10003
##$NIST SQUIB=1952HAR/LOR360
##$NIST SOURCE=TYUGLMTE
##SPECTROMETER/DATA SYSTEM=Beckman DU
##XUNITS=Wavelength (nm)
##YUNITS=Logarithm epsilon
##XFACTOR=1.0
##YFACTOR=1.0
##FIRSTX=252.58
##LASTX=552.53
##FIRSTY=4.419
##MAXX=552.53
##MINX=252.58
##MAXY=4.419
##MINY=1.573
##NPOINTS=152
##$REF AUTHOR=Hartmann, H.; Lorenz, E.
##$REF JOURNAL=Z. Naturforsch
##$REF VOLUME=7a
##$REF PAGE=360
##$REF DATE=1952
##XYPOINTS=(XY..XY)
252.58,4.419
253.48,4.394
255.37,4.341
257.37,4.264
259.36,4.187
261.14,4.131
263.35,4.081
265.34,4.060
267.34,4.044
269.33,4.040
271.33,4.032
273.32,4.028
275.31,4.024
277.31,4.007
279.30,3.987
281.30,3.954
283.29,3.914
285.29,3.873
287.28,3.828
289.28,3.775
291.27,3.726
293.26,3.682
295.26,3.669
297.25,3.674
299.25,3.674
301.24,3.682
303.24,3.674
305.23,3.669
307.22,3.657
309.22,3.645
311.21,3.617
313.21,3.580
315.20,3.560
317.20,3.535
319.19,3.490
321.19,3.450
323.18,3.397
325.17,3.352
327.17,3.299
329.16,3.238
331.16,3.181
333.15,3.132
335.15,3.067
337.14,2.990
339.13,2.908
341.13,2.798
343.12,2.713
345.12,2.656
347.11,2.615
349.11,2.595
351.10,2.591
353.10,2.595
355.09,2.611
356.58,2.625
358.05,2.642
359.69,2.662
361.66,2.684
364.77,2.720
367.06,2.749
369.05,2.782
371.04,2.815
373.04,2.851
375.03,2.884
377.03,2.920
379.02,2.965
381.02,2.990
383.01,3.022
385.01,3.059
387.00,3.083
388.99,3.120
390.99,3.144
392.98,3.177
394.98,3.205
396.97,3.238
398.97,3.262
400.96,3.291
402.96,3.315
404.95,3.344
406.94,3.372
408.94,3.397
410.93,3.425
412.93,3.450
414.92,3.474
416.92,3.498
418.91,3.527
420.90,3.547
422.90,3.568
424.89,3.588
426.89,3.608
428.88,3.625
430.88,3.645
432.87,3.661
434.87,3.678
436.86,3.690
438.85,3.702
440.85,3.710
442.84,3.726
444.84,3.726
446.83,3.739
448.83,3.743
450.82,3.743
452.81,3.747
454.81,3.751
456.80,3.755
458.80,3.755
460.79,3.751
462.79,3.743
464.78,3.743
466.78,3.739
468.77,3.722
470.76,3.714
472.76,3.702
474.75,3.686
476.75,3.669
478.74,3.649
480.74,3.629
482.73,3.604
484.72,3.584
486.72,3.560
488.71,3.531
490.71,3.494
492.70,3.470
494.48,3.445
496.69,3.405
498.69,3.368
500.68,3.323
502.70,3.266
504.67,3.205
506.66,3.152
508.66,3.095
510.65,3.038
512.65,2.957
514.64,2.908
516.63,2.839
518.63,2.766
520.62,2.688
522.62,2.619
524.61,2.542
526.67,2.480
529.18,2.403
530.60,2.350
532.59,2.302
534.58,2.228
536.58,2.163
538.57,2.086
540.57,2.012
542.56,1.947
544.56,1.870
546.55,1.805
548.54,1.732
550.54,1.666
552.53,1.573
##END=
