##TITLE=4-Aminoantipyrine
##JCAMP-DX=4.24
##DATA TYPE=UV/VIS SPECTRUM
##ORIGIN=INSTITUTE OF ENERGY PROBLEMS OF CHEMICAL PHYSICS, RAS
##OWNER=INEP CP RAS, NIST OSRD
Collection (C) 2007 copyright by the U.S. Secretary of Commerce
on behalf of the United States of America. All rights reserved.
##CAS REGISTRY NO=83-07-8
##MOLFORM=C11H13N3O
##MP=109
##SOURCE REFERENCE=RAS UV No. 19712
##$NIST SQUIB=1962LAN327
##$NIST SOURCE=TYUGLMTE
##SPECTROMETER/DATA SYSTEM=Unicam SP 500
##XUNITS=Wavelength (nm)
##YUNITS=Logarithm epsilon
##XFACTOR=1.0
##YFACTOR=1.0
##FIRSTX=209
##LASTX=350.02
##FIRSTY=4.047
##MAXX=350.02
##MINX=209
##MAXY=4.047
##MINY=1.722
##NPOINTS=137
##$REF AUTHOR=Lang (editor), L.
##$REF JOURNAL=Absorption Spectra in the Ultraviolet and Visible Region
##$REF VOLUME=3
##$REF PAGE=327
##$REF DATE=1962
##XYPOINTS=(XY..XY)
209.00,4.047
209.68,4.020
210.53,3.993
211.21,3.966
212.06,3.942
213.08,3.922
214.10,3.902
215.29,3.881
216.31,3.861
217.50,3.844
219.03,3.834
220.56,3.827
222.09,3.824
223.62,3.827
225.14,3.834
226.67,3.837
228.20,3.841
229.73,3.841
231.09,3.851
232.62,3.851
234.15,3.854
235.68,3.858
237.21,3.861
238.74,3.864
240.26,3.868
241.79,3.868
243.32,3.868
244.85,3.868
246.38,3.864
247.91,3.861
249.44,3.858
250.97,3.854
252.50,3.854
254.03,3.851
255.55,3.851
257.08,3.848
258.61,3.841
260.14,3.837
261.67,3.834
263.20,3.831
264.73,3.827
266.26,3.821
267.79,3.821
269.32,3.821
270.85,3.821
272.37,3.821
273.90,3.817
275.43,3.817
276.96,3.817
278.49,3.810
280.02,3.804
281.38,3.793
282.91,3.783
284.27,3.770
285.46,3.750
286.82,3.733
288.00,3.716
289.19,3.695
290.38,3.675
291.57,3.655
292.42,3.631
293.44,3.611
294.46,3.591
295.31,3.567
296.33,3.543
297.18,3.520
298.20,3.496
299.05,3.472
299.90,3.449
300.75,3.422
301.60,3.398
302.28,3.371
303.12,3.347
303.80,3.320
304.48,3.293
305.33,3.270
306.01,3.243
306.69,3.216
307.37,3.189
308.05,3.162
308.73,3.134
309.58,3.107
310.09,3.080
310.94,3.053
311.45,3.026
312.13,2.999
312.81,2.972
313.49,2.945
314.00,2.918
314.68,2.891
315.19,2.864
315.87,2.837
316.38,2.810
316.89,2.783
317.40,2.756
317.91,2.729
318.42,2.702
318.92,2.675
319.43,2.648
319.94,2.617
320.45,2.590
320.96,2.563
321.47,2.536
322.15,2.509
322.66,2.482
323.17,2.455
323.68,2.428
324.19,2.401
324.70,2.374
325.21,2.347
325.72,2.320
326.23,2.293
326.74,2.266
327.42,2.239
327.93,2.212
328.61,2.185
329.29,2.158
329.97,2.131
330.82,2.104
331.67,2.077
332.35,2.050
333.20,2.026
334.05,1.999
334.89,1.975
335.57,1.948
336.59,1.925
337.61,1.901
338.63,1.877
339.65,1.857
340.84,1.837
342.03,1.820
343.22,1.800
344.58,1.783
345.94,1.766
347.30,1.749
348.66,1.735
350.02,1.722
##END=
