##TITLE=4-Acetamidoantipyrene
##JCAMP-DX=4.24
##DATA TYPE=UV/VIS SPECTRUM
##ORIGIN=INSTITUTE OF ENERGY PROBLEMS OF CHEMICAL PHYSICS, RAS
##OWNER=INEP CP RAS, NIST OSRD
Collection (C) 2007 copyright by the U.S. Secretary of Commerce
on behalf of the United States of America. All rights reserved.
##CAS REGISTRY NO=83-15-8
##MOLFORM=C13H15N3O2
##MP=197
##SOURCE REFERENCE=RAS UV No. 19714
##$NIST SQUIB=1962LAN333
##$NIST SOURCE=TYUGLMTE
##SPECTROMETER/DATA SYSTEM=Unicam SP 500
##XUNITS=Wavelength (nm)
##YUNITS=Logarithm epsilon
##XFACTOR=1.0
##YFACTOR=1.0
##FIRSTX=209.46
##LASTX=309.5
##FIRSTY=4.176
##MAXX=309.5
##MINX=209.46
##MAXY=4.176
##MINY=1.28
##NPOINTS=132
##$REF AUTHOR=Lang (editor), L.
##$REF JOURNAL=Absorption Spectra in the Ultraviolet and Visible Region
##$REF VOLUME=3
##$REF PAGE=333
##$REF DATE=1962
##XYPOINTS=(XY..XY)
209.46,4.176
210.65,4.156
211.66,4.136
212.84,4.119
214.03,4.099
215.38,4.082
216.73,4.068
218.08,4.055
219.60,4.045
220.95,4.031
222.31,4.021
223.83,4.011
225.18,3.998
226.70,3.988
228.22,3.981
229.57,3.971
231.09,3.964
232.44,3.951
233.97,3.944
235.49,3.934
236.84,3.920
238.36,3.914
239.88,3.904
241.40,3.897
242.75,3.887
244.27,3.880
245.79,3.877
247.32,3.870
248.84,3.867
250.36,3.867
251.88,3.867
253.40,3.870
254.92,3.877
256.44,3.880
257.96,3.883
259.48,3.883
261.00,3.890
262.52,3.890
264.04,3.883
265.57,3.880
266.92,3.867
268.27,3.856
269.62,3.843
270.97,3.826
272.16,3.806
273.34,3.786
274.52,3.766
275.54,3.742
276.38,3.719
277.23,3.695
278.07,3.672
278.92,3.648
279.76,3.621
280.61,3.598
281.45,3.571
282.30,3.544
282.97,3.517
283.65,3.490
284.15,3.460
284.66,3.433
285.17,3.406
285.84,3.379
286.35,3.352
286.86,3.325
287.36,3.298
287.87,3.268
288.38,3.238
288.72,3.207
289.22,3.180
289.73,3.154
289.90,3.123
290.41,3.093
290.74,3.063
291.08,3.032
291.59,3.002
291.93,2.972
292.43,2.942
292.77,2.911
293.11,2.881
293.62,2.854
293.79,2.824
294.12,2.794
294.46,2.763
294.80,2.733
295.14,2.703
295.48,2.673
295.81,2.642
296.15,2.612
296.49,2.582
296.66,2.552
297.00,2.521
297.33,2.491
297.50,2.461
297.67,2.430
298.01,2.400
298.35,2.370
298.69,2.340
298.86,2.309
299.19,2.279
299.53,2.249
299.70,2.219
300.21,2.188
300.38,2.158
300.55,2.128
300.88,2.098
301.22,2.067
301.39,2.037
301.73,2.007
302.07,1.976
302.40,1.946
302.74,1.916
303.08,1.886
303.42,1.855
303.76,1.825
303.93,1.795
304.26,1.765
304.60,1.734
304.94,1.704
305.28,1.674
305.61,1.643
305.95,1.613
306.29,1.583
306.63,1.553
306.97,1.522
307.30,1.492
307.64,1.462
307.81,1.432
308.15,1.401
308.49,1.371
308.83,1.341
309.16,1.310
309.50,1.280
##END=
