##TITLE=Phenanthrene, 4-methyl-
##JCAMP-DX=4.24
##DATA TYPE=UV/VIS SPECTRUM
##ORIGIN=INSTITUTE OF ENERGY PROBLEMS OF CHEMICAL PHYSICS, RAS
##OWNER=INEP CP RAS, NIST OSRD
Collection (C) 2007 copyright by the U.S. Secretary of Commerce
on behalf of the United States of America. All rights reserved.
##CAS REGISTRY NO=832-64-4
##MOLFORM=C15H12
##MP=52-53
##SOURCE REFERENCE=RAS UV No. 19817
##$NIST SQUIB=1967BAVe3/10
##$NIST SOURCE=TYUGLMTE
##SPECTROMETER/DATA SYSTEM=Beckmann DK 2
##XUNITS=Wavelength (nm)
##YUNITS=Logarithm epsilon
##XFACTOR=1.0
##YFACTOR=1.0
##FIRSTX=220.98
##LASTX=358.07
##FIRSTY=4.202
##MAXX=358.07
##MINX=220.98
##MAXY=4.895
##MINY=1.082
##NPOINTS=561
##$REF AUTHOR=Bavin, P.M.G.
##$REF JOURNAL=UV atlas of organic compouds
##$REF VOLUME=3
##$REF PAGE=E3/10
##$REF DATE=1967
##XYPOINTS=(XY..XY)
220.98,4.202
221.72,4.213
222.46,4.225
223.31,4.232
224.17,4.225
224.71,4.211
225.04,4.193
225.47,4.176
225.80,4.159
226.24,4.142
226.79,4.125
227.45,4.110
228.46,4.110
229.02,4.125
229.58,4.142
229.92,4.159
230.26,4.179
230.61,4.198
231.06,4.215
231.41,4.232
231.87,4.249
232.22,4.268
232.56,4.285
233.03,4.302
233.38,4.321
233.73,4.341
234.20,4.358
234.55,4.377
234.91,4.396
235.27,4.415
235.62,4.435
236.10,4.452
236.46,4.471
236.82,4.490
237.30,4.507
237.67,4.526
238.03,4.543
238.52,4.560
238.89,4.580
239.38,4.597
239.75,4.616
240.12,4.635
240.49,4.654
240.99,4.671
241.36,4.688
241.99,4.706
242.49,4.723
243.25,4.738
244.02,4.750
244.79,4.765
245.56,4.780
246.34,4.795
246.99,4.812
247.78,4.827
248.44,4.844
249.77,4.870
249.91,4.874
250.04,4.876
250.18,4.878
250.31,4.881
250.45,4.885
250.58,4.887
250.71,4.889
250.85,4.893
250.98,4.895
251.12,4.895
251.26,4.893
251.39,4.891
251.53,4.891
251.66,4.889
251.80,4.889
251.94,4.887
252.07,4.887
252.21,4.887
252.34,4.881
252.48,4.878
252.62,4.874
252.76,4.868
252.89,4.861
253.03,4.855
253.17,4.849
253.31,4.846
253.44,4.838
253.58,4.829
253.72,4.825
253.86,4.816
254.00,4.806
254.13,4.797
254.27,4.784
254.41,4.782
254.55,4.772
254.69,4.759
254.83,4.750
254.97,4.738
255.11,4.727
255.25,4.714
255.39,4.703
255.53,4.691
255.67,4.682
255.81,4.665
255.95,4.659
256.09,4.650
256.23,4.639
256.37,4.622
256.51,4.605
256.66,4.592
256.80,4.578
256.94,4.565
257.08,4.558
257.22,4.548
257.36,4.539
257.51,4.531
257.65,4.520
257.79,4.514
257.93,4.509
258.08,4.507
258.22,4.507
258.36,4.486
258.51,4.479
258.65,4.475
258.79,4.452
258.94,4.452
259.08,4.452
259.23,4.452
259.37,4.452
259.51,4.449
259.66,4.445
259.80,4.443
259.95,4.439
260.09,4.435
260.24,4.432
260.39,4.430
260.53,4.424
260.68,4.422
260.82,4.420
260.97,4.417
261.12,4.413
261.26,4.411
261.41,4.409
261.56,4.407
261.70,4.400
261.85,4.398
262.00,4.392
262.14,4.388
262.29,4.381
262.44,4.377
262.59,4.375
262.74,4.368
262.88,4.360
263.03,4.356
263.18,4.347
263.33,4.343
263.48,4.334
263.63,4.330
263.78,4.324
263.93,4.319
264.08,4.313
264.23,4.304
264.38,4.300
264.53,4.292
264.68,4.287
264.83,4.279
264.98,4.270
265.13,4.262
265.28,4.257
265.43,4.249
265.58,4.245
265.73,4.238
265.88,4.228
266.04,4.223
266.19,4.217
266.34,4.208
266.49,4.198
266.65,4.193
266.80,4.185
266.95,4.176
267.10,4.176
267.26,4.166
267.41,4.164
267.56,4.155
267.72,4.144
267.87,4.142
268.03,4.132
268.18,4.123
268.34,4.119
268.49,4.112
268.65,4.104
268.80,4.100
268.96,4.080
269.11,4.072
269.27,4.061
269.42,4.059
269.58,4.055
269.73,4.046
269.89,4.038
270.05,4.031
270.20,4.023
270.36,4.018
270.52,4.014
270.67,4.008
270.83,4.004
270.99,4.001
271.15,3.999
271.31,3.995
271.46,3.993
271.62,3.991
271.78,3.989
271.94,3.984
272.10,3.984
272.26,3.984
272.42,3.984
272.58,3.989
272.73,3.989
272.89,3.989
273.05,3.995
273.21,3.997
273.38,3.999
273.54,4.001
273.70,4.006
273.86,4.012
274.02,4.016
274.18,4.018
274.34,4.023
274.50,4.029
274.66,4.031
274.83,4.033
274.97,4.035
275.15,4.038
275.31,4.039
275.48,4.040
275.64,4.041
275.79,4.041
275.97,4.042
276.11,4.042
276.27,4.042
276.45,4.042
276.61,4.042
276.78,4.041
276.95,4.040
277.12,4.038
277.28,4.036
277.45,4.033
277.61,4.029
277.78,4.023
277.94,4.018
278.11,4.014
278.27,4.010
278.44,4.008
278.61,4.004
278.77,3.999
278.94,3.995
279.11,3.989
279.28,3.984
279.44,3.978
279.61,3.974
279.78,3.963
279.95,3.957
280.12,3.952
280.28,3.948
280.45,3.944
280.62,3.940
280.79,3.940
280.96,3.933
281.13,3.931
281.30,3.927
281.47,3.922
281.64,3.922
281.81,3.922
281.98,3.922
282.12,3.929
282.28,3.936
282.49,3.944
282.67,3.948
282.84,3.957
283.01,3.965
283.18,3.969
283.35,3.978
283.53,3.986
283.70,3.991
283.87,3.999
284.04,4.008
284.22,4.012
284.39,4.018
284.54,4.025
284.74,4.029
284.91,4.031
285.05,4.037
285.18,4.039
285.38,4.041
285.58,4.045
285.77,4.048
285.95,4.049
286.10,4.051
286.28,4.052
286.48,4.052
286.66,4.049
286.86,4.045
287.00,4.041
287.19,4.038
287.37,4.031
287.55,4.029
287.73,4.023
287.91,4.021
288.08,4.016
288.27,4.013
288.48,4.009
288.62,4.004
288.80,3.995
288.98,3.989
289.16,3.978
289.34,3.967
289.52,3.959
289.70,3.948
289.85,3.940
290.05,3.932
290.24,3.925
290.42,3.916
290.56,3.913
290.78,3.905
290.91,3.901
291.17,3.897
291.32,3.895
291.51,3.890
291.69,3.890
291.88,3.888
292.06,3.888
292.24,3.888
292.43,3.888
292.61,3.890
292.79,3.893
293.00,3.899
293.16,3.903
293.35,3.912
293.53,3.914
293.72,3.920
293.96,3.932
294.12,3.942
294.27,3.952
294.47,3.965
294.65,3.974
294.83,3.986
295.03,3.997
295.23,4.007
295.44,4.020
295.58,4.031
295.77,4.040
295.96,4.050
296.14,4.061
296.33,4.074
296.52,4.082
296.66,4.092
296.86,4.099
297.01,4.107
297.17,4.118
297.37,4.128
297.52,4.138
297.78,4.147
297.98,4.159
298.23,4.167
298.44,4.168
298.61,4.164
298.80,4.151
299.00,4.138
299.08,4.128
299.37,4.094
299.76,4.048
300.15,3.990
300.60,3.917
301.21,3.817
301.82,3.715
302.33,3.628
302.75,3.574
303.50,3.461
304.31,3.329
305.15,3.209
305.87,3.105
306.65,2.995
307.30,2.912
307.95,2.818
308.53,2.740
309.12,2.672
309.77,2.615
310.56,2.538
310.76,2.521
310.94,2.506
311.13,2.485
311.39,2.464
311.60,2.444
311.81,2.431
312.01,2.412
312.22,2.403
312.45,2.392
312.64,2.382
312.85,2.380
313.06,2.375
313.27,2.373
313.48,2.371
313.69,2.371
313.91,2.371
314.12,2.371
314.33,2.371
314.54,2.373
314.75,2.373
314.97,2.378
315.18,2.380
315.39,2.382
315.61,2.390
315.82,2.395
316.04,2.401
316.25,2.418
316.47,2.427
316.68,2.431
316.90,2.437
317.11,2.442
317.33,2.450
317.54,2.459
317.76,2.459
317.98,2.461
318.20,2.461
318.41,2.461
318.63,2.461
318.85,2.459
319.07,2.454
319.29,2.452
319.50,2.452
319.72,2.450
319.94,2.446
320.16,2.437
320.38,2.422
320.60,2.405
320.83,2.397
321.05,2.393
321.27,2.384
321.49,2.373
321.71,2.369
321.93,2.361
322.16,2.354
322.38,2.350
322.59,2.344
322.83,2.337
323.02,2.333
323.27,2.331
323.50,2.331
323.72,2.331
323.95,2.331
324.17,2.335
324.40,2.335
324.63,2.335
324.85,2.341
325.08,2.348
325.31,2.356
325.53,2.365
325.76,2.373
325.96,2.381
326.18,2.387
326.39,2.396
326.68,2.403
326.90,2.412
327.13,2.418
327.36,2.427
327.59,2.427
327.82,2.427
328.06,2.427
328.29,2.422
328.52,2.418
328.75,2.414
328.98,2.405
329.21,2.403
329.45,2.399
329.68,2.397
329.91,2.397
330.15,2.399
330.38,2.399
330.62,2.399
330.85,2.401
331.09,2.401
331.32,2.410
331.65,2.427
331.90,2.448
332.22,2.481
332.50,2.515
332.75,2.552
332.98,2.589
333.22,2.614
333.46,2.634
333.70,2.642
333.96,2.651
334.25,2.656
334.57,2.653
334.79,2.645
335.02,2.637
335.21,2.627
335.38,2.617
335.62,2.597
335.86,2.574
336.18,2.536
336.74,2.481
337.27,2.431
337.84,2.387
338.55,2.337
339.04,2.310
339.32,2.298
339.71,2.289
340.03,2.287
340.38,2.291
340.67,2.304
340.84,2.321
341.02,2.346
341.28,2.369
341.53,2.378
341.78,2.388
342.03,2.393
342.28,2.393
342.53,2.393
342.78,2.393
343.03,2.386
343.32,2.381
343.54,2.371
343.79,2.365
344.05,2.352
344.30,2.333
344.55,2.310
344.91,2.283
345.33,2.258
345.79,2.237
346.12,2.227
346.48,2.222
346.87,2.230
347.12,2.247
347.37,2.281
347.77,2.348
348.23,2.433
348.59,2.492
348.91,2.542
349.23,2.588
349.48,2.628
349.73,2.655
349.94,2.665
350.23,2.676
350.48,2.676
350.84,2.665
351.05,2.655
351.31,2.646
351.58,2.625
351.84,2.597
352.07,2.542
352.36,2.465
352.61,2.402
352.86,2.333
353.14,2.264
353.50,2.174
353.86,2.082
354.27,1.961
354.66,1.824
355.09,1.675
355.62,1.544
356.16,1.427
356.66,1.324
357.19,1.214
357.51,1.147
358.07,1.082
##END=
