##TITLE=1-Methylphenanthrene
##JCAMP-DX=4.24
##DATA TYPE=UV/VIS SPECTRUM
##ORIGIN=INSTITUTE OF ENERGY PROBLEMS OF CHEMICAL PHYSICS, RAS
##OWNER=INEP CP RAS, NIST OSRD
Collection (C) 2007 copyright by the U.S. Secretary of Commerce
on behalf of the United States of America. All rights reserved.
##CAS REGISTRY NO=832-69-9
##MOLFORM=C15H12
##MP=122-123
##SOURCE REFERENCE=RAS UV No. 9061
##$NIST SQUIB=1967BAV/QUAe3/8C
##$NIST SOURCE=TSGMTE
##SPECTROMETER/DATA SYSTEM=Beckman DK2
##XUNITS=Wavelength (nm)
##YUNITS=Logarithm epsilon
##XFACTOR=1.000000
##YFACTOR=1.000000
##FIRSTX=360.5603
##LASTX=242.6108
##FIRSTY=1.45925
##MAXX=360.56
##MINX=242.611
##MAXY=4.77757
##MINY=1.45925
##NPOINTS=1000
##$REF AUTHOR=Bavin, P.M.G.; Quaife, R.
##$REF TITLE=1-Methylphenanthrene
##$REF BOOK TITLE=UV Atlas of Organic Compounds - Vol. 3
##$REF PAGE=E3/8
##$REF DATE=1967
##$REF PUBLISHER=Plenum Press
##$REF LOCATION=New York
##XYPOINTS=(XY..XY)
360.5603,1.459251
360.5490,1.476234
360.2793,1.478253
360.2639,1.501574
359.9611,1.503591
359.9582,1.507900
359.6894,1.509919
359.6795,1.524875
359.4111,1.526892
359.4014,1.541595
359.1332,1.543867
359.1236,1.558569
358.8225,1.560840
358.8100,1.579852
358.5429,1.581870
358.5276,1.605192
358.2609,1.607209
358.2539,1.617857
357.9545,1.619874
357.9421,1.638885
357.6761,1.641157
357.6652,1.657888
357.3996,1.660159
357.3818,1.687537
357.0838,1.689554
357.0715,1.708566
356.8067,1.710837
356.7916,1.734160
356.5275,1.736177
356.5083,1.765836
356.2118,1.767853
356.1967,1.791175
355.9334,1.793193
355.9102,1.829189
355.6473,1.831207
355.6106,1.888245
355.3154,1.890514
355.2637,1.970873
355.0018,1.972891
354.9693,2.023591
354.7077,2.025862
354.6874,2.057550
354.3939,2.059566
354.3777,2.084916
354.1171,2.086934
354.1007,2.112537
353.8405,2.114555
353.8297,2.131540
353.5376,2.133556
353.5188,2.163215
353.2594,2.165233
353.2406,2.194893
352.9817,2.196911
352.9521,2.243554
352.6614,2.245571
352.6239,2.304890
352.3658,2.306907
352.3431,2.342904
352.0855,2.344922
352.0560,2.391566
351.7669,2.393582
351.7376,2.439972
351.4822,2.439962
351.4661,2.465566
351.2097,2.467583
351.1925,2.494961
350.9047,2.497231
350.9007,2.503569
350.6465,2.503559
350.6452,2.505587
350.3913,2.505576
350.3901,2.507605
349.8518,2.507583
349.8333,2.537242
349.5991,2.507573
349.0855,2.471808
349.0698,2.497158
349.0658,2.503495
348.8719,2.410451
348.8353,2.469516
348.8169,2.499176
348.8142,2.503485
348.6507,2.361769
348.6220,2.408160
348.3958,2.317396
348.3698,2.359477
348.1924,2.241083
348.1466,2.315104
347.9641,2.205329
347.9433,2.239045
347.7128,2.156646
347.6843,2.203036
347.4710,2.143961
347.4632,2.156636
346.6970,2.137592
346.4774,2.090938
346.4489,2.137582
346.1701,2.137570
345.9227,2.137560
345.9214,2.139588
345.6744,2.139578
345.6731,2.141606
345.3956,2.141595
345.3879,2.154270
345.1402,2.156541
345.1287,2.175553
344.8815,2.177571
344.8647,2.205202
344.5885,2.205191
344.5720,2.232569
344.3256,2.234587
344.3064,2.266274
344.0603,2.268545
344.0462,2.291867
343.7701,2.293884
343.7586,2.312896
343.5134,2.314914
343.5032,2.331898
343.2584,2.333916
343.2532,2.342535
342.9783,2.344552
342.9695,2.359255
342.7253,2.361526
342.7227,2.365835
342.4790,2.367853
342.4764,2.372163
341.9622,2.372141
341.9610,2.374169
341.4483,2.374148
341.4458,2.378457
341.2076,2.374138
340.9698,2.369818
340.9684,2.372100
340.7384,2.355105
340.7297,2.369808
340.4750,2.344447
340.4701,2.352812
340.2431,2.331761
340.2369,2.342408
340.0141,2.314767
340.0053,2.329723
339.7493,2.308418
339.7456,2.314756
339.2754,2.304342
339.0080,2.304330
338.5338,2.304310
338.0289,2.308345
338.0264,2.312654
337.7893,2.314672
337.7843,2.323291
337.5181,2.325307
337.5133,2.333673
337.2767,2.335944
337.2694,2.348619
337.0334,2.350637
337.0272,2.361284
336.7622,2.363301
336.7536,2.378257
336.5182,2.380275
336.5073,2.399287
336.2723,2.401305
336.2662,2.411952
336.0024,2.413968
335.9889,2.437290
335.7547,2.439308
335.7413,2.462630
335.5072,2.464901
335.4927,2.490251
335.2301,2.492268
335.2240,2.502915
334.9908,2.504933
334.9739,2.534592
334.7422,2.534582
334.7410,2.536610
334.4808,2.536598
334.4796,2.538626
334.2486,2.538616
334.2473,2.540898
334.0166,2.540888
334.0155,2.542916
333.5264,2.542894
333.5084,2.574581
333.5048,2.580919
333.2967,2.542884
333.2774,2.576853
333.2763,2.578881
332.6012,2.506855
332.5845,2.536515
332.3799,2.494170
332.3739,2.504817
332.1376,2.468809
332.1245,2.492131
331.9287,2.435084
331.9109,2.466771
331.7143,2.411752
331.7025,2.432792
331.4670,2.397037
331.4599,2.409712
331.2520,2.375733
331.2414,2.394746
331.0277,2.371667
331.0266,2.373695
330.7745,2.369374
330.5485,2.369364
330.3241,2.367326
330.0695,2.369343
329.8445,2.369333
329.6186,2.371604
329.3663,2.371592
329.3652,2.373620
329.1412,2.373610
329.1400,2.375638
328.9164,2.375628
328.9129,2.381966
328.6616,2.381954
328.6592,2.386264
328.4362,2.386253
328.4327,2.392591
328.2100,2.392581
328.2076,2.396890
327.9563,2.398907
327.9539,2.403216
327.7307,2.405234
327.7284,2.409544
327.2553,2.413578
326.1251,2.413526
325.8792,2.411487
325.6633,2.405139
325.6599,2.411477
325.4466,2.400820
325.4443,2.405129
325.2040,2.394471
325.2006,2.400808
324.9879,2.390405
324.9857,2.394461
324.7732,2.384057
324.7710,2.388113
324.5577,2.379737
324.5554,2.384047
324.3164,2.373389
324.3141,2.377698
324.1026,2.367041
324.1003,2.371350
323.8880,2.362721
323.8857,2.367031
323.6467,2.358400
323.6444,2.362710
323.4326,2.354334
323.4304,2.358390
322.9739,2.354313
322.7597,2.352021
322.5446,2.352011
322.0885,2.351989
322.0873,2.354271
321.8731,2.354261
321.6314,2.356277
321.6291,2.360587
321.4144,2.362605
321.4099,2.371224
321.1955,2.373241
321.1922,2.379579
320.9515,2.381596
320.9482,2.387933
320.7343,2.390204
320.7299,2.398570
320.5175,2.398560
320.5142,2.404897
320.2745,2.406914
320.2700,2.415533
320.0571,2.417550
320.0528,2.425916
319.8401,2.428187
319.8368,2.434525
319.5981,2.436541
319.5905,2.451244
319.3784,2.453516
319.3728,2.464162
319.1622,2.464152
319.1579,2.472518
318.9202,2.474534
318.9191,2.476816
318.7090,2.476806
318.7080,2.478834
318.2626,2.478812
318.2616,2.480840
318.0524,2.480830
318.0492,2.487167
317.8446,2.478792
317.2001,2.466085
317.1969,2.472423
316.9956,2.459738
316.9934,2.464047
316.7644,2.455417
316.7622,2.459726
316.3535,2.449059
316.3525,2.451087
315.7119,2.442690
315.4804,2.442679
315.0728,2.436321
315.0718,2.438349
314.8422,2.436309
313.7960,2.436257
313.7950,2.438285
313.3611,2.442573
313.1584,2.442563
313.1573,2.444591
312.9295,2.444580
312.9274,2.448889
312.5211,2.453178
312.5201,2.455206
312.2921,2.457476
312.2901,2.461532
312.0887,2.461522
312.0866,2.465832
311.8855,2.465822
311.8823,2.472159
311.6564,2.472148
311.6522,2.480513
311.4517,2.480503
311.4486,2.486840
311.2471,2.489112
311.2451,2.493168
311.0201,2.493156
311.0139,2.505831
310.8130,2.508103
310.8120,2.510131
310.6115,2.512148
310.6063,2.522795
310.3822,2.522784
310.3781,2.531149
310.1781,2.533421
310.1728,2.544068
309.9732,2.546086
309.9670,2.558760
309.7676,2.560778
309.7593,2.577763
309.5354,2.579779
309.5302,2.590426
309.3314,2.592444
309.3231,2.609428
309.1246,2.611446
309.1163,2.628431
308.8934,2.630447
308.8851,2.647432
308.6870,2.649703
308.6789,2.666434
308.4810,2.668705
308.4729,2.685436
308.2508,2.687706
308.2416,2.706719
308.0444,2.708736
308.0341,2.730030
307.8382,2.730020
307.8240,2.759426
307.6028,2.761696
307.5886,2.791102
307.3922,2.793373
307.3800,2.818723
307.1839,2.820741
307.1717,2.846091
306.9514,2.848361
306.9343,2.884104
306.7387,2.886375
306.7134,2.939103
306.5180,2.941374
306.4979,2.983455
306.2786,2.985725
306.2553,3.034397
306.0607,3.036415
306.0305,3.099789
305.8360,3.102061
305.8028,3.171773
305.5846,3.173789
305.5675,3.209786
305.3737,3.211804
305.3536,3.254138
305.1601,3.256156
305.1389,3.300772
304.9217,3.302788
304.9027,3.342841
304.7097,3.345112
304.6827,3.402150
304.4901,3.404167
304.4740,3.438136
304.2577,3.440153
304.2387,3.480459
304.0466,3.482477
304.0278,3.522530
303.8358,3.524801
303.8159,3.567135
303.6006,3.569152
303.5818,3.609205
303.3904,3.611476
303.3716,3.651529
303.1805,3.653800
303.1617,3.693853
302.9473,3.695869
302.9294,3.734148
302.7390,3.736165
302.7242,3.767853
302.5340,3.769871
302.5132,3.814486
302.3233,3.816504
302.3026,3.860866
302.0894,3.862883
302.0747,3.894570
301.8852,3.896842
301.8714,3.926501
301.6823,3.928519
301.6686,3.958178
301.4562,3.960195
301.4454,3.983516
301.2569,3.985534
301.2412,4.019503
301.0528,4.021521
301.0402,4.048899
300.8286,4.051169
300.8170,4.076519
300.6292,4.078537
300.6184,4.101858
300.4309,4.103876
300.4202,4.127198
300.2096,4.129215
300.2018,4.146199
300.0148,4.148217
300.0128,4.152526
299.8269,4.152516
299.8260,4.154544
299.4318,4.154523
299.4192,4.182154
299.2467,4.154513
299.0387,4.154501
298.6725,4.148143
298.6714,4.150425
298.4710,4.135457
298.4662,4.146104
298.2937,4.120744
298.2880,4.133419
298.1157,4.108059
298.1109,4.118706
297.9188,4.087007
297.9102,4.106020
297.7442,4.067731
297.7365,4.084716
297.5697,4.048709
297.5621,4.065693
297.3707,4.033994
297.3650,4.046669
297.1947,4.019281
297.1890,4.031956
297.0151,4.012934
297.0133,4.016990
296.8198,3.991628
296.8102,4.012922
296.6398,3.987309
296.6388,3.989590
296.4627,3.976905
296.4590,3.985271
296.2624,3.968275
296.2596,3.974612
296.0849,3.959899
296.0821,3.966237
295.9076,3.951524
295.9048,3.957861
295.7296,3.945176
295.7268,3.951514
295.5303,3.936546
295.5275,3.942883
295.3537,3.928170
295.3500,3.936536
295.1764,3.921823
295.1736,3.928160
294.9787,3.911164
294.9749,3.919783
294.8055,3.896451
294.7999,3.909126
294.6336,3.879457
294.6271,3.894160
294.4384,3.864742
294.4328,3.877417
294.2650,3.852057
294.2594,3.864732
294.0900,3.843428
294.0862,3.852047
293.8919,3.837079
293.8891,3.843417
293.7153,3.833013
293.7144,3.835041
293.3389,3.828682
293.1612,3.828672
292.6073,3.828640
292.6064,3.830668
292.2291,3.834956
292.2282,3.836984
292.0509,3.839256
292.0482,3.845593
291.8720,3.845583
291.8684,3.853948
291.6705,3.853937
291.6678,3.860274
291.4912,3.862292
291.4894,3.866602
291.3130,3.868620
291.3093,3.877239
291.1122,3.877227
291.1086,3.885593
290.9336,3.885582
290.9290,3.896229
290.7542,3.896219
290.7506,3.904585
290.5542,3.904573
290.5497,3.915220
290.3753,3.915210
290.3717,3.923576
290.1967,3.925847
290.1931,3.934212
289.9966,3.936229
289.9929,3.944848
289.8184,3.946866
289.8148,3.955231
289.6404,3.957502
289.6368,3.965868
289.4627,3.967886
289.4581,3.978533
289.2627,3.980549
289.2608,3.984859
289.0872,3.986877
289.0808,4.001833
288.9074,4.003851
288.9037,4.012470
288.7090,4.014486
288.7054,4.022852
288.5323,4.025123
288.5288,4.033489
288.3569,4.033478
288.3533,4.041844
288.1602,4.041833
288.1584,4.046142
287.9860,4.048160
287.9842,4.052469
287.8121,4.054487
287.8103,4.058797
287.6170,4.060813
287.6161,4.063095
287.4444,4.065113
287.2738,4.065102
287.0812,4.067119
286.7427,4.063043
286.3822,4.063021
286.2146,4.058702
286.2138,4.060730
286.0278,4.050325
286.0252,4.056662
285.8633,4.039668
285.8598,4.048033
285.6998,4.026983
285.6954,4.037630
285.5111,4.024943
285.3489,4.009977
285.3427,4.024933
285.1843,4.001601
285.1816,4.007939
284.9962,3.999562
284.9953,4.001590
284.8311,3.993214
284.8284,3.999552
284.6671,3.984585
284.6645,3.990922
284.4815,3.978236
284.4789,3.984574
284.3161,3.973916
284.3152,3.976198
284.1526,3.965541
284.1500,3.971878
283.9677,3.959192
283.9659,3.963502
283.8029,3.954872
283.8020,3.957154
283.6400,3.946497
283.6374,3.952834
283.2907,3.938110
283.2890,3.942166
282.9612,3.933780
282.7760,3.931741
282.7752,3.933769
282.6126,3.927421
282.6118,3.929449
282.4477,3.927411
282.2632,3.925372
281.2381,3.925308
281.2372,3.927336
281.0739,3.927326
281.0731,3.929354
280.9090,3.931625
280.9082,3.933653
280.7241,3.935670
280.7232,3.937951
280.5596,3.939969
280.5579,3.944279
280.3946,3.946297
280.3920,3.952634
280.2094,3.952623
280.2069,3.958960
280.0439,3.960978
280.0422,3.965287
279.8794,3.967305
279.8769,3.973643
279.6940,3.975913
279.6915,3.982250
279.5292,3.984268
279.5266,3.990606
279.3644,3.992877
279.3628,3.996933
279.1806,3.999203
279.1790,4.003259
279.0171,4.005530
279.0138,4.013896
278.8530,4.013886
278.8505,4.020223
278.6699,4.020212
278.6674,4.026549
278.5062,4.028567
278.5045,4.032876
278.3435,4.034894
278.3410,4.041232
278.1602,4.043502
278.1594,4.045530
277.9988,4.047548
277.9971,4.051857
277.8367,4.053875
277.8350,4.058184
277.6756,4.058174
277.6731,4.064512
277.4940,4.064500
277.4923,4.068810
277.3325,4.070828
277.3308,4.075137
277.1720,4.075127
277.1712,4.077155
276.9927,4.077144
276.9920,4.079172
276.6753,4.079151
276.4965,4.081421
276.3396,4.079130
276.0047,4.079108
275.8489,4.075042
275.8482,4.077070
275.6927,4.072750
275.6918,4.075032
275.5186,4.066402
275.5169,4.070711
275.3634,4.062335
275.3618,4.066391
275.2085,4.058016
275.2068,4.062325
275.0342,4.053695
275.0333,4.055976
274.8795,4.049629
274.8788,4.051657
274.7252,4.045309
274.7244,4.047337
274.5515,4.040988
274.5506,4.043270
274.3974,4.036922
274.3966,4.038950
274.0696,4.030563
274.0688,4.032591
273.4342,4.021902
273.2806,4.019864
273.2798,4.021892
272.1664,4.019791
272.1656,4.021819
271.6858,4.028125
271.6842,4.032434
271.5127,4.032423
271.5111,4.036732
271.3588,4.036722
271.3565,4.043059
271.2037,4.045077
271.2020,4.049387
271.0304,4.051403
271.0288,4.055713
270.8764,4.057731
270.8747,4.062040
270.7225,4.064058
270.7209,4.068367
270.5499,4.070384
270.5491,4.072412
270.3971,4.074683
270.3947,4.081021
270.2430,4.083039
270.2414,4.087348
270.0710,4.089365
270.0694,4.093674
269.9180,4.095692
269.9157,4.102030
269.7644,4.104301
269.7636,4.106329
269.5938,4.108345
269.5915,4.114683
269.4405,4.116954
269.4382,4.123292
269.2875,4.125310
269.2859,4.129619
269.1167,4.131636
269.1151,4.135945
268.9648,4.137963
268.9632,4.142272
268.8131,4.144290
268.8115,4.148600
268.6429,4.150616
268.6413,4.154926
268.4916,4.156944
268.4900,4.161253
268.3404,4.163271
268.3380,4.169608
268.1700,4.171625
268.1692,4.173906
268.0199,4.175924
268.0176,4.182262
267.8684,4.184533
267.8670,4.188589
267.6994,4.190859
267.6980,4.194915
267.5491,4.197186
267.5468,4.203524
267.3983,4.205542
267.3967,4.209851
267.2483,4.211869
267.2467,4.216179
267.0801,4.218195
267.0778,4.224533
266.9298,4.226550
266.9282,4.230860
266.7803,4.232878
266.7788,4.237187
266.6127,4.239204
266.6111,4.243513
266.4636,4.245531
266.4620,4.249841
266.3147,4.251858
266.3131,4.256168
266.1476,4.258185
266.1461,4.262494
265.9990,4.264765
265.9975,4.268821
265.8506,4.271093
265.8491,4.275149
265.6841,4.277419
265.6818,4.283756
265.5353,4.285774
265.5338,4.290083
265.3875,4.292101
265.3852,4.298439
265.2209,4.300455
265.2193,4.304765
265.0733,4.306783
265.0725,4.309064
264.9267,4.311082
264.9244,4.317419
264.7607,4.319436
264.7598,4.321718
264.6144,4.323735
264.6121,4.330073
264.4668,4.332091
264.4660,4.334372
264.3028,4.336389
264.3005,4.342726
264.1563,4.342716
264.1540,4.349054
264.0092,4.351071
264.0077,4.355381
263.8457,4.355369
263.8435,4.361707
263.6989,4.363978
263.6982,4.366006
263.5539,4.368024
263.5516,4.374362
263.3903,4.374350
263.3880,4.380688
263.2440,4.382959
263.2433,4.384987
263.0994,4.387005
263.0972,4.393342
262.9356,4.395612
262.9342,4.399668
262.7914,4.399658
262.7892,4.405996
262.6466,4.405985
262.6443,4.412323
262.4841,4.412312
262.4819,4.418649
262.3396,4.418639
262.3374,4.424976
262.1952,4.424966
262.1937,4.429276
262.0511,4.431293
262.0496,4.435603
261.8893,4.437620
261.8871,4.443957
261.7455,4.443947
261.7432,4.450538
261.6010,4.452556
261.5995,4.456865
261.4398,4.458882
261.4383,4.463191
261.2964,4.465209
261.2949,4.469519
261.1532,4.471536
261.1510,4.477874
260.9919,4.479890
260.9882,4.490537
260.8475,4.490527
260.8461,4.494837
260.7055,4.494827
260.7033,4.501164
260.5448,4.503181
260.5426,4.509518
260.4017,4.511536
260.3995,4.517873
260.2587,4.520145
260.2573,4.524201
260.0991,4.526471
260.0970,4.532808
259.9565,4.534826
259.9544,4.541164
259.8140,4.543435
259.8119,4.549772
259.6543,4.551789
259.6529,4.556098
259.5129,4.558116
259.5108,4.564454
259.3710,4.566472
259.3680,4.575090
259.2111,4.577107
259.2089,4.583445
259.0695,4.585462
259.0673,4.591800
258.9279,4.594071
258.9250,4.602437
258.7686,4.604453
258.7671,4.608763
258.6282,4.610781
258.6245,4.621427
258.4857,4.623445
258.4835,4.630036
258.3276,4.632053
258.3247,4.640418
258.1861,4.642690
258.1833,4.651055
258.0450,4.653073
258.0420,4.661692
257.8867,4.663708
257.8845,4.670046
257.7465,4.672064
257.7436,4.680683
257.6057,4.682701
257.6029,4.691066
257.4487,4.691055
257.4451,4.701702
257.3083,4.701691
257.3061,4.708029
257.1687,4.710047
257.1665,4.716638
257.0292,4.718655
257.0264,4.727021
256.8722,4.729291
256.8708,4.733347
256.7338,4.735618
256.7317,4.741956
256.5949,4.743974
256.5934,4.748283
256.4398,4.750300
256.4383,4.754609
256.3025,4.754599
256.2997,4.762964
256.1634,4.764982
256.1626,4.767264
256.0102,4.767252
256.0095,4.769280
255.8742,4.769270
255.8735,4.771298
255.7383,4.771288
255.4500,4.775576
255.1638,4.775554
255.0287,4.777572
254.8944,4.777562
254.7441,4.775523
254.6101,4.775513
254.4769,4.773475
254.3272,4.771182
254.3265,4.773463
254.1943,4.769143
254.1936,4.771171
254.0623,4.764824
254.0615,4.767105
253.9137,4.760756
253.9130,4.762784
253.7833,4.752127
253.7813,4.758465
253.5036,4.743740
253.5022,4.748050
253.3723,4.739421
253.3716,4.741702
253.2418,4.733073
253.2404,4.737383
253.0941,4.729006
253.0935,4.731034
252.9626,4.726714
252.9619,4.728996
252.8325,4.720367
252.8305,4.726704
252.6847,4.718327
252.6840,4.720355
252.4239,4.709688
252.4225,4.713997
252.0158,4.701291
252.0152,4.703319
251.7387,4.696960
251.6085,4.694922
251.6078,4.696950
251.3315,4.692872
251.3308,4.694900
251.0714,4.690570
251.0707,4.692852
250.7950,4.690549
250.6657,4.688511
250.1152,4.688468
249.9866,4.686429
249.5838,4.686398
249.4545,4.688416
248.5098,4.688341
248.3816,4.690359
247.7301,4.690307
247.5881,4.688267
247.1930,4.688236
247.0674,4.686198
246.7997,4.686176
246.6746,4.683884
246.5496,4.681846
246.5489,4.683874
246.4090,4.679807
246.4083,4.681835
246.2849,4.675487
246.2836,4.679797
246.1596,4.675477
245.8965,4.667090
245.8952,4.671146
245.7729,4.662770
245.7723,4.664798
245.6332,4.660731
245.6326,4.662759
245.5099,4.656411
245.5086,4.660721
245.3868,4.652092
245.3861,4.654373
245.2481,4.648024
245.2469,4.652080
245.1258,4.641677
245.1239,4.648014
245.0031,4.637357
245.0018,4.641667
244.8656,4.631008
244.8636,4.637346
244.7444,4.622379
244.7424,4.628970
244.6219,4.618313
244.6207,4.622369
244.4848,4.611964
244.4829,4.618302
244.3633,4.605617
244.3621,4.609673
244.2419,4.599269
244.2400,4.605607
244.1046,4.594948
244.1040,4.596976
243.9841,4.586573
243.9822,4.592910
243.8631,4.580225
243.8612,4.586563
243.7262,4.575904
243.7256,4.577932
243.6055,4.569557
243.6042,4.573866
243.4842,4.565237
243.4835,4.567518
243.3643,4.556861
243.3624,4.563199
243.2280,4.552541
243.2273,4.554822
243.1078,4.546193
243.1065,4.550502
242.9869,4.542127
242.9863,4.544155
242.8523,4.533496
242.8504,4.539834
242.7318,4.529177
242.7312,4.531458
242.6121,4.522829
242.6108,4.527139
##END=
