##TITLE=1-Indanone
##JCAMP-DX=4.24
##DATA TYPE=UV/VIS SPECTRUM
##ORIGIN=INSTITUTE OF ENERGY PROBLEMS OF CHEMICAL PHYSICS, RAS
##OWNER=INEP CP RAS, NIST OSRD
Collection (C) 2007 copyright by the U.S. Secretary of Commerce
on behalf of the United States of America. All rights reserved.
##CAS REGISTRY NO=83-33-0
##MOLFORM=C9H8O
##MP=42
##BP=243; 129(12)
##SOURCE REFERENCE=RAS UV No. 8989
##$NIST SQUIB=1966PER/SCHd8/9C
##$NIST SOURCE=TSGMTE
##SPECTROMETER/DATA SYSTEM=Zeiss MM12 or PMQ II
##XUNITS=Wavelength (nm)
##YUNITS=Logarithm epsilon
##XFACTOR=1.000000
##YFACTOR=1.000000
##FIRSTX=352.2347
##LASTX=187.6397
##FIRSTY=1.03949
##MAXX=352.235
##MINX=187.64
##MAXY=4.60182
##MINY=1.03949
##NPOINTS=383
##$REF AUTHOR=Perkampus, H.-H.; Schmiele, C.; Braunschweig, T.H.
##$REF TITLE=Indan-1-one
##$REF BOOK TITLE=UV Atlas of Organic Compounds - Vol. 2
##$REF PAGE=D8/9
##$REF DATE=1966
##$REF PUBLISHER=Plenum Press
##$REF LOCATION=New York
##XYPOINTS=(XY..XY)
352.2347,1.039486
351.2791,1.079199
350.2567,1.118572
349.1515,1.157629
347.9479,1.196392
346.6308,1.234882
346.6308,1.234882
346.2796,1.236462
346.1131,1.237865
345.9883,1.240290
345.7403,1.235945
345.5781,1.235950
345.4024,1.235957
345.2201,1.235965
345.2201,1.235965
344.6367,1.227658
343.9615,1.220438
342.9598,1.212491
342.5688,1.213531
341.2864,1.232262
340.4283,1.261222
339.8934,1.284361
339.8934,1.284361
338.5231,1.352543
337.9007,1.381068
337.4860,1.394380
337.4860,1.394380
335.9100,1.405884
333.7739,1.412746
331.6422,1.412832
331.6422,1.412832
330.6573,1.401917
329.4276,1.385206
328.8223,1.369149
328.8223,1.369149
328.3653,1.365991
327.8736,1.364087
327.3281,1.361788
327.3281,1.361788
325.8150,1.390267
325.4152,1.430030
324.8588,1.469417
322.9009,1.496765
322.9009,1.496765
322.2512,1.495658
321.8158,1.493685
321.2216,1.489159
321.2216,1.489159
319.3655,1.456436
317.1803,1.422762
315.7615,1.388994
315.7615,1.388994
315.0734,1.388382
314.6649,1.388669
314.1849,1.390097
314.1849,1.390097
313.0139,1.431995
311.8282,1.471447
309.0566,1.493102
309.0566,1.493102
308.5242,1.476173
307.8012,1.463411
306.2026,1.461227
306.2026,1.461227
304.9961,1.500459
304.1029,1.542675
303.4272,1.586024
302.8760,1.628652
302.3582,1.668709
302.3582,1.668709
302.0659,1.700198
301.7838,1.731684
301.5115,1.763167
301.2486,1.794646
300.9948,1.826122
300.7496,1.857597
300.5128,1.889068
300.2839,1.920537
300.0627,1.952004
299.8487,1.983468
299.6416,2.014931
299.4410,2.046392
299.2467,2.077852
299.0582,2.109310
298.8752,2.140767
298.6974,2.172224
298.5245,2.203679
298.3560,2.235134
298.1917,2.266588
298.0313,2.298042
297.8744,2.329496
297.7207,2.360950
297.5698,2.392404
297.4215,2.423859
297.2754,2.455314
297.1311,2.486770
296.9885,2.518227
296.8470,2.549685
296.7065,2.581145
296.5667,2.612605
296.4271,2.644068
296.2875,2.675532
296.1475,2.706998
296.0070,2.738467
295.8654,2.769937
295.7226,2.801410
295.5783,2.832886
295.4320,2.864365
295.2836,2.895846
295.2836,2.895846
295.1685,2.930530
295.0652,2.961408
294.9704,2.989283
294.8806,3.014956
294.7923,3.039227
294.7022,3.062900
294.6066,3.086775
294.5024,3.111653
294.3859,3.138337
294.2539,3.167627
294.1030,3.200326
293.9298,3.237234
293.7309,3.279153
293.5031,3.326885
293.2431,3.381231
292.9477,3.442993
292.9477,3.442993
292.6061,3.458945
292.2263,3.474672
292.1335,3.488902
291.9512,3.471747
291.7752,3.470466
291.5944,3.469130
291.4042,3.467679
291.4042,3.467679
291.0482,3.428652
290.6921,3.389612
290.3347,3.350547
289.9751,3.311446
289.6122,3.272296
289.6122,3.272296
289.4969,3.268716
289.3721,3.265136
289.2426,3.261557
289.2426,3.261557
288.9428,3.262012
288.6436,3.262352
288.3450,3.262636
288.3450,3.262636
288.0002,3.268037
287.6469,3.273439
287.2897,3.278841
287.2897,3.278841
285.9761,3.319279
284.7667,3.359312
283.4344,3.398728
283.4344,3.398728
283.0363,3.401429
282.7114,3.402246
282.1643,3.401882
282.1643,3.401882
281.2662,3.370254
280.0766,3.322247
278.7450,3.270663
278.7450,3.270663
278.2040,3.258153
277.8824,3.250297
277.5050,3.244097
277.5050,3.244097
276.5539,3.222988
274.7599,3.192256
273.6620,3.173891
273.6620,3.173891
273.3193,3.163762
272.9172,3.149480
272.2441,3.122537
271.0935,3.074425
269.2700,2.996635
269.2700,2.996635
269.2064,2.995661
269.1275,2.993837
269.0088,2.990188
268.8259,2.983740
268.5547,2.973517
268.1714,2.958546
267.6527,2.937850
266.9760,2.910456
266.1198,2.875389
265.0637,2.831673
263.7891,2.778334
262.2790,2.714397
260.5187,2.638888
258.4960,2.550831
258.4960,2.550831
257.9172,2.527426
257.1645,2.506654
255.7987,2.494412
255.5142,2.495459
254.4175,2.524951
253.8053,2.573536
253.4921,2.610142
253.4921,2.610142
252.7214,2.710262
252.2488,2.771213
251.9889,2.803051
251.8585,2.815829
251.7753,2.819601
251.7753,2.819601
251.7395,2.837862
251.6360,2.866015
251.4829,2.902540
251.2985,2.945922
251.1008,2.994643
250.9078,3.047185
250.9078,3.047185
250.8567,3.054123
250.7633,3.072298
250.6352,3.099900
250.4797,3.135119
250.3044,3.176144
250.1167,3.221166
249.9241,3.268374
249.7337,3.315959
249.5531,3.362110
249.3895,3.405017
249.2500,3.442869
249.1420,3.473858
249.0726,3.496172
249.0491,3.508002
249.0491,3.508002
248.6788,3.587572
248.3577,3.656687
248.0812,3.716239
247.8445,3.767119
247.6431,3.810218
247.4724,3.846428
247.3279,3.876639
247.2053,3.901744
247.1001,3.922633
247.0079,3.940198
246.9243,3.955329
246.8450,3.968919
246.7656,3.981859
246.6818,3.995039
246.5894,4.009352
246.5894,4.009352
246.2286,4.036626
246.0468,4.047999
245.8875,4.053222
245.8875,4.053222
245.3745,4.052211
245.1062,4.050839
244.8517,4.047928
244.8517,4.047928
244.4081,4.027809
243.8166,4.006508
243.2448,3.985034
243.2448,3.985034
243.0622,3.984462
242.8764,3.983775
242.6842,3.983032
242.6842,3.983032
241.3419,4.013608
240.4161,4.047632
239.5665,4.081986
238.4635,4.113552
238.4635,4.113552
237.1218,4.102815
236.0387,4.078505
235.2107,4.052863
235.2107,4.052863
233.9720,4.022931
232.6877,3.992788
231.3428,3.962892
229.9233,3.933701
229.9233,3.933701
229.6215,3.924497
229.1491,3.912177
228.9023,3.899722
228.9023,3.899722
228.5534,3.888036
228.2221,3.871110
228.0079,3.857020
228.0079,3.857020
227.2607,3.831187
226.6510,3.797995
225.7811,3.769612
225.7811,3.769612
225.0357,3.741350
223.5542,3.697391
222.4333,3.667460
222.4333,3.667460
222.3521,3.661823
222.2652,3.656128
222.1756,3.650320
222.1756,3.650320
222.0489,3.649308
221.9223,3.648296
221.7959,3.647284
221.7959,3.647284
221.0773,3.626101
220.1426,3.606365
219.1397,3.588629
219.1397,3.588629
217.9101,3.576317
216.9573,3.577813
215.8065,3.594361
215.8065,3.594361
215.1233,3.611848
214.7054,3.623783
214.1935,3.640398
214.1935,3.640398
214.0605,3.649152
213.7774,3.661680
213.5202,3.670448
213.5202,3.670448
213.4437,3.678389
213.1652,3.698252
212.6172,3.743311
212.6172,3.743311
212.3809,3.776182
212.1510,3.809044
211.9272,3.841898
211.7093,3.874743
211.4970,3.907579
211.2900,3.940408
211.0880,3.973229
210.8908,4.006042
210.6981,4.038849
210.5096,4.071648
210.3252,4.104441
210.1444,4.137227
209.9672,4.170007
209.7931,4.202782
209.6221,4.235550
209.4537,4.268313
209.2878,4.301071
209.1241,4.333824
208.9625,4.366573
208.9625,4.366573
208.7241,4.403419
208.4837,4.440151
208.2390,4.476827
208.2390,4.476827
207.3843,4.522142
206.2612,4.562252
204.8956,4.598919
204.8956,4.598919
203.7245,4.601820
202.7087,4.590186
201.5452,4.577034
201.5452,4.577034
200.7508,4.555069
200.2468,4.527945
199.8153,4.498079
199.8153,4.498079
199.3399,4.483164
198.7271,4.456482
198.1481,4.435261
198.1481,4.435261
197.6496,4.413376
196.7729,4.377534
196.3077,4.356328
196.3077,4.356328
195.5307,4.326709
194.1386,4.255153
194.1386,4.255153
193.7244,4.234701
193.0107,4.206205
192.4873,4.185940
192.4873,4.185940
191.9121,4.165606
191.3646,4.141170
190.7520,4.117768
190.7520,4.117768
190.4374,4.104384
189.9460,4.086469
189.5852,4.075142
189.5852,4.075142
189.0687,4.057013
188.1485,4.026929
187.6397,4.008288
187.6397,4.008288
##END=
