##TITLE=5-Amino-1-naphthol
##JCAMP-DX=4.24
##DATA TYPE=UV/VIS SPECTRUM
##ORIGIN=INSTITUTE OF ENERGY PROBLEMS OF CHEMICAL PHYSICS, RAS
##OWNER=INEP CP RAS, NIST OSRD
Collection (C) 2007 copyright by the U.S. Secretary of Commerce
on behalf of the United States of America. All rights reserved.
##CAS REGISTRY NO=83-55-6
##MOLFORM=C10H9NO
##MP=170
##SOURCE REFERENCE=RAS UV No. 547
##$NIST SQUIB=1951PER/SAV1451-1461
##$NIST SOURCE=TSGMTE
##SPECTROMETER/DATA SYSTEM=Spectrophotometer SF-11
##XUNITS=Wavelength (nm)
##YUNITS=Logarithm epsilon
##XFACTOR=1.000000
##YFACTOR=1.000000
##FIRSTX=352.6841
##LASTX=214.8958
##FIRSTY=3.76485
##MAXX=352.684
##MINX=214.896
##MAXY=5.02971
##MINY=3.76485
##NPOINTS=511
##$REF AUTHOR=Perekalin, V.V.; Savostyanova, M.V.
##$REF TITLE=Azo dyes from 1,5-aminonaphthol and some of its derivatives. VIII. Research on the absorption spectra of some intermediates and azo dyes of the naphthalene series
##$REF JOURNAL=Zh. Obshch. Khim.
##$REF VOLUME=21
##$REF PAGE=1451-1461
##$REF DATE=1951
##XYPOINTS=(XY..XY)
352.6841,3.764852
350.3559,3.819962
350.3559,3.819962
349.4805,3.834812
347.7312,3.868194
344.6762,3.920282
344.6762,3.920282
344.0669,3.934803
343.6895,3.941347
343.2197,3.945810
343.2197,3.945810
339.9490,3.997470
338.4944,4.019715
337.5705,4.035124
337.5705,4.035124
336.9180,4.042451
336.2557,4.049658
335.5716,4.056750
335.5716,4.056750
335.1646,4.066471
334.7399,4.073245
333.9357,4.082876
333.9357,4.082876
333.3886,4.087354
332.8335,4.092689
332.2906,4.097290
332.2906,4.097290
330.8039,4.113606
328.7428,4.133772
326.4030,4.156125
326.4030,4.156125
325.8912,4.159653
325.3694,4.163154
324.8427,4.172565
324.8427,4.172565
324.8373,4.170595
324.8319,4.168616
324.8265,4.166629
324.8265,4.166629
323.3308,4.184909
322.0872,4.195355
320.4696,4.207950
320.4696,4.207950
319.6828,4.215141
318.9506,4.220706
317.6499,4.229375
317.6499,4.229375
316.9163,4.233029
316.5296,4.235332
316.1566,4.238266
315.1730,4.250711
313.9327,4.255234
312.7127,4.259710
311.5233,4.264139
311.5233,4.264139
310.8642,4.265087
310.2078,4.265982
309.5538,4.266775
309.5538,4.266775
307.9269,4.266894
306.3272,4.267012
304.7641,4.267128
304.7641,4.267128
304.2769,4.266268
303.8113,4.265456
303.3575,4.264742
303.3575,4.264742
302.2208,4.261587
301.3995,4.259000
300.5737,4.256706
300.5737,4.256706
298.0126,4.243356
295.5139,4.229691
293.0663,4.215638
293.0663,4.215638
292.4709,4.211167
291.8875,4.206764
291.3250,4.202373
291.3250,4.202373
289.6825,4.191759
288.4885,4.183703
287.4249,4.177399
287.4249,4.177399
286.4416,4.168808
285.4650,4.160043
284.4950,4.151098
284.4950,4.151098
282.7529,4.138132
281.0492,4.124835
279.3747,4.111260
279.3747,4.111260
279.0268,4.107407
278.6881,4.103518
278.3671,4.099592
278.3671,4.099592
276.6586,4.084818
275.7486,4.077487
274.8471,4.071608
274.8471,4.071608
274.6971,4.069142
274.5555,4.066661
274.4304,4.064164
274.4304,4.064164
273.7734,4.059200
273.1359,4.054258
272.5096,4.049424
272.5096,4.049424
270.9017,4.034120
269.4339,4.020633
268.5974,4.011516
268.5974,4.011516
267.5119,4.004046
265.3896,3.988419
261.7402,3.961093
261.7402,3.961093
261.3385,3.960278
260.9382,3.959563
260.5393,3.959051
260.5393,3.959051
260.4060,3.957256
260.2804,3.955554
260.1698,3.954049
259.8398,3.954119
259.1725,3.954260
258.4942,3.954404
257.8122,3.954550
257.8122,3.954550
257.7069,3.956099
257.5875,3.957850
257.4611,3.959698
257.4611,3.959698
256.6883,3.961252
255.9202,3.962902
255.8090,3.978437
255.6679,3.980315
255.4125,3.981048
255.1569,3.964747
255.1569,3.964747
255.0470,3.973163
254.9610,3.977424
254.8254,3.981265
254.8254,3.981265
254.6765,3.989933
254.3096,3.993964
253.9320,3.999822
253.2218,4.012306
253.2218,4.012306
252.3049,4.033256
251.7003,4.045145
250.8891,4.058543
250.8891,4.058543
250.1056,4.078411
249.7446,4.086446
249.4937,4.090112
249.4937,4.090112
249.3421,4.091168
249.1841,4.092296
249.0130,4.093574
249.0130,4.093574
248.7963,4.099064
248.6470,4.104402
248.4370,4.114062
248.4370,4.114062
247.1159,4.143259
246.3197,4.161228
245.7242,4.173813
245.7242,4.173813
245.3097,4.184575
245.0482,4.192262
244.7154,4.203443
244.7154,4.203443
244.5162,4.206606
244.3174,4.209804
244.1192,4.213092
244.1192,4.213092
243.7059,4.224865
243.1563,4.238281
242.2679,4.259840
242.2679,4.259840
241.8673,4.274335
241.6888,4.281496
241.5786,4.287720
240.8690,4.302203
240.6538,4.309177
240.5067,4.312476
240.3019,4.314993
240.3019,4.314993
240.2719,4.318079
240.2295,4.321234
240.1809,4.324411
239.9044,4.339611
239.6207,4.347601
239.4873,4.352885
239.3895,4.360012
239.3895,4.360012
239.2987,4.360621
239.1958,4.361312
239.1215,4.376850
239.0883,4.378080
239.0868,4.362043
239.0426,4.379307
238.9908,4.380531
238.9908,4.380531
238.8774,4.391195
238.6826,4.391213
238.6821,4.382546
238.5690,4.383498
238.5543,4.384210
238.4880,4.391231
238.3026,4.394797
238.2997,4.393617
238.2967,4.392435
238.2938,4.391248
238.2938,4.391248
238.1552,4.444389
238.1166,4.430197
238.1166,4.430197
238.0904,4.420312
238.0502,4.439751
238.0402,4.436076
238.0053,4.429591
238.0006,4.420843
237.9003,4.429018
237.8987,4.421444
237.8447,4.489718
237.8079,4.428513
237.8079,4.428513
237.8021,4.426333
237.7965,4.424177
237.7909,4.422081
237.7909,4.422081
237.7766,4.494834
237.7411,4.454515
237.7303,4.463273
237.7074,4.471921
237.7024,4.499890
237.6785,4.480432
237.6159,4.504889
237.6159,4.504889
237.5272,4.505553
237.4264,4.506246
237.3948,4.530030
237.3948,4.530030
237.3697,4.522450
237.3446,4.514763
237.3212,4.532989
237.3197,4.506995
237.3197,4.506995
237.2416,4.535954
237.1550,4.550668
237.1501,4.538955
237.1501,4.538955
237.1479,4.562125
237.1347,4.573313
237.1347,4.573313
237.0456,4.573686
236.9446,4.574109
236.8377,4.574557
236.8377,4.574557
236.7729,4.580720
236.7036,4.588984
236.5715,4.600686
236.3338,4.624637
236.3185,4.616961
236.3185,4.616961
236.2610,4.634302
236.0381,4.653728
236.0381,4.653728
235.9498,4.654038
235.8497,4.654389
235.7437,4.654762
235.7437,4.654762
235.7416,4.662195
235.7274,4.669523
235.7074,4.676770
235.7074,4.676770
235.5471,4.684384
235.4720,4.690749
235.4173,4.701234
235.4173,4.701234
235.3295,4.701512
235.2299,4.701827
235.1245,4.702160
235.1245,4.702160
235.1098,4.706292
235.0832,4.710403
235.0507,4.714512
235.0507,4.714512
234.8864,4.719888
234.7000,4.727914
234.5195,4.737088
234.3724,4.746011
234.2862,4.753387
234.2862,4.753387
234.1992,4.753634
234.1006,4.753913
233.9962,4.754209
233.9962,4.754209
233.8847,4.758245
233.7733,4.762259
233.6623,4.766268
233.6623,4.766268
233.5294,4.766510
233.4855,4.782017
233.4855,4.782017
233.4611,4.777790
233.4369,4.773537
233.4128,4.769274
233.4128,4.769274
233.4081,4.783811
233.3910,4.766783
233.3554,4.768515
233.3191,4.785598
233.2981,4.767786
233.2410,4.767072
233.2410,4.767072
233.2241,4.787377
233.2241,4.787377
233.1859,4.793412
233.0661,4.800514
232.9504,4.808152
232.9504,4.808152
232.8645,4.808369
232.7670,4.808616
232.6638,4.808877
232.6638,4.808877
232.6192,4.814679
232.5688,4.820404
232.5066,4.826055
232.5066,4.826055
232.3248,4.826498
232.2949,4.838238
232.2949,4.838238
232.1853,4.836385
232.1433,4.826940
232.1287,4.838165
232.0990,4.833585
232.0235,4.836972
231.9620,4.827382
231.9620,4.827382
231.9517,4.846062
231.9508,4.838066
231.9285,4.837322
231.8786,4.847078
231.8450,4.837645
231.7999,4.848105
231.7673,4.837953
231.7673,4.837953
231.7098,4.849156
231.7098,4.849156
231.6478,4.852811
231.5743,4.856448
231.4952,4.860082
231.4952,4.860082
231.3132,4.861944
231.1828,4.863657
231.0037,4.870472
230.9920,4.866679
230.9920,4.866679
230.9346,4.875076
230.7255,4.884328
230.7255,4.884328
230.6411,4.884510
230.6404,4.890557
230.6404,4.890557
230.5749,4.888675
230.5455,4.884717
230.5094,4.886798
230.4605,4.894768
230.4442,4.884936
230.4442,4.884936
230.3357,4.896989
230.1588,4.899141
230.1588,4.899141
230.1501,4.902501
230.1299,4.905836
230.1040,4.909145
230.1040,4.909145
230.0201,4.909317
229.9249,4.909513
229.8242,4.909720
229.8242,4.909720
229.7383,4.915394
229.6524,4.920995
229.5666,4.926525
229.5666,4.926525
229.2843,4.936679
229.0583,4.944683
228.8816,4.950905
228.7473,4.955670
228.6487,4.959274
228.5789,4.961993
228.5312,4.964091
228.4991,4.965821
228.4759,4.967434
228.4548,4.969174
228.4548,4.969174
228.3721,4.969324
228.2783,4.969495
228.1791,4.969675
228.1791,4.969675
228.1466,4.974899
228.1087,4.980081
228.0596,4.985212
228.0596,4.985212
227.9771,4.985356
227.8837,4.985520
227.7848,4.985694
227.7848,4.985694
227.6100,4.993845
227.4700,5.000315
227.3604,5.005402
227.2770,5.009375
227.2155,5.012484
227.1719,5.014966
227.1419,5.017051
227.1214,5.018961
227.1062,5.020915
227.0923,5.023128
227.0923,5.023128
227.0105,5.023261
226.9179,5.023411
226.8707,5.028879
226.8707,5.028879
226.8537,5.027117
226.8368,5.025347
226.8198,5.023570
226.8198,5.023570
226.6715,5.029157
226.4672,5.029435
226.2521,5.029714
226.2521,5.029714
225.9997,5.029523
225.7422,5.029324
225.4741,5.029107
225.4741,5.029107
224.8790,5.023231
224.3973,5.017993
224.0237,5.013753
223.7533,5.010876
223.7533,5.010876
223.3473,5.005488
223.0854,5.001530
222.7427,4.995600
222.7427,4.995600
222.6617,4.995463
222.5698,4.995307
222.4726,4.995143
222.4726,4.995143
222.4271,4.993480
222.3706,4.991793
222.3088,4.990090
222.3088,4.990090
222.1201,4.988371
222.0124,4.986690
221.8930,4.983598
221.8930,4.983598
221.8126,4.983457
221.7215,4.983297
221.6250,4.983128
221.6250,4.983128
221.2306,4.976174
220.9020,4.970387
220.6291,4.965594
220.4022,4.961609
220.2117,4.958230
220.0482,4.955246
219.9021,4.952439
219.7642,4.949584
219.6251,4.946451
219.6251,4.946451
219.5463,4.946297
219.4570,4.946123
219.3625,4.945938
219.3625,4.945938
219.2231,4.942169
219.0135,4.937649
218.7593,4.932435
218.4859,4.926581
218.2186,4.920143
218.2186,4.920143
218.1408,4.919980
218.0527,4.919795
217.9593,4.919599
217.9593,4.919599
217.6647,4.912915
217.5187,4.909051
217.3957,4.904735
217.3957,4.904735
217.3186,4.904566
217.2311,4.904374
217.1384,4.904171
217.1384,4.904171
216.9948,4.899830
216.8513,4.895446
216.7081,4.891017
216.7081,4.891017
216.2410,4.881346
215.9210,4.874520
215.7087,4.869809
215.5654,4.866404
215.4529,4.863454
215.3331,4.860080
215.3331,4.860080
215.2551,4.859503
215.1671,4.858914
215.0739,4.858298
215.0739,4.858298
215.0413,4.853419
214.9952,4.850481
214.8958,4.846985
##END=
