##TITLE=N-(4-Methoxybenzylidene)aniline
##JCAMP-DX=4.24
##DATA TYPE=UV/VIS SPECTRUM
##ORIGIN=INSTITUTE OF ENERGY PROBLEMS OF CHEMICAL PHYSICS, RAS
##OWNER=INEP CP RAS, NIST OSRD
Collection (C) 2007 copyright by the U.S. Secretary of Commerce
on behalf of the United States of America. All rights reserved.
##CAS REGISTRY NO=836-41-9
##MOLFORM=C14H13NO
##MP=191
##SOURCE REFERENCE=RAS UV No. 16014
##$NIST SQUIB=1971ASH/586
##$NIST SOURCE=TYUGLMTE
##SPECTROMETER/DATA SYSTEM=Zeiss PMQ II
##XUNITS=Wavelength (nm)
##YUNITS=Logarithm epsilon
##XFACTOR=1.0
##YFACTOR=1.0
##FIRSTX=201.14
##LASTX=360.36
##FIRSTY=4.45
##MAXX=360.36
##MINX=201.14
##MAXY=4.45
##MINY=3.374
##NPOINTS=173
##$REF AUTHOR=Ashraf El Bayoumi, M.; et al.
##$REF JOURNAL=J. Am. Chem. Soc.
##$REF VOLUME=93
##$REF PAGE=586
##$REF DATE=1971
##XYPOINTS=(XY..XY)
201.14,4.450
201.43,4.450
202.00,4.438
202.85,4.433
203.71,4.424
204.57,4.392
205.42,4.356
206.28,4.329
207.13,4.304
207.99,4.273
208.85,4.246
209.70,4.234
210.56,4.220
211.41,4.212
212.27,4.201
213.13,4.201
213.98,4.206
214.84,4.209
215.69,4.217
216.55,4.225
217.41,4.232
218.26,4.242
219.12,4.249
219.97,4.256
220.83,4.262
221.69,4.265
222.54,4.266
223.40,4.263
224.25,4.256
225.11,4.243
225.97,4.229
226.82,4.217
227.68,4.206
228.53,4.184
229.39,4.158
230.24,4.132
231.10,4.092
231.96,4.059
232.81,4.016
233.67,3.998
234.52,3.977
235.38,3.957
236.24,3.918
237.09,3.906
237.95,3.869
238.80,3.820
239.66,3.757
240.52,3.677
241.37,3.600
242.23,3.544
243.08,3.514
243.94,3.497
244.80,3.489
245.65,3.497
247.36,3.514
249.08,3.573
249.93,3.606
250.79,3.631
251.64,3.661
252.50,3.709
253.36,3.734
254.21,3.752
255.07,3.783
255.92,3.812
256.78,3.840
257.64,3.865
258.49,3.893
259.35,3.921
260.20,3.963
261.06,3.977
261.92,4.003
262.77,4.043
263.63,4.059
264.48,4.079
265.34,4.104
266.20,4.126
267.05,4.134
267.91,4.154
268.76,4.176
269.62,4.188
270.48,4.201
271.33,4.215
273.04,4.243
273.90,4.253
274.76,4.265
275.61,4.273
276.47,4.279
277.32,4.281
278.18,4.285
279.04,4.287
279.89,4.288
280.75,4.288
281.60,4.288
282.46,4.287
283.32,4.285
285.03,4.281
285.88,4.277
286.74,4.272
287.60,4.266
288.45,4.262
289.31,4.258
290.16,4.252
291.02,4.245
292.73,4.236
293.59,4.226
294.44,4.219
295.30,4.211
296.16,4.203
297.01,4.196
297.87,4.189
298.72,4.181
299.58,4.174
300.44,4.165
301.29,4.160
303.00,4.149
303.86,4.141
304.72,4.138
305.57,4.132
306.43,4.128
307.28,4.122
308.14,4.122
309.00,4.120
309.85,4.116
310.71,4.112
311.56,4.112
314.13,4.112
315.84,4.104
316.70,4.102
317.56,4.102
318.41,4.100
319.27,4.098
320.12,4.092
320.98,4.090
321.84,4.083
322.69,4.081
323.55,4.077
324.40,4.070
325.26,4.066
326.12,4.059
326.97,4.052
327.83,4.043
328.68,4.038
329.54,4.029
332.11,4.003
332.96,4.001
333.82,3.988
334.68,3.980
335.53,3.963
336.39,3.952
337.24,3.940
338.10,3.925
338.96,3.909
339.81,3.889
340.67,3.876
341.52,3.858
342.38,3.843
343.24,3.824
344.09,3.808
346.66,3.757
347.52,3.738
348.37,3.719
349.23,3.699
350.08,3.677
352.65,3.613
353.51,3.593
354.36,3.573
355.22,3.544
356.08,3.514
356.93,3.497
357.79,3.480
358.64,3.445
359.50,3.416
360.36,3.374
##END=
