##TITLE=Theobromine
##JCAMP-DX=4.24
##DATA TYPE=UV/VIS SPECTRUM
##ORIGIN=INSTITUTE OF ENERGY PROBLEMS OF CHEMICAL PHYSICS, RAS
##OWNER=INEP CP RAS, NIST OSRD
Collection (C) 2007 copyright by the U.S. Secretary of Commerce
on behalf of the United States of America. All rights reserved.
##CAS REGISTRY NO=83-67-0
##MOLFORM=C7H8N4O2
##MP=357
##BP=sub 290
##SOURCE REFERENCE=RAS UV No. 421
##$NIST SQUIB=1947FLO/HER90-91
##$NIST SOURCE=TSGMTE
##SPECTROMETER/DATA SYSTEM=n.i.g.
##XUNITS=Wavelength (nm)
##YUNITS=Logarithm epsilon
##XFACTOR=1.000000
##YFACTOR=1.000000
##FIRSTX=220.0137
##LASTX=299.9297
##FIRSTY=2.60805
##MAXX=299.93
##MINX=220.014
##MAXY=4.28615
##MINY=2.6077
##NPOINTS=423
##$REF AUTHOR=Florentin, D.; Heros, M.
##$REF TITLE=Spectre d'absorption et de fluorescence des derives de la theobromine, en particulier, de la benzyltheobromine
##$REF JOURNAL=Bull. Soc. Chim. Fr.
##$REF VOLUME=14
##$REF PAGE=90-91
##$REF DATE=1947
##XYPOINTS=(XY..XY)
220.0137,2.608045
220.0673,2.618968
220.1070,2.623396
220.1293,2.679071
220.1357,2.669862
220.1420,2.660833
220.1671,2.625125
220.2729,2.739556
220.2792,2.730633
220.2854,2.721710
220.2917,2.712786
220.3417,2.798760
220.3439,2.874263
220.3499,2.787087
220.3526,2.861809
220.3612,2.849536
220.3698,2.837352
220.3911,2.806932
220.4124,2.776511
220.4857,2.907973
220.4997,2.918539
220.5183,2.929197
220.5459,2.940038
220.5459,2.940038
220.5724,2.940466
220.6080,2.940986
220.6242,2.975759
220.6481,2.941688
220.6680,3.000668
220.7023,3.100325
220.7042,3.010249
220.7236,3.069905
220.7292,3.061913
220.7347,3.054101
220.7401,3.046379
220.7493,3.120667
220.7637,3.012714
220.7866,3.128566
220.8040,3.191226
220.8111,3.181086
220.8182,3.170945
220.8253,3.160805
220.8463,3.130790
220.9173,3.265497
220.9253,3.254155
220.9331,3.242903
220.9409,3.231831
221.0397,3.356403
221.0655,3.319493
221.0711,3.311500
221.0766,3.303689
221.0820,3.295967
221.0883,3.374461
221.1262,3.381518
221.1624,3.417288
221.1860,3.383623
221.2029,3.427156
221.2525,3.437206
221.2831,3.481013
221.3067,3.447348
221.3331,3.498111
221.3758,3.506011
221.4265,3.541905
221.4478,3.511484
221.4662,3.552989
221.5149,3.564256
221.5446,3.609280
221.5682,3.575615
221.5836,3.621476
221.6316,3.633765
221.6546,3.688418
221.6841,3.646235
221.8332,3.707654
221.9191,3.715145
221.9386,3.784642
221.9465,3.773300
221.9544,3.762048
221.9621,3.750976
221.9857,3.717311
222.0519,3.858913
222.0590,3.848772
222.0661,3.838632
222.0732,3.828492
222.1121,3.890978
222.1718,3.894254
222.2315,3.897621
222.2910,3.901168
222.2910,3.901168
222.3075,3.908189
222.3160,3.983529
222.3216,3.975537
222.3271,3.967725
222.3285,3.915392
222.3325,3.960004
222.3586,3.922688
222.6242,4.015661
222.6840,4.018908
222.7269,4.026387
222.7900,4.044509
223.6164,4.074753
223.6738,4.081379
223.7310,4.088186
223.7882,4.095083
224.6176,4.120865
224.8630,4.125815
225.1129,4.130855
225.3718,4.136079
225.3718,4.136079
225.5174,4.134901
225.6629,4.133724
225.8084,4.132546
226.5092,4.105960
226.6084,4.103147
226.6984,4.100331
226.7838,4.097515
226.7838,4.097515
226.8210,4.094685
226.8491,4.091853
226.8725,4.089019
226.8725,4.089019
226.9973,4.086739
227.1175,4.084638
227.2284,4.082624
227.9317,4.052388
227.9689,4.049573
227.9968,4.046846
228.0201,4.044298
228.0201,4.044298
228.1676,4.040281
228.3151,4.036264
228.4626,4.032247
229.0029,3.998721
229.0673,3.994276
229.1270,3.989829
229.1776,3.985380
232.3615,3.984617
232.5503,3.989551
232.7481,3.994578
232.9504,3.999786
233.7799,4.025568
233.8850,4.031682
233.9994,4.037798
234.1184,4.043915
236.9072,4.105520
237.0505,4.107603
237.1937,4.109775
237.3367,4.112127
237.3367,4.112127
237.7624,4.111040
237.9398,4.110247
238.0210,4.109066
238.7195,4.085725
238.7844,4.080589
238.8445,4.075632
238.8954,4.070762
239.6231,4.035259
239.6608,4.031738
239.6891,4.028395
239.7129,4.025141
239.7129,4.025141
239.8592,4.022866
240.0053,4.020772
240.1514,4.018768
241.8762,4.005846
242.2288,4.003101
242.5768,4.000356
242.9156,3.997607
244.2904,3.982562
245.2010,3.984296
245.6023,3.985350
245.8379,3.986631
246.6665,4.013630
246.7716,4.019969
246.9002,4.025503
247.0059,4.030760
248.0206,4.057809
248.2682,4.059514
248.5203,4.061309
248.7816,4.063288
248.7816,4.063288
249.0300,4.063776
249.2831,4.064355
249.5451,4.065117
249.5451,4.065117
249.6532,4.067190
249.7703,4.069355
249.8919,4.071702
249.8919,4.071702
250.0832,4.072970
250.2837,4.074241
250.4887,4.075514
250.4887,4.075514
250.6320,4.077596
250.7752,4.079768
250.9182,4.082121
251.6747,4.094090
251.8997,4.097411
252.1247,4.100822
252.3496,4.104414
252.3496,4.104414
252.5560,4.104890
252.7623,4.105457
252.9685,4.106204
253.6644,4.086513
253.8969,4.079273
254.1293,4.072034
254.3618,4.064794
255.0521,4.053216
255.2794,4.053277
255.5068,4.053338
255.7296,4.059889
255.7296,4.059889
255.7312,4.057576
255.7327,4.055443
255.7341,4.053400
255.7341,4.053400
255.8957,4.059934
256.0664,4.059980
256.2462,4.060029
256.9441,4.067114
257.1703,4.068798
257.3965,4.070481
257.6227,4.072165
257.6227,4.072165
257.7248,4.075033
257.8315,4.077901
257.9474,4.080772
258.7953,4.109805
258.9721,4.120791
259.1015,4.127347
259.2944,4.135092
261.8975,4.196241
262.2133,4.200097
262.4156,4.201940
262.6780,4.203348
264.0279,4.223997
264.3296,4.226122
264.5896,4.228596
264.8913,4.230721
266.5073,4.255092
266.6513,4.256062
266.7952,4.257213
266.9391,4.258454
268.2889,4.279103
268.5965,4.280388
268.7299,4.281265
268.8033,4.282487
270.3511,4.286150
270.5582,4.284583
270.7606,4.283015
270.9539,4.281444
272.2461,4.266377
272.6813,4.263670
273.1119,4.261051
273.5331,4.258611
274.6552,4.250394
275.2565,4.247717
275.8578,4.245039
276.4592,4.242362
277.9348,4.230995
278.0803,4.229832
278.2258,4.228760
278.3711,4.227867
278.3711,4.227867
278.5795,4.224393
278.7832,4.221097
278.9776,4.217889
279.8647,4.190948
279.9493,4.188146
280.0339,4.185434
280.1184,4.182902
280.1184,4.182902
280.2200,4.176559
280.3124,4.170394
280.4001,4.164317
281.0941,4.147466
281.0957,4.145152
281.0972,4.143019
281.0986,4.140976
281.0986,4.140976
281.2442,4.138596
281.3852,4.136305
281.5168,4.134192
281.5168,4.134192
281.6766,4.106168
281.8007,4.089583
281.9957,4.070223
282.3681,4.040303
282.3746,4.031094
282.3809,4.022066
282.3871,4.013127
282.5712,3.986402
282.6365,3.980740
282.6971,3.975077
282.7485,3.969411
282.9558,3.939041
283.0246,3.928376
283.0707,3.923656
283.1340,3.920833
283.5100,3.885640
283.5790,3.874690
283.6252,3.869864
283.6885,3.867027
284.0645,3.831834
284.1314,3.823858
284.1935,3.816062
284.2464,3.808353
284.6190,3.778027
284.6876,3.776333
284.7764,3.771940
284.9616,3.761081
285.3388,3.724266
285.4049,3.717402
285.4663,3.710627
285.5184,3.704030
285.8911,3.673704
285.9598,3.663040
286.0060,3.658319
286.0692,3.655497
286.2570,3.623498
286.3298,3.612444
286.4047,3.604997
286.5458,3.594773
286.6484,3.566402
286.7184,3.553860
286.7838,3.541407
286.8399,3.529131
287.0472,3.498761
287.1097,3.496960
287.1562,3.491819
287.2265,3.478931
287.4154,3.445310
287.4219,3.436101
287.4282,3.427073
287.4344,3.418134
287.6234,3.384513
287.6290,3.376521
287.6344,3.368710
287.6399,3.360988
287.8382,3.077874
287.8472,3.330618
287.8543,3.320478
287.8614,3.310338
287.8685,3.300197
287.8724,2.911148
287.8895,3.270182
287.8904,2.916036
287.8960,3.260974
287.9014,3.076269
287.9023,3.251945
287.9086,3.243007
287.9129,2.921015
287.9232,2.956598
287.9273,3.216237
287.9344,3.206097
287.9380,2.966053
287.9415,3.195956
287.9445,2.926177
287.9486,3.185816
287.9573,2.975689
287.9645,3.074663
287.9669,3.012188
287.9674,3.159046
287.9731,3.150949
287.9775,2.879127
287.9787,3.142942
287.9831,2.871135
287.9842,3.135115
287.9857,2.985418
287.9857,2.985418
287.9863,3.022756
287.9886,2.863323
287.9940,2.855602
288.0122,2.985846
288.0148,3.033417
288.0276,3.073057
288.0478,2.986367
288.0478,3.044259
288.0879,2.987069
288.3641,2.828927
288.4301,2.822063
288.4915,2.815288
288.5436,2.808691
288.5436,2.808691
288.6686,2.806305
288.7888,2.804009
288.8998,2.801890
289.5960,2.781794
289.6329,2.779490
289.6604,2.777364
289.6833,2.775327
289.6833,2.775327
289.8296,2.772947
289.9759,2.770657
290.1221,2.768548
291.5256,2.742152
291.6087,2.741483
291.6918,2.740995
291.7747,2.740597
293.4231,2.718729
293.6201,2.713959
293.8208,2.710542
294.1972,2.705550
294.1972,2.705550
294.2340,2.703246
294.2615,2.701120
294.2844,2.699083
295.8512,2.675570
296.0327,2.673305
296.2049,2.671218
296.3725,2.669220
297.2547,2.649174
297.3726,2.649206
297.4813,2.649235
297.5854,2.649263
297.5854,2.649263
297.8779,2.644879
298.1703,2.640496
298.4628,2.636112
299.8434,2.612955
299.8799,2.611057
299.9071,2.609336
299.9297,2.607704
##END=
