##TITLE=o-Terphenyl
##JCAMP-DX=4.24
##DATA TYPE=UV/VIS SPECTRUM
##ORIGIN=INSTITUTE OF ENERGY PROBLEMS OF CHEMICAL PHYSICS, RAS
##OWNER=INEP CP RAS, NIST OSRD
Collection (C) 2007 copyright by the U.S. Secretary of Commerce
on behalf of the United States of America. All rights reserved.
##CAS REGISTRY NO=84-15-1
##MOLFORM=C18H14
##MP=56.2
##BP=332
##SOURCE REFERENCE=RAS UV No. 719
##$NIST SQUIB=1950MUE/PIC3626-3629
##$NIST SOURCE=TSGMTE
##SPECTROMETER/DATA SYSTEM=n.i.g.
##XUNITS=Wavelength (nm)
##YUNITS=Logarithm epsilon
##XFACTOR=1.000000
##YFACTOR=1.000000
##FIRSTX=222.4352
##LASTX=290.8735
##FIRSTY=4.31509
##MAXX=290.873
##MINX=222.435
##MAXY=4.3991
##MINY=3.14261
##NPOINTS=249
##$REF AUTHOR=Mueller, G.P.; Pickens, D.
##$REF TITLE=1,2- and 2,3-bis-(p-methoxyphenyl)-cyclohexene
##$REF JOURNAL=J. Am. Chem. Soc.
##$REF VOLUME=72
##$REF PAGE=3626-3629
##$REF DATE=1950
##XYPOINTS=(XY..XY)
222.4352,4.315093
222.5345,4.317071
222.6417,4.319072
222.7530,4.321080
222.9074,4.325857
223.0057,4.327413
223.1120,4.328962
223.2221,4.330506
223.8955,4.335995
224.0219,4.336634
224.1484,4.337303
224.2749,4.337987
225.1785,4.342828
225.2704,4.343645
225.3663,4.344476
225.4702,4.345336
226.3738,4.350095
226.4164,4.350718
226.4669,4.351368
226.5215,4.352033
227.4273,4.357513
227.6041,4.359687
227.7226,4.360805
227.8845,4.361832
228.2699,4.365916
228.4392,4.367222
228.6165,4.368553
228.7977,4.369893
229.1096,4.373078
229.2744,4.375134
229.3929,4.376213
229.5668,4.377245
230.0071,4.381686
230.1530,4.382616
231.1301,4.390030
231.2936,4.391099
231.3738,4.392127
232.1349,4.396407
232.2808,4.397307
232.4306,4.398204
232.5884,4.399100
233.4587,4.398110
233.5631,4.397507
233.6637,4.396916
233.7564,4.396352
234.4907,4.391532
234.4916,4.391839
234.4926,4.392160
234.4936,4.392507
235.3534,4.387886
235.4574,4.387099
235.5575,4.386339
235.6497,4.385592
236.0811,4.380660
236.1312,4.379719
236.1774,4.378775
236.2156,4.377830
236.5029,4.372240
236.5522,4.370979
236.5976,4.369743
236.6351,4.368518
237.0672,4.363648
237.1168,4.362475
237.1625,4.361314
237.2003,4.360180
237.4890,4.354888
237.5908,4.353223
237.6887,4.351567
237.7787,4.349934
238.0519,4.345399
238.1018,4.344058
238.1518,4.342743
238.2019,4.341439
238.3311,4.336265
238.4304,4.333552
238.5258,4.330837
238.6134,4.328137
238.8867,4.323439
238.9528,4.321360
239.0189,4.319272
239.0850,4.317174
239.3026,4.311404
239.3499,4.309123
239.3932,4.306847
239.4288,4.304592
239.7183,4.298950
239.7661,4.296831
239.8100,4.294718
239.8461,4.292629
240.1342,4.286207
240.1811,4.283630
240.2241,4.281038
240.2591,4.278431
240.5457,4.271069
240.6107,4.268262
240.6586,4.257482
240.6759,4.265472
240.7411,4.262683
240.7831,4.257335
240.9076,4.257224
241.0321,4.257132
241.0321,4.257132
241.0963,4.253789
241.1604,4.250420
241.2246,4.247025
241.3716,4.240585
241.4199,4.238416
241.4643,4.236238
241.5008,4.234048
241.7755,4.219948
241.7789,4.221670
241.7823,4.223404
241.7859,4.225172
241.9033,4.212355
241.9511,4.209766
241.9950,4.207182
242.0310,4.204626
242.3192,4.196748
242.3675,4.194349
242.4119,4.191937
242.4484,4.189512
242.5777,4.182252
242.6790,4.179471
242.7763,4.176671
242.8657,4.173854
243.1554,4.166316
243.2038,4.163742
243.2482,4.161153
243.2846,4.158550
243.4154,4.151598
243.5172,4.148932
243.6151,4.146250
243.7050,4.143552
244.1371,4.135345
244.2870,4.132131
244.4290,4.128893
244.5671,4.125631
244.9985,4.116616
245.0960,4.113992
245.1858,4.111404
245.2716,4.108827
245.8465,4.100040
246.0498,4.096549
246.2453,4.093030
246.4368,4.089483
247.1533,4.079656
247.2288,4.077522
247.3717,4.075401
247.4473,4.073331
248.4660,4.062585
248.7635,4.059072
249.0572,4.055590
249.3429,4.052110
250.8092,4.042424
251.0748,4.041043
251.3403,4.039688
251.6059,4.038390
253.1658,4.031889
253.4843,4.030085
253.8029,4.028337
254.1215,4.026613
255.3606,4.019958
255.6791,4.018104
255.9976,4.016306
256.3162,4.014533
257.5732,4.007688
257.8612,4.005728
258.1575,4.003990
258.4568,4.001514
259.6240,3.993856
259.7936,3.993248
259.9861,3.991923
260.3665,3.988730
261.8321,3.976868
262.0790,3.975098
262.3219,3.973321
262.5568,3.971537
263.7388,3.960536
264.1266,3.956578
264.5144,3.952659
264.9023,3.948742
265.7806,3.936474
266.0269,3.933305
266.2732,3.930113
266.5194,3.926898
267.3785,3.912520
267.8956,3.902536
268.0854,3.898053
268.1107,3.895373
268.6884,3.884068
268.8403,3.880502
268.9842,3.876907
269.1242,3.873283
270.1392,3.851704
270.2911,3.847861
270.4350,3.843984
270.5750,3.840073
271.3108,3.824270
271.5325,3.818342
271.7463,3.812333
271.9562,3.806241
272.7632,3.789122
272.9155,3.785247
273.0600,3.781448
273.2005,3.777672
274.0596,3.757258
274.2644,3.751680
274.4613,3.746090
274.6544,3.740549
275.5327,3.720558
275.6318,3.716528
275.7231,3.712526
275.8105,3.708619
276.8306,3.685802
277.0532,3.679215
277.2680,3.672599
277.4789,3.666026
278.4463,3.642171
278.5604,3.636913
278.7105,3.632363
279.0254,3.624570
279.7442,3.600197
279.9500,3.594183
280.1479,3.588259
280.3419,3.582342
281.5038,3.549820
281.6968,3.542521
281.8898,3.535195
282.0830,3.527942
282.8226,3.505330
283.1690,3.492508
283.5075,3.479520
283.8421,3.466248
284.5630,3.437346
284.8621,3.427250
285.1572,3.416915
285.4443,3.406331
286.6241,3.356590
286.7245,3.351897
286.8170,3.347155
286.9055,3.342362
288.2264,3.277816
288.5740,3.261739
288.9138,3.245429
289.2496,3.228682
290.1316,3.181347
290.3789,3.168438
290.6261,3.155601
290.8735,3.142613
##END=
