##TITLE=Phenanthroquinone
##JCAMP-DX=4.24
##DATA TYPE=UV/VIS SPECTRUM
##ORIGIN=INSTITUTE OF ENERGY PROBLEMS OF CHEMICAL PHYSICS, RAS
##OWNER=INEP CP RAS, NIST OSRD
Collection (C) 2007 copyright by the U.S. Secretary of Commerce
on behalf of the United States of America. All rights reserved.
##CAS REGISTRY NO=84-11-7
##MOLFORM=C14H8O2
##MP=209
##SOURCE REFERENCE=RAS UV No. 662
##$NIST SQUIB=1948RAM/MAT1215-1225
##$NIST SOURCE=TSGMTE
##SPECTROMETER/DATA SYSTEM=n.i.g.
##XUNITS=Wavelength (nm)
##YUNITS=Logarithm epsilon
##XFACTOR=1.000000
##YFACTOR=1.000000
##FIRSTX=380.1188
##LASTX=252.4563
##FIRSTY=1.53843
##MAXX=380.119
##MINX=252.456
##MAXY=4.09233
##MINY=1.53843
##NPOINTS=492
##$REF AUTHOR=Ramart-Lucas, M.; Matti, M.J.; Guilmart, T.
##$REF TITLE=Structure, absorption et comportement chimique dans la serie du phenanthrene
##$REF JOURNAL=Bull. Soc. Chim. Fr.
##$REF VOLUME=15
##$REF PAGE=1215-1225
##$REF DATE=1948
##XYPOINTS=(XY..XY)
380.1188,1.538432
380.0111,1.544636
379.8957,1.550920
379.7646,1.557366
379.0230,1.615989
378.9159,1.620358
378.8012,1.624728
378.6708,1.629097
378.2842,1.670606
378.2387,1.677524
378.1776,1.684442
378.1087,1.691360
378.1087,1.691360
378.0633,1.691833
378.0022,1.692466
377.9334,1.693181
377.1989,1.738696
377.0696,1.750549
376.9792,1.755364
376.8501,1.757265
376.8501,1.802780
376.8050,1.807149
376.7443,1.811519
376.6760,1.815888
376.6760,1.815888
376.6064,1.816360
376.5368,1.816994
376.4672,1.817708
376.1198,1.855576
376.0748,1.861051
376.0144,1.866607
375.9463,1.872326
375.9463,1.872326
375.8770,1.872798
375.8077,1.873432
375.7384,1.874146
375.3923,1.908373
375.3923,1.915763
375.3923,1.923315
375.3923,1.930948
375.3923,1.930948
374.7480,1.936531
374.4267,1.939930
374.1517,1.944056
374.1517,1.944056
374.1517,1.963462
374.1517,1.983030
374.1517,2.002679
374.1517,2.002679
374.0385,2.029637
373.9102,2.056675
373.7743,2.083877
373.7743,2.083877
373.6702,2.087531
373.6030,2.134488
373.5586,2.091267
373.4825,2.126963
373.4381,2.116768
373.4318,2.095164
373.4318,2.095164
372.8852,2.155607
372.7147,2.160448
372.5443,2.165451
372.3741,2.170536
372.3741,2.170536
372.3300,2.174905
372.2708,2.179275
372.2041,2.183644
371.4917,2.230979
371.2698,2.238518
371.0032,2.249050
370.7819,2.255375
370.7819,2.277950
370.6795,2.285340
370.5697,2.292892
370.4449,2.300525
370.4449,2.334387
370.3340,2.335588
370.2082,2.336950
370.0749,2.338393
370.0749,2.338393
370.0749,2.343234
370.0749,2.348237
370.0749,2.353321
369.3706,2.391189
369.3706,2.397393
369.3706,2.403677
369.3706,2.410123
369.0362,2.453453
368.9347,2.455274
368.8259,2.457094
368.7023,2.458915
368.3358,2.496783
368.3358,2.501624
368.3358,2.506627
368.3358,2.511711
367.6712,2.549579
367.6712,2.556969
367.6712,2.564522
367.6712,2.572155
367.3068,2.611843
367.2062,2.616212
367.0985,2.620582
366.9760,2.624951
366.6129,2.662819
366.5128,2.670209
366.4054,2.677761
366.2834,2.685394
366.2834,2.685394
366.0532,2.687943
365.9546,2.723262
365.8232,2.690492
365.5935,2.693041
365.5789,2.745945
365.4004,2.755197
365.2658,2.758945
365.2658,2.758945
365.2658,2.783341
365.2658,2.789545
365.2658,2.795829
365.2658,2.802275
365.2658,2.802275
365.1580,2.803475
365.0368,2.759417
365.0356,2.804837
364.9061,2.806280
364.9061,2.806280
364.8638,2.812470
364.8081,2.760051
364.8069,2.818660
364.7428,2.824850
364.7428,2.824850
364.5797,2.760766
364.5012,2.827938
364.3322,2.830865
364.2538,2.877647
364.2538,2.877647
364.1393,2.864943
364.0972,2.854182
364.0911,2.836138
364.0911,2.836138
363.9190,2.882745
363.5715,2.917336
363.5715,2.917336
363.5703,2.887842
363.4646,2.919170
363.4502,2.914005
363.3578,2.907680
363.3434,2.921084
363.2151,2.892940
363.2151,2.892940
363.2151,2.923161
363.2151,2.923161
363.1731,2.927531
363.1168,2.931900
363.0533,2.936269
363.0533,2.936269
362.9551,2.938818
362.8498,2.941367
362.7302,2.943916
362.7302,2.943916
362.4900,2.972371
362.3146,2.988041
362.0535,3.004359
362.0535,3.004359
361.1446,3.025559
360.0068,3.050642
359.0870,3.072084
359.0870,3.072084
358.7697,3.078288
358.4460,3.084572
358.1089,3.091018
358.1089,3.091018
358.0460,3.094039
357.9831,3.097222
357.9202,3.100485
357.9202,3.100485
357.2184,3.109845
356.8454,3.114187
356.4801,3.117235
356.4801,3.117235
356.0442,3.124881
355.6093,3.132527
355.1754,3.140174
355.1754,3.140174
355.1353,3.143100
355.0814,3.146107
355.0207,3.149277
355.0207,3.149277
354.9188,3.150477
354.8032,3.151839
354.6809,3.153282
354.6809,3.153282
354.6809,3.155574
354.6809,3.158029
354.6809,3.160564
354.6809,3.160564
354.2173,3.165662
353.7482,3.170760
353.2667,3.175857
353.2667,3.175857
353.2055,3.178406
353.1443,3.180955
353.0831,3.183504
353.0831,3.183504
352.6769,3.187873
352.2580,3.192242
351.8334,3.196612
351.8334,3.196612
350.8318,3.211284
349.9025,3.223934
349.3305,3.232295
348.0775,3.253050
347.9289,3.256070
347.7804,3.259253
347.6321,3.262516
347.6321,3.262516
347.2756,3.266171
346.9132,3.269907
346.5385,3.273804
345.0131,3.298564
344.6997,3.302407
344.5486,3.303823
344.4299,3.304026
342.9230,3.332427
342.6262,3.336796
342.3171,3.341165
342.0022,3.345535
340.0901,3.364469
339.6566,3.369310
339.2116,3.374313
338.7616,3.379397
336.0245,3.396511
335.9332,3.396983
335.8296,3.397617
335.7200,3.398331
335.7200,3.398331
335.6842,3.400880
335.6360,3.403429
335.5818,3.405978
335.5818,3.405978
335.3047,3.405978
335.0219,3.405978
334.7274,3.405978
333.4403,3.415445
333.2374,3.419369
333.0891,3.421351
332.8685,3.423091
332.8685,3.423091
332.2704,3.424912
331.6686,3.426732
331.0569,3.428553
329.2384,3.434379
328.8321,3.434851
328.4150,3.435485
327.9931,3.436199
326.3647,3.436199
325.6635,3.434770
325.1381,3.433259
324.3389,3.430373
322.8744,3.417265
322.8744,3.417265
322.8744,3.419814
322.8744,3.422363
322.8744,3.424912
322.5677,3.416551
322.2617,3.415917
321.9562,3.415445
321.9562,3.415445
321.7622,3.413948
321.5911,3.411965
321.2963,3.407798
321.2963,3.407798
320.9421,3.405250
320.5886,3.402701
320.2360,3.400152
319.9846,3.398331
319.8088,3.398331
319.6332,3.398331
319.4579,3.398331
316.1129,3.349176
315.9414,3.347355
315.7701,3.345535
315.5989,3.343714
315.5989,3.343714
315.5084,3.341165
315.4288,3.338617
315.3547,3.336068
315.3547,3.336068
315.2156,3.334719
315.0874,3.333532
314.9648,3.332427
313.0776,3.307667
312.9797,3.307464
312.8551,3.306049
312.5974,3.302205
310.8569,3.277809
310.4071,3.272712
309.9586,3.267614
309.5113,3.262516
309.5113,3.262516
309.4652,3.259968
309.4243,3.257419
309.3939,3.254870
308.6441,3.239941
308.5273,3.239227
308.4105,3.238593
308.2939,3.238121
306.0024,3.202073
305.8876,3.201359
305.7728,3.200725
305.6582,3.200253
303.2926,3.207899
303.1055,3.209720
302.9086,3.211540
302.7069,3.213361
301.0746,3.236300
301.0458,3.238593
301.0071,3.241047
300.9634,3.243583
300.9634,3.243583
300.5418,3.251701
300.1213,3.259981
299.7019,3.268342
299.7019,3.268342
299.5192,3.273184
299.3270,3.278187
299.1300,3.283271
299.1300,3.283271
299.0861,3.286292
299.0423,3.289474
298.9984,3.292738
298.3199,3.311672
298.1009,3.311672
297.8774,3.311672
297.6446,3.311672
297.6446,3.311672
297.5641,3.321045
297.5078,3.325481
297.4274,3.328785
297.4274,3.328785
297.2097,3.333155
296.9875,3.337524
296.7560,3.341894
295.7440,3.370295
295.5660,3.374664
295.3788,3.379033
295.1870,3.383403
294.1856,3.419086
293.8824,3.427245
293.7396,3.431682
293.6346,3.436199
292.5386,3.468241
292.3234,3.474917
292.1038,3.481107
291.8891,3.488996
290.8062,3.509751
290.5244,3.522036
290.3075,3.530599
290.1643,3.537787
288.7868,3.573835
288.5483,3.576613
288.4054,3.579067
288.2354,3.583302
288.2354,3.583302
288.1486,3.589168
288.0166,3.594549
287.7267,3.604056
287.7267,3.604056
287.6861,3.604528
287.6455,3.605162
287.6049,3.605877
286.4527,3.641924
286.3037,3.647683
286.1994,3.654007
286.0506,3.666320
286.0506,3.666320
285.9495,3.668141
285.8441,3.669961
285.7297,3.671782
285.7297,3.671782
285.5896,3.676879
285.4496,3.681977
285.3097,3.687075
285.3097,3.687075
284.4410,3.705590
284.1222,3.712859
284.0768,3.715111
282.8348,3.754800
282.6162,3.764307
282.4588,3.769688
282.2277,3.775554
280.9243,3.811602
280.6914,3.818520
280.4546,3.825438
280.2097,3.832356
280.2097,3.832356
279.7189,3.833705
279.5150,3.834649
279.4221,3.835998
279.2115,3.847285
279.1867,3.856752
279.1534,3.866219
279.1159,3.875686
279.1159,3.875686
279.0578,3.878235
278.9956,3.880784
278.9249,3.883332
278.9249,3.883332
278.6579,3.885625
278.3914,3.888079
278.1255,3.890615
278.1255,3.890615
278.0439,3.893771
277.9161,3.897169
277.6329,3.903723
277.6329,3.903723
276.8729,3.905328
276.5709,3.906366
276.4652,3.907728
274.9174,3.907728
274.7191,3.907728
274.5292,3.907728
274.3438,3.907728
274.3438,3.907728
274.2706,3.906285
274.2016,3.904923
274.1408,3.903723
272.8195,3.892435
272.3456,3.890615
271.8732,3.888794
271.4025,3.886974
269.8035,3.869860
269.5893,3.866597
269.3755,3.863414
269.1621,3.860393
267.2384,3.839639
267.0509,3.837818
266.8715,3.835998
266.6963,3.834177
264.3609,3.828351
264.1889,3.828351
264.0134,3.828351
263.8304,3.828351
263.8304,3.828351
263.7742,3.829551
263.7103,3.830913
263.6427,3.832356
262.5050,3.849106
262.3517,3.850886
262.1461,3.854851
261.7128,3.864399
261.7128,3.864399
261.3368,3.867109
261.1327,3.869092
260.9253,3.872045
260.9253,3.872045
260.8746,3.874971
260.8202,3.877979
260.7584,3.881148
260.7584,3.881148
260.4960,3.887081
260.2933,3.892934
259.9766,3.903723
258.7717,3.928483
258.6683,3.931503
258.5576,3.934686
258.4435,3.937950
257.0742,3.966351
256.9721,3.969277
256.8629,3.972284
256.7503,3.975454
255.9923,3.992567
255.9114,3.993673
255.8269,3.994859
255.7353,3.996208
255.7353,3.996208
255.6551,3.998757
255.5750,4.001306
255.4949,4.003855
255.4949,4.003855
255.3787,4.011865
255.3123,4.015263
255.2389,4.016963
254.5852,4.039538
254.2910,4.044919
254.1595,4.046901
254.0773,4.047184
252.7694,4.081047
252.5490,4.087776
252.4679,4.090703
252.4563,4.092334
##END=
