##TITLE=2-(4-methoxyphenyl)-5-phenyl-1,3,4-oxadiazole
##JCAMP-DX=4.24
##DATA TYPE=UV/VIS SPECTRUM
##ORIGIN=INSTITUTE OF ENERGY PROBLEMS OF CHEMICAL PHYSICS, RAS
##OWNER=INEP CP RAS, NIST OSRD
Collection (C) 2007 copyright by the U.S. Secretary of Commerce
on behalf of the United States of America. All rights reserved.
##CAS REGISTRY NO=842-79-5
##MOLFORM=C15H12N2O2
##MP=146-147
##SOURCE REFERENCE=RAS UV No. 22768
##$NIST SQUIB=1983POP/26
##$NIST SOURCE=TYUGLMTE
##SPECTROMETER/DATA SYSTEM=SF-4
##XUNITS=Wavelength (nm)
##YUNITS=Logarithm epsilon
##XFACTOR=1.0
##YFACTOR=1.0
##FIRSTX=224.277
##LASTX=336.621
##FIRSTY=3.996
##MAXX=336.621
##MINX=224.277
##MAXY=4.484
##MINY=2.672
##NPOINTS=115
##$REF AUTHOR=Popova, N.A.; et al.
##$REF JOURNAL=Khim. Geterosikl. Soedin.
##$REF PAGE=26
##$REF DATE=1983
##XYPOINTS=(XY..XY)
224.277,3.996
225.277,3.934
226.277,3.895
227.277,3.872
228.277,3.863
229.277,3.862
230.277,3.867
231.277,3.876
232.277,3.887
233.277,3.898
234.277,3.909
235.277,3.920
236.277,3.928
237.277,3.935
238.277,3.940
239.277,3.943
240.277,3.944
241.277,3.942
242.277,3.938
243.277,3.930
244.277,3.921
245.277,3.909
246.277,3.896
246.310,3.897
247.310,3.878
248.310,3.863
249.310,3.854
250.310,3.849
251.310,3.849
252.310,3.851
253.310,3.856
254.310,3.862
255.310,3.869
256.310,3.875
257.310,3.881
258.310,3.888
259.310,3.897
260.310,3.910
261.540,3.928
262.540,3.945
263.540,3.964
264.540,3.985
265.540,4.008
266.540,4.033
267.540,4.060
268.519,4.083
269.519,4.119
270.519,4.150
271.519,4.177
272.519,4.202
273.519,4.224
274.519,4.244
275.519,4.263
276.519,4.280
277.519,4.296
278.519,4.312
279.519,4.327
280.519,4.340
281.519,4.354
282.519,4.366
283.519,4.378
284.519,4.390
285.519,4.400
286.519,4.410
287.519,4.420
288.519,4.429
289.519,4.438
290.519,4.446
291.519,4.454
292.519,4.461
292.667,4.461
293.667,4.471
294.667,4.478
295.667,4.482
296.667,4.484
297.667,4.484
298.667,4.483
299.667,4.481
300.667,4.478
301.667,4.474
302.667,4.470
303.667,4.465
304.667,4.459
305.667,4.453
306.667,4.446
307.667,4.439
308.667,4.430
309.667,4.420
310.667,4.408
311.667,4.394
312.667,4.377
313.667,4.358
314.667,4.334
315.667,4.307
316.667,4.274
317.667,4.235
318.667,4.190
319.635,4.132
320.635,4.081
321.635,4.017
322.635,3.949
323.635,3.883
324.635,3.820
325.635,3.759
326.635,3.696
327.635,3.627
328.635,3.548
329.567,3.469
330.567,3.363
331.567,3.264
332.567,3.166
333.567,3.063
334.567,2.951
335.567,2.826
336.621,2.672
##END=
