##TITLE=9,10-Anthracenedione, 2-methyl-
##JCAMP-DX=4.24
##DATA TYPE=UV/VIS SPECTRUM
##ORIGIN=INSTITUTE OF ENERGY PROBLEMS OF CHEMICAL PHYSICS, RAS
##OWNER=INEP CP RAS, NIST OSRD
Collection (C) 2007 copyright by the U.S. Secretary of Commerce
on behalf of the United States of America. All rights reserved.
##CAS REGISTRY NO=84-54-8
##MOLFORM=C15H10O2
##MP=177
##BP=sub
##SOURCE REFERENCE=RAS UV No. 507
##$NIST SQUIB=1949LUK253389
##$NIST SOURCE=TSGMTE
##SPECTROMETER/DATA SYSTEM=Spectrophotometer SF-16
##XUNITS=Wavelength (nm)
##YUNITS=Logarithm epsilon
##XFACTOR=1.000000
##YFACTOR=1.000000
##FIRSTX=220.0000
##LASTX=379.0000
##FIRSTY=4.01999
##MAXX=379
##MINX=220
##MAXY=4.72
##MINY=2.48
##NPOINTS=160
##$REF AUTHOR=Lukonina, S.M.
##$REF JOURNAL=Synthesis of Organic Preparations (in Rus.)
##$REF VOLUME=1
##$REF PAGE=253,389
##$REF DATE=1949
##XYPOINTS=(XY..XY)
220.0000,4.019988
221.0000,3.990000
222.0000,3.930000
223.0000,3.910000
224.0000,3.890000
225.0000,3.900000
226.0000,3.890000
227.0000,3.900000
228.0000,3.900000
229.0000,3.930000
230.0000,3.960000
231.0000,3.980000
232.0000,3.990000
233.0000,4.030000
234.0000,4.030000
235.0000,4.070000
236.0000,4.110000
237.0000,4.130000
238.0000,4.140000
239.0000,4.170000
240.0000,4.229989
241.0000,4.250000
242.0000,4.270000
243.0000,4.310000
244.0000,4.360000
245.0000,4.390000
246.0000,4.420000
247.0000,4.410000
248.0000,4.450000
249.0000,4.490000
250.0000,4.519999
251.0000,4.520000
252.0000,4.550000
253.0000,4.580000
254.0000,4.610000
255.0000,4.630000
256.0000,4.640000
257.0000,4.660000
258.0000,4.700000
259.0000,4.700000
260.0000,4.720002
261.0000,4.720000
262.0000,4.670000
263.0000,4.670000
264.0000,4.620000
265.0000,4.590000
266.0000,4.550000
267.0000,4.510000
268.0000,4.500000
269.0000,4.430000
270.0000,4.389998
271.0000,4.360000
272.0000,4.290000
273.0000,4.240000
274.0000,4.240000
275.0000,4.230000
276.0000,4.250000
277.0000,4.220000
278.0000,4.230000
279.0000,4.220000
280.0000,4.209997
281.0000,4.180000
282.0000,4.170000
283.0000,4.040000
284.0000,3.980000
285.0000,3.870000
286.0000,3.790000
287.0000,3.760000
288.0000,3.660000
289.0000,3.540000
290.0000,3.450003
291.0000,3.400000
292.0000,3.340000
293.0000,3.330000
294.0000,3.310000
295.0000,3.330000
296.0000,3.330000
297.0000,3.320000
298.0000,3.330000
299.0000,3.330000
300.0000,3.360006
301.0000,3.380000
302.0000,3.380000
303.0000,3.400000
304.0000,3.430000
305.0000,3.430000
306.0000,3.440000
307.0000,3.460000
308.0000,3.480000
309.0000,3.500000
310.0000,3.529995
311.0000,3.540000
312.0000,3.550000
313.0000,3.560000
314.0000,3.590000
315.0000,3.600000
316.0000,3.610000
317.0000,3.630000
318.0000,3.650000
319.0000,3.650000
320.0000,3.660002
321.0000,3.680000
322.0000,3.700000
323.0000,3.700000
324.0000,3.720000
325.0000,3.720000
326.0000,3.730000
327.0000,3.740000
328.0000,3.740000
329.0000,3.750000
330.0000,3.749999
331.0000,3.750000
332.0000,3.740000
333.0000,3.750000
334.0000,3.740000
335.0000,3.720000
336.0000,3.720000
337.0000,3.720000
338.0000,3.690000
339.0000,3.690000
340.0000,3.660002
341.0000,3.660000
342.0000,3.630000
343.0000,3.610000
344.0000,3.600000
345.0000,3.580000
346.0000,3.550000
347.0000,3.530000
348.0000,3.530000
349.0000,3.490000
350.0000,3.480007
351.0000,3.440000
352.0000,3.420000
353.0000,3.380000
354.0000,3.370000
355.0000,3.340000
356.0000,3.310000
357.0000,3.270000
358.0000,3.220000
359.0000,3.190000
360.0000,3.159988
361.0000,3.130000
362.0000,3.110000
363.0000,3.090000
364.0000,3.010000
365.0000,2.980000
366.0000,2.920000
367.0000,2.890000
368.0000,2.860000
369.0000,2.820000
370.0000,2.769997
371.0000,2.710000
372.0000,2.670000
373.0000,2.670000
374.0000,2.620000
375.0000,2.590000
376.0000,2.560000
377.0000,2.520000
378.0000,2.480000
379.0000,2.480000
##END=
