##TITLE=Anthraquinone
##JCAMP-DX=4.24
##DATA TYPE=UV/VIS SPECTRUM
##ORIGIN=INSTITUTE OF ENERGY PROBLEMS OF CHEMICAL PHYSICS, RAS
##OWNER=INEP CP RAS, NIST OSRD
Collection (C) 2007 copyright by the U.S. Secretary of Commerce
on behalf of the United States of America. All rights reserved.
##CAS REGISTRY NO=84-65-1
##MOLFORM=C14H8O2
##MP=286
##BP=377
##SOURCE REFERENCE=RAS UV No. 351
##$NIST SQUIB=1961RIG/CAU1842-1849
##$NIST SOURCE=TSGMTE
##SPECTROMETER/DATA SYSTEM=n.i.g.
##XUNITS=Wavelength (nm)
##YUNITS=Logarithm epsilon
##XFACTOR=1.000000
##YFACTOR=1.000000
##FIRSTX=242.1136
##LASTX=376.6839
##FIRSTY=4.35994
##MAXX=376.684
##MINX=242.114
##MAXY=4.72867
##MINY=2.11125
##NPOINTS=157
##$REF AUTHOR=Rigaudy, J.; Cauquis, G.; Izoret, G.; Baranne-Lafont, J.
##$REF TITLE=Etudes sur les amino-9 anthracenes. I. Autoxydation, oxydation et action du peroxyde de benzoyle
##$REF JOURNAL=Bull. Soc. Chim. Fr.
##$REF PAGE=1842-1849
##$REF DATE=1961
##XYPOINTS=(XY..XY)
242.1136,4.359944
242.5719,4.379414
242.9978,4.404626
243.4154,4.434418
243.8488,4.467627
244.3222,4.503095
244.8598,4.539656
245.4859,4.576152
246.2245,4.611418
247.0999,4.644295
248.1361,4.673621
249.3575,4.698233
250.7882,4.716971
252.4523,4.728672
252.4523,4.728672
253.5266,4.716042
254.1714,4.705971
254.9394,4.689829
254.9394,4.689829
255.1817,4.654896
255.4306,4.619951
255.6847,4.584980
255.9428,4.549971
256.2035,4.514909
256.4656,4.479783
256.4656,4.479783
256.9832,4.467937
257.8987,4.438830
259.4295,4.390591
261.7930,4.321347
261.7930,4.321347
263.2919,4.287219
265.2562,4.254317
268.5058,4.236836
268.5058,4.236836
269.6045,4.249709
270.6560,4.259424
272.5616,4.274309
272.5616,4.274309
274.1334,4.243518
275.6467,4.210198
276.3541,4.174235
277.3567,4.159738
277.6036,4.134416
278.0036,4.117938
278.8993,4.096180
278.8993,4.096180
279.1053,4.063728
279.2839,4.031090
279.4368,3.998288
279.5663,3.965344
279.6742,3.932278
279.7627,3.899110
279.8336,3.865863
279.8891,3.832556
279.9311,3.799211
279.9617,3.765849
279.9828,3.732491
279.9965,3.699157
280.0047,3.665869
280.0047,3.665869
280.2312,3.662773
280.4261,3.654749
280.6447,3.636019
280.9422,3.600801
281.3739,3.543316
281.9952,3.457783
281.9952,3.457783
282.6575,3.420790
283.3197,3.383796
283.9819,3.346803
284.6441,3.309809
285.3063,3.272816
285.9686,3.235822
285.9686,3.235822
287.1780,3.223020
288.3269,3.216088
290.3957,3.211922
290.3957,3.211922
292.6969,3.235355
294.2844,3.257000
295.6119,3.285956
295.6119,3.285956
297.7864,3.322481
300.1273,3.360263
302.4518,3.397034
304.5768,3.430526
306.3194,3.458472
307.4966,3.478603
307.9255,3.488652
307.9255,3.488652
308.9518,3.505450
310.4157,3.534275
312.5787,3.576142
315.7019,3.632065
315.7019,3.632065
318.1868,3.661260
320.6822,3.684274
323.2471,3.698951
325.9405,3.703133
328.8213,3.694664
331.9487,3.671387
331.9487,3.671387
334.0711,3.642839
336.0454,3.614837
337.8703,3.587083
339.5450,3.559278
341.0683,3.531124
342.4393,3.502323
343.6569,3.472577
344.7201,3.441587
345.6278,3.409054
346.3790,3.374680
346.9727,3.338167
346.9727,3.338167
347.0604,3.337207
347.1443,3.335690
347.2311,3.332954
347.3279,3.328337
347.4415,3.321175
347.5790,3.310807
347.7470,3.296569
347.9527,3.277800
348.2028,3.253836
348.5043,3.224015
348.8643,3.187675
349.2894,3.144152
349.7868,3.092784
350.3632,3.032908
351.0257,2.963863
351.7810,2.884985
352.6362,2.795612
352.6362,2.795612
352.9663,2.778970
353.4003,2.741264
353.8861,2.693143
354.3715,2.645259
354.8045,2.608261
355.1328,2.592800
355.1328,2.592800
355.8314,2.564411
356.5345,2.535032
357.2553,2.504863
358.0072,2.474105
358.8036,2.442955
359.6578,2.411614
360.5831,2.380281
361.5929,2.349155
362.7006,2.318436
363.9193,2.288323
365.2626,2.259015
366.7438,2.230712
368.3761,2.203614
370.1729,2.177919
372.1476,2.153827
374.3135,2.131538
376.6839,2.111250
##END=
