##TITLE=Benzo[f]quinoline
##JCAMP-DX=4.24
##DATA TYPE=UV/VIS SPECTRUM
##ORIGIN=INSTITUTE OF ENERGY PROBLEMS OF CHEMICAL PHYSICS, RAS
##OWNER=INEP CP RAS, NIST OSRD
Collection (C) 2007 copyright by the U.S. Secretary of Commerce
on behalf of the United States of America. All rights reserved.
##CAS REGISTRY NO=85-02-9
##MOLFORM=C13H9N
##MP=94
##BP=352; 202-5(8)
##SOURCE REFERENCE=RAS UV No. 1219
##$NIST SQUIB=1957SLO/UBB911-917
##$NIST SOURCE=TSGMTE
##SPECTROMETER/DATA SYSTEM=Hilger Uvispek H700/302
##XUNITS=Wavelength (nm)
##YUNITS=Logarithm epsilon
##XFACTOR=1.000000
##YFACTOR=1.000000
##FIRSTX=220.0000
##LASTX=329.0000
##FIRSTY=3.47
##MAXX=329
##MINX=220
##MAXY=4.26
##MINY=2.32
##NPOINTS=110
##$REF AUTHOR=Slough, W.; Ubbelohde, A.R.
##$REF TITLE=Electron donor and acceptor complexes with aromatic systems. Part III. Absorption spectra and some benzoquinolines and of their complexes with bromine in solution
##$REF JOURNAL=J. Chem. Soc.
##$REF PAGE=911-917
##$REF DATE=1957
##XYPOINTS=(XY..XY)
220.0000,3.470000
221.0000,3.490000
222.0000,3.510000
223.0000,3.540000
224.0000,3.560000
225.0000,3.590000
226.0000,3.620000
227.0000,3.640000
228.0000,3.670000
229.0000,3.700000
230.0000,3.740000
231.0000,3.770000
232.0000,3.800000
233.0000,3.830000
234.0000,3.860000
235.0000,3.900000
236.0000,3.930000
237.0000,3.960000
238.0000,3.990000
239.0000,4.020000
240.0000,4.050000
241.0000,4.080000
242.0000,4.100000
243.0000,4.120000
244.0000,4.140000
245.0000,4.160000
246.0000,4.180000
247.0000,4.200000
248.0000,4.220000
249.0000,4.230000
250.0000,4.250000
251.0000,4.260000
252.0000,4.260000
253.0000,4.260000
254.0000,4.260000
255.0000,4.240000
256.0000,4.240000
257.0000,4.230000
258.0000,4.230000
259.0000,4.220000
260.0000,4.210000
261.0000,4.200000
262.0000,4.150000
263.0000,4.120000
264.0000,4.070000
265.0000,4.010000
266.0000,3.930000
267.0000,3.860000
268.0000,3.770000
269.0000,3.680000
270.0000,3.590000
271.0000,3.510000
272.0000,3.420000
273.0000,3.330000
274.0000,3.250000
275.0000,3.160000
276.0000,3.080000
277.0000,3.010000
278.0000,2.920000
279.0000,2.840000
280.0000,2.760000
281.0000,2.720000
282.0000,2.680000
283.0000,2.650000
284.0000,2.630000
285.0000,2.600000
286.0000,2.580000
287.0000,2.560000
288.0000,2.550000
289.0000,2.530000
290.0000,2.530000
291.0000,2.510000
292.0000,2.500000
293.0000,2.500000
294.0000,2.490000
295.0000,2.480000
296.0000,2.480000
297.0000,2.480000
298.0000,2.470000
299.0000,2.470000
300.0000,2.460000
301.0000,2.460000
302.0000,2.450000
303.0000,2.450000
304.0000,2.450000
305.0000,2.440000
306.0000,2.440000
307.0000,2.440000
308.0000,2.440000
309.0000,2.430000
310.0000,2.430000
311.0000,2.420000
312.0000,2.420000
313.0000,2.410000
314.0000,2.410000
315.0000,2.410000
316.0000,2.400000
317.0000,2.400000
318.0000,2.390000
319.0000,2.390000
320.0000,2.390000
321.0000,2.380000
322.0000,2.380000
323.0000,2.370000
324.0000,2.360000
325.0000,2.360000
326.0000,2.350000
327.0000,2.340000
328.0000,2.330000
329.0000,2.320000
##END=
