##TITLE=Phenanthrene
##JCAMP-DX=4.24
##DATA TYPE=UV/VIS SPECTRUM
##ORIGIN=INSTITUTE OF ENERGY PROBLEMS OF CHEMICAL PHYSICS, RAS
##OWNER=INEP CP RAS, NIST OSRD
Collection (C) 2007 copyright by the U.S. Secretary of Commerce
on behalf of the United States of America. All rights reserved.
##CAS REGISTRY NO=85-01-8
##MOLFORM=C14H10
##MP=99.2
##BP=340
##SOURCE REFERENCE=RAS UV No. 669
##$NIST SQUIB=1948RAM/MAT1215-1225
##$NIST SOURCE=TSGMTE
##SPECTROMETER/DATA SYSTEM=n.i.g.
##XUNITS=Wavelength (nm)
##YUNITS=Logarithm epsilon
##XFACTOR=1.000000
##YFACTOR=1.000000
##FIRSTX=380.1597
##LASTX=240.5595
##FIRSTY=1.05787
##MAXX=380.16
##MINX=240.56
##MAXY=4.67137
##MINY=1.05787
##NPOINTS=1117
##$REF AUTHOR=Ramart-Lucas, M.; Matti, M.J.; Guilmart, T.
##$REF TITLE=Structure, absorption et comportement chimique dans la serie du phenanthrene
##$REF JOURNAL=Bull. Soc. Chim. Fr.
##$REF VOLUME=15
##$REF PAGE=1215-1225
##$REF DATE=1948
##XYPOINTS=(XY..XY)
380.1597,1.057871
380.1567,1.082760
380.1567,1.082760
380.0479,1.083889
379.9245,1.085166
379.7940,1.086524
379.7940,1.086524
379.6249,1.124863
379.4560,1.163203
379.2873,1.201542
379.2873,1.201542
379.2409,1.234064
379.1799,1.266584
379.1116,1.299106
379.1116,1.299106
379.0035,1.300235
378.8808,1.301514
378.7509,1.302868
378.7509,1.302868
378.7054,1.329329
378.6453,1.355942
378.5779,1.382631
378.5779,1.382631
378.4434,1.414353
378.3090,1.446076
378.1747,1.477797
378.0405,1.509518
377.9064,1.541241
377.7723,1.572962
377.6384,1.604684
377.5046,1.636406
377.3708,1.668128
377.2372,1.699850
377.1037,1.731572
376.9702,1.763293
376.8368,1.795015
376.7036,1.826737
376.5704,1.858459
376.4373,1.890181
376.3044,1.921903
376.1715,1.953625
376.1715,1.953625
376.0643,1.960572
375.9428,1.967670
375.8143,1.974845
375.8143,1.974845
375.8043,2.009130
375.7597,2.033448
375.6423,2.068644
375.6423,2.068644
375.5361,2.069771
375.4156,2.071050
375.2881,2.072405
375.2881,2.072405
375.2426,2.105967
375.1827,2.139604
375.1157,2.173394
375.1157,2.173394
375.0167,2.186845
374.9106,2.200449
374.7903,2.214128
374.7903,2.214128
374.6929,2.215255
374.5884,2.216534
374.4697,2.217889
374.4697,2.217889
374.4053,2.222440
374.3408,2.227144
374.2763,2.231923
373.9591,2.214117
373.8401,2.212315
373.7497,2.207698
373.6107,2.196311
373.6107,2.196311
373.3894,2.193924
373.1754,2.191613
372.9758,2.189455
372.9758,2.189455
372.8535,2.169750
372.7236,2.156435
372.4747,2.138097
372.4747,2.138097
372.0958,2.135024
371.7175,2.132026
371.3401,2.129181
371.3401,2.129181
371.2796,2.117883
371.2262,2.106585
371.1867,2.095287
371.1867,2.095287
370.9081,2.070990
370.6368,2.046768
370.3798,2.022700
370.3798,2.022700
370.2560,2.021341
370.1392,2.020059
370.0363,2.018929
370.0363,2.018929
369.9761,2.010040
369.9227,2.001227
369.8832,1.992567
369.8832,1.992567
369.7680,1.990169
369.6666,1.987771
369.5723,1.985373
369.5723,1.985373
369.2417,1.962787
368.9255,1.940277
368.6167,1.917919
368.6167,1.917919
368.2790,1.902522
367.9487,1.887200
367.6328,1.872032
367.6328,1.872032
367.2345,1.843840
366.7285,1.810626
366.2311,1.774445
366.2311,1.774445
366.1100,1.773086
365.9958,1.771804
365.8953,1.770675
365.8953,1.770675
365.6236,1.754593
365.3590,1.738588
365.1100,1.708700
365.1100,1.708700
365.1095,1.713251
365.1089,1.717956
365.1084,1.722736
365.1084,1.722736
364.9980,1.702637
364.8997,1.696728
364.8081,1.690894
364.8081,1.690894
364.5962,1.686783
364.3846,1.682671
364.1732,1.678560
364.1732,1.678560
364.0008,1.677202
363.8421,1.675919
363.6902,1.674788
363.2376,1.680258
363.0130,1.687368
362.8485,1.695621
362.6033,1.712087
362.6033,1.712087
362.5629,1.725539
362.5093,1.739143
362.4489,1.752824
362.4489,1.752824
362.3501,1.753951
362.2379,1.755230
362.1192,1.756585
362.1192,1.756585
361.7207,1.792322
361.3217,1.828076
360.9206,1.863863
360.5162,1.899699
360.1070,1.935600
360.1070,1.935600
359.8988,1.947338
359.6909,1.959228
359.4831,1.971195
359.4831,1.971195
359.2619,1.999302
359.1077,2.013944
358.8885,2.027672
358.8885,2.027672
358.5094,2.061317
358.1287,2.094990
357.7468,2.128687
357.3639,2.162404
356.9805,2.196137
356.5970,2.229882
356.2135,2.263635
355.8306,2.297393
355.8306,2.297393
355.7349,2.301943
355.6265,2.306645
355.5117,2.311424
355.5117,2.311424
355.4734,2.320324
355.4223,2.329224
355.3648,2.338124
355.3648,2.338124
355.1633,2.338121
354.9620,2.338118
354.7610,2.338115
354.7610,2.338115
354.7605,2.342667
354.7600,2.347371
354.7595,2.352151
354.7595,2.352151
354.4155,2.351106
354.0721,2.349985
353.7295,2.348712
353.7295,2.348712
353.6438,2.338771
353.5519,2.328753
353.4474,2.318582
353.4474,2.318582
353.1563,2.299736
352.8529,2.280814
352.5439,2.261740
352.5439,2.261740
352.4578,2.261295
352.3656,2.260698
352.2608,2.260024
352.2608,2.260024
351.9795,2.234674
351.6925,2.209247
351.3934,2.183669
351.3934,2.183669
351.3581,2.172612
351.3102,2.161402
351.2561,2.150117
351.2561,2.150117
351.1635,2.148987
351.0584,2.147705
350.9472,2.146347
350.9472,2.146347
350.8628,2.138129
350.7721,2.129911
350.6690,2.121694
350.6690,2.121694
350.5281,2.118852
350.3811,2.115857
350.2218,2.112786
350.2218,2.112786
350.1377,2.103884
350.0475,2.094982
349.9449,2.086079
349.9449,2.086079
349.7104,2.084871
349.3709,2.084422
348.6372,2.084347
348.6372,2.084347
348.5344,2.085943
348.4623,2.089138
348.3590,2.096667
348.3590,2.096667
348.2676,2.097794
348.1641,2.099074
348.0544,2.100428
348.0544,2.100428
347.9697,2.108643
347.8789,2.116858
347.7758,2.125073
347.7758,2.125073
347.6848,2.126200
347.5816,2.127479
347.4722,2.128834
347.4722,2.128834
347.4359,2.135338
347.3873,2.141842
347.3326,2.148345
347.3326,2.148345
346.9650,2.169565
346.5860,2.190784
346.2018,2.212003
346.2018,2.212003
346.0098,2.218948
345.8181,2.226045
345.6265,2.233219
345.6265,2.233219
345.4344,2.248621
345.2424,2.264024
345.0507,2.279426
345.0507,2.279426
344.7768,2.294827
344.4974,2.310228
344.2064,2.325629
344.2064,2.325629
344.0170,2.328377
343.8279,2.331201
343.6390,2.334178
343.6390,2.334178
343.6036,2.338971
343.5562,2.343763
343.5029,2.348554
343.2358,2.330748
343.0826,2.330074
342.9416,2.329476
342.8065,2.329030
342.8065,2.329030
342.7543,2.324921
342.7081,2.320812
342.6738,2.316703
342.6738,2.316703
342.5678,2.315345
342.4678,2.314063
342.3798,2.312933
342.3798,2.312933
342.3278,2.308152
342.2817,2.303447
342.2475,2.298895
342.2475,2.298895
341.9758,2.287289
341.6693,2.271346
341.2929,2.252664
341.2929,2.252664
341.1604,2.249593
341.0291,2.234858
341.0280,2.246599
340.9945,2.237697
340.9480,2.240689
340.8957,2.243756
340.8957,2.243756
340.4716,2.249227
340.3678,2.249428
340.2581,2.250847
340.0486,2.254697
340.0486,2.254697
339.8572,2.265155
339.7540,2.272875
339.6505,2.284475
339.6505,2.284475
339.5462,2.285830
339.4477,2.287109
339.3610,2.288236
339.3610,2.288236
339.2629,2.296450
339.1766,2.304665
339.0962,2.312880
339.0962,2.312880
338.9921,2.314235
338.8940,2.315514
338.8075,2.316641
338.8075,2.316641
338.6744,2.330358
338.3605,2.352896
337.5992,2.403576
337.5992,2.403576
337.5475,2.410067
337.5017,2.416482
337.4674,2.422745
337.4674,2.422745
337.3644,2.424100
337.2672,2.425379
337.1816,2.426506
337.1816,2.426506
337.1301,2.433010
337.0843,2.439513
337.0501,2.446017
337.0501,2.446017
336.9023,2.447283
336.7661,2.448396
336.6357,2.449434
336.6357,2.449434
335.9574,2.449359
335.5442,2.448909
335.0409,2.447695
335.0409,2.447695
334.9914,2.439922
334.9476,2.432301
334.9151,2.424757
334.9151,2.424757
334.7851,2.447691
334.7216,2.407459
334.5506,2.395030
334.5221,2.447687
334.2557,2.376818
334.2557,2.376818
334.2482,2.447682
334.1549,2.375459
334.0597,2.374177
333.9760,2.373047
333.9760,2.373047
333.9690,2.447677
333.6337,2.348456
333.3423,2.329952
333.0683,2.311068
333.0683,2.311068
332.9748,2.309355
332.8926,2.307642
332.8160,2.305929
332.8160,2.305929
332.7232,2.297026
332.6418,2.288124
332.5660,2.279222
332.5660,2.279222
332.4121,2.307634
332.3186,2.309103
332.2963,2.267387
332.2531,2.311409
332.1594,2.316530
332.0326,2.257379
331.7638,2.245316
331.7638,2.245316
331.5632,2.244108
331.3294,2.243661
330.8626,2.243589
330.8626,2.243589
330.6940,2.248341
330.4643,2.256743
330.2128,2.265146
330.2128,2.265146
330.0221,2.276262
329.8536,2.288596
329.5631,2.312720
329.5631,2.312720
329.4648,2.314075
329.3721,2.315354
329.2905,2.316481
329.2905,2.316481
329.0228,2.340935
328.8935,2.355577
328.7915,2.372959
328.7915,2.372959
328.6506,2.376037
328.5208,2.379116
328.3966,2.382195
328.3966,2.382195
328.1179,2.384662
327.8887,2.385990
327.5130,2.387315
327.5130,2.387315
327.5127,2.390738
327.5122,2.396571
327.5117,2.402479
327.5111,2.408540
327.3421,2.384915
327.1713,2.382516
327.0007,2.380117
327.0007,2.380117
326.7848,2.351115
326.5746,2.322266
326.3755,2.293493
326.3755,2.293493
326.2858,2.290411
326.2069,2.287328
326.1335,2.284246
326.1335,2.284246
325.9638,2.283571
325.7943,2.282972
325.6250,2.282525
325.6250,2.282525
325.4083,2.283878
325.1972,2.285155
324.9971,2.286280
324.9971,2.286280
324.8595,2.289346
324.7327,2.292336
324.6113,2.295174
324.6113,2.295174
324.4372,2.301751
324.3435,2.306276
324.2497,2.312627
324.2497,2.312627
324.1545,2.313982
324.0648,2.315261
323.9858,2.316388
323.9858,2.316388
323.8184,2.324601
323.6566,2.332814
323.5055,2.341028
323.5055,2.341028
323.3691,2.344094
323.2435,2.347084
323.1232,2.349922
323.1232,2.349922
323.0761,2.354029
323.0343,2.358136
323.0031,2.362244
323.0031,2.362244
322.9087,2.363599
322.8197,2.364878
322.7413,2.366005
322.7413,2.366005
322.6944,2.369072
322.6528,2.372064
322.6217,2.374904
322.6217,2.374904
322.2726,2.390227
322.0509,2.398477
321.7666,2.406726
321.7666,2.406726
321.5549,2.409118
321.3487,2.411511
321.1532,2.413904
321.1532,2.413904
320.9016,2.413899
320.6608,2.413895
320.4256,2.413891
320.4256,2.413891
320.3389,2.413204
320.2627,2.412518
320.1917,2.411832
320.1917,2.411832
320.0289,2.402941
319.8662,2.394126
319.7037,2.385463
319.7037,2.385463
319.4565,2.359441
319.2201,2.333418
318.9892,2.307396
318.9892,2.307396
318.8273,2.301332
318.6656,2.295421
318.5041,2.289585
318.5041,2.289585
318.2579,2.274175
318.0224,2.258766
317.7923,2.243356
317.7923,2.243356
317.6312,2.242085
317.4703,2.240966
317.3096,2.239924
316.8280,2.239915
316.6678,2.240951
316.5077,2.242064
316.3477,2.243329
316.3477,2.243329
315.7803,2.266471
315.4224,2.280640
315.1610,2.293289
315.1610,2.293289
314.9918,2.311151
314.8737,2.321178
314.7054,2.331965
314.7054,2.331965
314.5914,2.335487
314.4724,2.339162
314.3435,2.342913
314.3435,2.342913
314.1174,2.343352
313.8866,2.343944
313.6462,2.344611
313.6462,2.344611
313.3767,2.341081
313.1026,2.337399
312.8191,2.333640
312.8191,2.333640
312.6790,2.329086
312.5291,2.324379
312.3745,2.319596
312.3745,2.319596
312.0349,2.313757
311.6862,2.307842
311.3334,2.301774
311.3334,2.301774
310.9956,2.301324
310.6488,2.300721
310.2979,2.300042
310.2979,2.300042
309.5978,2.306317
308.9251,2.312898
308.3758,2.317806
308.3758,2.317806
308.1138,2.322797
307.6838,2.332196
306.9056,2.347903
306.9056,2.347903
306.7269,2.354404
306.5390,2.360905
306.3465,2.367405
306.3465,2.367405
306.2394,2.369115
306.1323,2.370825
306.0253,2.372534
306.0253,2.372534
305.8348,2.382420
305.6019,2.392533
305.1278,2.411543
305.1278,2.411543
305.0209,2.420885
304.9141,2.430380
304.8074,2.439951
304.8074,2.439951
304.7375,2.441078
304.6582,2.442357
304.5742,2.443712
304.5742,2.443712
304.5093,2.451927
304.4398,2.460142
304.3608,2.468356
304.3608,2.468356
304.2911,2.469483
304.2120,2.470762
304.1283,2.472117
304.1283,2.472117
303.9923,2.514552
303.8333,2.552346
303.6980,2.588847
303.6980,2.588847
303.6286,2.589974
303.5498,2.591253
303.4665,2.592608
303.4665,2.592608
303.3825,2.622656
303.2993,2.642891
303.1458,2.670655
303.1458,2.670655
303.0761,2.678198
302.9972,2.685816
302.9136,2.693587
302.9136,2.693587
302.7328,2.734319
302.5635,2.771759
302.4037,2.806413
302.2515,2.838782
302.1050,2.869370
301.9624,2.898679
301.8219,2.927213
301.6815,2.955474
301.5394,2.983966
301.3937,3.013191
301.2427,3.043653
301.0844,3.075854
300.9171,3.110298
300.7390,3.147487
300.7390,3.147487
300.5928,3.172234
300.4468,3.197133
300.3008,3.222108
300.3008,3.222108
300.1432,3.263705
299.9838,3.305333
299.8207,3.347026
299.6521,3.388815
299.6521,3.388815
299.4341,3.414194
299.2437,3.440791
299.0950,3.457956
299.0950,3.457956
298.7885,3.457506
298.4782,3.456903
298.1594,3.456225
298.1594,3.456225
298.0178,3.452786
297.8764,3.449271
297.7350,3.445603
297.7350,3.445603
297.6739,3.441481
297.6084,3.437283
297.5339,3.432932
297.5339,3.432932
297.3667,3.429493
297.1908,3.425977
297.0106,3.422309
297.0106,3.422309
296.7292,3.422987
296.4482,3.423666
296.1678,3.424345
296.1678,3.424345
296.0276,3.427093
295.8876,3.429917
295.7476,3.432894
295.7476,3.432894
295.6463,3.454802
295.5451,3.476709
295.4439,3.498617
295.4439,3.498617
295.1624,3.540034
294.8815,3.581452
294.6011,3.622869
294.6011,3.622869
294.3317,3.673781
294.1155,3.711054
293.9371,3.740946
293.7812,3.769715
293.7812,3.769715
293.6205,3.784864
293.5125,3.798263
293.3646,3.821400
293.3646,3.821400
293.3384,3.832456
293.3034,3.843663
293.2641,3.854947
293.2641,3.854947
293.1994,3.856074
293.1260,3.857353
293.0482,3.858708
293.0482,3.858708
292.9705,3.881085
292.8932,3.897148
292.7503,3.920665
292.7503,3.920665
292.5876,3.928891
292.4165,3.937192
292.2412,3.945645
292.2412,3.945645
292.0069,3.945640
291.7686,3.945635
291.5222,3.945629
291.5222,3.945629
291.3829,3.936193
291.3081,3.929268
291.2336,3.918920
291.2336,3.918920
291.1699,3.917791
291.0977,3.916508
291.0212,3.915150
291.0212,3.915150
290.9969,3.905209
290.9640,3.895191
290.9268,3.885022
290.9268,3.885022
290.8309,3.876360
290.7351,3.867545
290.6394,3.858655
290.6394,3.858655
290.5759,3.857525
290.5040,3.856243
290.4278,3.854885
290.4278,3.854885
290.4032,3.850776
290.3700,3.846667
290.3325,3.842558
290.3325,3.842558
289.8731,3.814134
289.4109,3.785709
288.9417,3.757284
288.9417,3.757284
288.8471,3.748622
288.7526,3.739808
288.6582,3.730918
288.6582,3.730918
288.5956,3.729788
288.5247,3.728505
288.4495,3.727147
288.4495,3.727147
288.3925,3.718930
288.3313,3.710712
288.2616,3.702494
288.2616,3.702494
288.1992,3.701365
288.1285,3.700082
288.0535,3.698724
288.0535,3.698724
287.9595,3.691178
287.8655,3.683555
287.7715,3.675781
287.7715,3.675781
287.5827,3.666432
287.3900,3.656930
287.1891,3.647353
287.1891,3.647353
286.9021,3.640842
286.6073,3.634331
286.3090,3.627820
286.3090,3.627820
286.1781,3.628260
286.0474,3.628853
285.9168,3.629522
285.9168,3.629522
285.7862,3.631916
285.6557,3.634309
285.5253,3.636702
285.5253,3.636702
285.4082,3.637143
285.2830,3.637736
285.1537,3.638406
285.1537,3.638406
284.9998,3.640798
284.8378,3.643191
284.6719,3.645584
284.6719,3.645584
284.4861,3.651412
284.2964,3.657316
284.0988,3.663372
284.0988,3.663372
283.7326,3.670895
283.3062,3.680471
282.9421,3.687994
282.9421,3.687994
282.8865,3.690389
282.8269,3.692784
282.7592,3.695178
282.7592,3.695178
282.5038,3.699724
282.2488,3.704422
281.9944,3.709196
281.9944,3.709196
281.9391,3.711592
281.8799,3.713987
281.8126,3.716381
281.8126,3.716381
281.4686,3.721166
281.1253,3.725951
280.7829,3.730735
280.7829,3.730735
280.1829,3.729440
279.9186,3.728458
279.7619,3.726945
279.7619,3.726945
279.6143,3.721692
279.4943,3.718494
279.2994,3.714610
279.2994,3.714610
279.0263,3.713259
278.8561,3.711835
278.6429,3.709116
278.6429,3.709116
278.4947,3.710685
278.2838,3.712100
277.8303,3.714574
277.8303,3.714574
277.7416,3.716284
277.6490,3.717993
277.5486,3.719702
277.5486,3.719702
277.4949,3.725534
277.4373,3.731441
277.3719,3.737500
277.3719,3.737500
277.3140,3.738627
277.2483,3.739906
277.1787,3.741261
277.1787,3.741261
277.0904,3.752911
277.0021,3.764637
276.9139,3.776516
276.9139,3.776516
276.8562,3.777643
276.7907,3.778922
276.7214,3.780277
276.7214,3.780277
276.2737,3.822044
276.0876,3.841299
276.0024,3.854547
276.0024,3.854547
275.9451,3.855674
275.8801,3.856953
275.8112,3.858308
275.8112,3.858308
275.7238,3.868246
275.6365,3.878261
275.5493,3.888428
275.5493,3.888428
275.2530,3.913082
274.9535,3.937811
274.6470,3.962693
274.6470,3.962693
274.5943,3.970236
274.5378,3.977855
274.4736,3.985626
274.4736,3.985626
274.4169,3.986753
274.3526,3.988032
274.2845,3.989387
274.2845,3.989387
274.0201,4.013585
273.8596,4.026450
273.6651,4.039011
273.6651,4.039011
273.5454,4.041404
273.4258,4.043798
273.3064,4.046191
273.3064,4.046191
273.0460,4.045741
272.7787,4.045138
272.5081,4.044459
272.5081,4.044459
272.4568,4.042062
272.4018,4.039664
272.3392,4.037266
272.3392,4.037266
272.1990,4.036223
272.0515,4.035103
271.9003,4.033831
271.9003,4.033831
271.0675,4.019254
270.5693,4.010011
269.9770,3.998179
269.9770,3.998179
269.7778,3.995777
269.5789,3.993376
269.3803,3.990974
269.3803,3.990974
269.0161,3.990521
268.6492,3.989915
268.2760,3.989234
268.2760,3.989234
268.1610,3.991627
268.0461,3.994020
267.9313,3.996414
267.9313,3.996414
267.8167,3.996855
267.7022,3.997448
267.5878,3.998117
267.5878,3.998117
267.4238,4.001548
267.2563,4.005056
267.0818,4.008716
267.0818,4.008716
267.0323,4.011111
266.9791,4.013506
266.9188,4.015901
266.9188,4.015901
266.6912,4.020003
266.4641,4.024105
266.2373,4.028207
266.2373,4.028207
266.1880,4.032314
266.1351,4.036421
266.0750,4.040527
266.0750,4.040527
266.0217,4.042250
265.9612,4.044049
265.8972,4.046000
265.8972,4.046000
265.8479,4.051818
265.7950,4.057637
265.7350,4.063455
265.7350,4.063455
265.6537,4.066534
265.5689,4.069613
265.4770,4.072691
265.4770,4.072691
265.3151,4.083604
265.1499,4.093375
264.9777,4.104516
264.9777,4.104516
264.5679,4.124703
264.2338,4.142610
263.8263,4.163025
263.8263,4.163025
263.7737,4.168171
263.7140,4.173394
263.6508,4.178768
263.6508,4.178768
263.3450,4.193290
263.0785,4.206901
262.8267,4.217773
262.8267,4.217773
262.7785,4.225315
262.7267,4.232934
262.6679,4.240705
262.6679,4.240705
262.6160,4.242428
262.5571,4.244227
262.4946,4.246178
262.4946,4.246178
262.4466,4.250969
262.3952,4.255761
262.3368,4.260552
262.3368,4.260552
262.2891,4.260994
262.2379,4.261589
262.1798,4.262259
262.1798,4.262259
261.6631,4.287997
261.3323,4.304382
261.0369,4.320768
261.0369,4.320768
261.0166,4.323519
260.9894,4.326346
260.9587,4.329325
260.9587,4.329325
260.9075,4.330452
260.8494,4.331731
260.7878,4.333086
260.7878,4.333086
260.7098,4.340628
260.6319,4.348246
260.5540,4.356016
260.5540,4.356016
260.2897,4.369018
260.0226,4.382019
259.7491,4.395021
259.7491,4.395021
259.6981,4.400256
259.6403,4.405643
259.5790,4.411106
259.5790,4.411106
259.4821,4.415655
259.3783,4.420356
259.2712,4.425134
259.2712,4.425134
259.1439,4.428566
259.0099,4.432074
258.8726,4.435735
258.8726,4.435735
258.8527,4.438131
258.8259,4.440526
258.7958,4.442922
258.7958,4.442922
258.6482,4.444123
258.3992,4.444559
257.8369,4.444607
257.8369,4.444607
257.7112,4.443563
257.5789,4.442444
257.4434,4.441172
257.4434,4.441172
257.2920,4.437060
257.1374,4.432947
256.9763,4.428835
256.9763,4.428835
256.7200,4.429271
256.4608,4.429860
256.1954,4.430524
256.1954,4.430524
256.1205,4.432234
256.0456,4.433943
255.9708,4.435653
255.9708,4.435653
255.8659,4.440443
255.7612,4.445232
255.6565,4.450022
255.6565,4.450022
255.6073,4.451060
255.5515,4.452174
255.4925,4.453441
255.4925,4.453441
255.4178,4.457559
255.3432,4.461754
255.2686,4.466101
255.2686,4.466101
255.1645,4.468849
255.0604,4.471674
254.9564,4.474651
254.9564,4.474651
254.9370,4.478086
254.9110,4.481597
254.8818,4.485261
254.8818,4.485261
254.8329,4.486388
254.7774,4.487667
254.7187,4.489022
254.7187,4.489022
254.6252,4.494167
254.5253,4.499388
254.4222,4.504761
254.4222,4.504761
254.3477,4.507155
254.2700,4.509549
254.1858,4.511943
254.1858,4.511943
253.4765,4.544585
253.0897,4.562096
252.8923,4.572158
252.8923,4.572158
252.7901,4.574995
252.6880,4.577984
252.5859,4.581050
252.5859,4.581050
252.1220,4.603618
251.7308,4.621091
251.0780,4.648446
251.0780,4.648446
251.0341,4.652553
250.9870,4.656660
250.9336,4.660766
250.9336,4.660766
250.8144,4.664199
250.6888,4.667707
250.5602,4.671368
250.5602,4.671368
250.2414,4.671358
249.9170,4.671348
249.5903,4.671339
249.5903,4.671339
249.4849,4.663677
249.4079,4.659592
249.2931,4.655582
249.2931,4.655582
249.1756,4.653854
249.0520,4.652050
248.9253,4.650093
248.9253,4.650093
248.8366,4.646655
248.7416,4.643140
248.6435,4.639472
248.6435,4.639472
247.4415,4.605785
246.8325,4.589308
246.4661,4.579153
246.4661,4.579153
246.3692,4.578111
246.2724,4.576992
246.1757,4.575721
246.1757,4.575721
245.8439,4.575026
245.5100,4.574331
245.1708,4.573636
245.1708,4.573636
245.0062,4.578423
244.8417,4.583211
244.6775,4.587999
244.6775,4.587999
244.5403,4.593827
244.4001,4.599731
244.2541,4.605787
244.2541,4.605787
244.1331,4.606988
243.9852,4.607427
243.6838,4.607481
243.6838,4.607481
243.3975,4.601424
243.0342,4.592626
242.2850,4.573545
242.2850,4.573545
242.2677,4.571389
242.2445,4.569080
242.2184,4.566696
242.2184,4.566696
242.0843,4.563851
241.9474,4.560855
241.8047,4.557782
241.8047,4.557782
241.5043,4.547400
241.3253,4.541892
241.1142,4.536534
241.1142,4.536534
241.0741,4.534136
241.0310,4.531739
240.9820,4.529341
240.9820,4.529341
240.8894,4.528298
240.7968,4.527179
240.7044,4.525908
240.7044,4.525908
240.6610,4.523067
240.6117,4.520073
240.5595,4.517003
##END=
