##TITLE=2,4'-Dichlorobenzophenone
##JCAMP-DX=4.24
##DATA TYPE=UV/VIS SPECTRUM
##ORIGIN=INSTITUTE OF ENERGY PROBLEMS OF CHEMICAL PHYSICS, RAS
##OWNER=INEP CP RAS, NIST OSRD
Collection (C) 2007 copyright by the U.S. Secretary of Commerce
on behalf of the United States of America. All rights reserved.
##CAS REGISTRY NO=85-29-0
##MOLFORM=C13H8Cl2O
##MP=67
##BP=214-5(22)
##SOURCE REFERENCE=RAS UV No. 5651
##$NIST SQUIB=1952SZM/MCG240-244
##$NIST SOURCE=TSGMTE
##SPECTROMETER/DATA SYSTEM=Beckman DU
##XUNITS=Wavelength (nm)
##YUNITS=Logarithm epsilon
##XFACTOR=1.000000
##YFACTOR=1.000000
##FIRSTX=225.0461
##LASTX=372.1534
##FIRSTY=4.44888
##MAXX=372.153
##MINX=225.046
##MAXY=4.45057
##MINY=3.29935
##NPOINTS=147
##$REF AUTHOR=Szmant, H.H.; McGinnis, C.
##$REF TITLE=The absorption spectra of some diaryl ketones, hydrazones and azines
##$REF JOURNAL=J. Am. Chem. Soc.
##$REF VOLUME=74
##$REF PAGE=240-244
##$REF DATE=1952
##XYPOINTS=(XY..XY)
225.0461,4.448881
225.0461,4.448881
225.1659,4.447210
225.2267,4.449488
225.2854,4.445508
225.4044,4.443750
225.4144,4.450045
225.6172,4.450575
226.9859,4.443125
227.1685,4.443105
227.3665,4.443082
227.5721,4.443059
227.5721,4.443059
227.5790,4.443694
227.5853,4.444278
227.5914,4.444837
229.2715,4.443758
229.6165,4.440299
230.2919,4.436146
231.1854,4.432257
232.2437,4.424520
232.8736,4.419222
233.4949,4.413861
234.1323,4.408499
234.8103,4.403195
235.5535,4.398015
236.3865,4.393026
237.3338,4.388299
238.4200,4.383907
239.6697,4.379924
241.1075,4.376427
242.7579,4.373494
242.7579,4.373494
245.1074,4.372100
247.4667,4.370700
249.8325,4.369295
252.2014,4.367885
252.2014,4.367885
253.6077,4.362461
254.9482,4.356981
256.2409,4.351357
257.5039,4.345501
258.7552,4.339316
260.0126,4.332701
261.2941,4.325549
261.2941,4.325549
262.8250,4.312056
263.6236,4.305553
264.3746,4.300716
265.4626,4.289569
266.3248,4.280997
267.5421,4.272115
269.1312,4.264344
271.1089,4.259198
271.5179,4.258445
272.1813,4.259303
272.8518,4.260082
273.5374,4.260819
275.4455,4.266895
276.8327,4.273009
278.3646,4.279922
279.9958,4.286923
281.6810,4.293346
283.3748,4.298560
285.0317,4.301960
285.6276,4.303100
286.2590,4.305004
287.2032,4.306682
289.2696,4.309564
289.2696,4.309564
290.5733,4.307911
291.8918,4.305435
293.2192,4.302204
294.5496,4.298288
295.8770,4.293754
297.1954,4.288670
298.4989,4.283107
299.7816,4.277135
301.0374,4.270829
302.2604,4.264269
303.4446,4.257537
304.5842,4.250722
305.6731,4.243920
306.7054,4.237229
307.6751,4.230758
308.5763,4.224618
309.4030,4.218928
309.4030,4.218928
311.5003,4.214935
313.2572,4.210533
314.8799,4.205316
316.5749,4.198858
318.5486,4.190699
318.5486,4.190699
320.8616,4.187795
323.1743,4.184814
325.4868,4.181775
327.7992,4.178695
327.7992,4.178695
329.0363,4.174471
330.2546,4.169478
331.4531,4.163749
332.6310,4.157321
333.7874,4.150226
334.9214,4.142497
336.0323,4.134171
337.1190,4.125280
338.1809,4.115864
339.2169,4.105963
340.2262,4.095619
341.2081,4.084881
342.1615,4.073802
343.0857,4.062439
343.9798,4.050860
344.8429,4.039137
345.6741,4.027351
346.4726,4.015594
347.2376,4.003968
347.9681,3.992582
347.9681,3.992582
349.0384,3.972550
349.9343,3.954989
350.6946,3.939402
351.3577,3.925159
351.9622,3.911516
352.5465,3.897615
353.1492,3.882482
353.8088,3.864996
354.5639,3.843834
355.4530,3.817348
356.5145,3.783361
356.5145,3.783361
357.3818,3.759697
358.2861,3.735340
359.2270,3.710144
360.2039,3.683932
361.2163,3.656493
362.2637,3.627563
363.3456,3.596824
364.4615,3.563872
365.6108,3.528198
366.7930,3.489144
368.0076,3.445831
370.0709,3.368281
370.7526,3.346929
371.4494,3.324124
372.1534,3.299354
##END=
