##TITLE=Methanone, bis(pentafluorophenyl)-
##JCAMP-DX=4.24
##DATA TYPE=UV/VIS SPECTRUM
##ORIGIN=INSTITUTE OF ENERGY PROBLEMS OF CHEMICAL PHYSICS, RAS
##OWNER=INEP CP RAS, NIST OSRD
Collection (C) 2007 copyright by the U.S. Secretary of Commerce
on behalf of the United States of America. All rights reserved.
##CAS REGISTRY NO=853-39-4
##MOLFORM=C13F10O
##MP=91-92
##SOURCE REFERENCE=RAS UV No. 333
##$NIST SQUIB=1964VOR/BAR125-128
##$NIST SOURCE=TSGMTE
##SPECTROMETER/DATA SYSTEM=Spectrophotometer SF-16
##XUNITS=Wavelength (nm)
##YUNITS=Logarithm epsilon
##XFACTOR=1.000000
##YFACTOR=1.000000
##FIRSTX=220.0000
##LASTX=299.0000
##FIRSTY=3.83
##MAXX=299
##MINX=220
##MAXY=4.14
##MINY=3.06
##NPOINTS=80
##$REF AUTHOR=Vorozhtsov, N.N.; Barhash, V.a.; Ivanova, N.G.; Anichkina, S.A.; Andrievskaya, O.I.
##$REF TITLE=Synthesis and reactions of pentaflluorophenyl- and heptafluoronaphthyl magnesiumchlorides
##$REF JOURNAL=Dokl. Akad. Nauk SSSR
##$REF VOLUME=159
##$REF NUMBER=1
##$REF PAGE=125-128
##$REF DATE=1964
##XYPOINTS=(XY..XY)
220.0000,3.829998
221.0000,3.840000
222.0000,3.830000
223.0000,3.830000
224.0000,3.820000
225.0000,3.820000
226.0000,3.810000
227.0000,3.810000
228.0000,3.820000
229.0000,3.830000
230.0000,3.829998
231.0000,3.850000
232.0000,3.870000
233.0000,3.900000
234.0000,3.920000
235.0000,3.940000
236.0000,3.960000
237.0000,3.980000
238.0000,4.000000
239.0000,4.020000
240.0000,4.040009
241.0000,4.060000
242.0000,4.080000
243.0000,4.100000
244.0000,4.120000
245.0000,4.130000
246.0000,4.140000
247.0000,4.130000
248.0000,4.130000
249.0000,4.130000
250.0000,4.120014
251.0000,4.110000
252.0000,4.090000
253.0000,4.070000
254.0000,4.040000
255.0000,4.010000
256.0000,3.990000
257.0000,3.960000
258.0000,3.940000
259.0000,3.900000
260.0000,3.870000
261.0000,3.830000
262.0000,3.800000
263.0000,3.760000
264.0000,3.730000
265.0000,3.690000
266.0000,3.660000
267.0000,3.630000
268.0000,3.600000
269.0000,3.570000
270.0000,3.540004
271.0000,3.510000
272.0000,3.490000
273.0000,3.490000
274.0000,3.480000
275.0000,3.470000
276.0000,3.450000
277.0000,3.440000
278.0000,3.440000
279.0000,3.440000
280.0000,3.429994
281.0000,3.420000
282.0000,3.410000
283.0000,3.410000
284.0000,3.390000
285.0000,3.380000
286.0000,3.370000
287.0000,3.350000
288.0000,3.330000
289.0000,3.310000
290.0000,3.300008
291.0000,3.280000
292.0000,3.260000
293.0000,3.250000
294.0000,3.230000
295.0000,3.190000
296.0000,3.180000
297.0000,3.140000
298.0000,3.100000
299.0000,3.060000
##END=
