##TITLE=Phthalic anhydride
##JCAMP-DX=4.24
##DATA TYPE=UV/VIS SPECTRUM
##ORIGIN=INSTITUTE OF ENERGY PROBLEMS OF CHEMICAL PHYSICS, RAS
##OWNER=INEP CP RAS, NIST OSRD
Collection (C) 2007 copyright by the U.S. Secretary of Commerce
on behalf of the United States of America. All rights reserved.
##CAS REGISTRY NO=85-44-9
##MOLFORM=C8H4O3
##MP=130.8
##BP=295
##SOURCE REFERENCE=RAS UV No. 6044
##$NIST SQUIB=1975BAR/SZO254B
##$NIST SOURCE=TSGMTE
##SPECTROMETER/DATA SYSTEM=Carl Zeiss spectrophotometer
##XUNITS=Wavelength (nm)
##YUNITS=Logarithm epsilon
##XFACTOR=1.000000
##YFACTOR=1.000000
##FIRSTX=255.8392
##LASTX=326.9215
##FIRSTY=3.27101
##MAXX=326.921
##MINX=255.839
##MAXY=3.3668
##MINY=0.051577
##NPOINTS=246
##$REF AUTHOR=Bartecki, A.; Szoke, J.; Varsanyi, G.; Vizesy, M.
##$REF TITLE=Absorption spectra in the ultraviolet and visible region. Volume 20
##$REF PAGE=254
##$REF DATE=1975
##$REF PUBLISHER=Academic Press Inc.
##$REF LOCATION=New York
##XYPOINTS=(XY..XY)
255.8392,3.271015
255.8822,3.274593
255.9141,3.277988
255.9403,3.281292
255.9403,3.281292
256.9034,3.304314
257.7487,3.321580
259.2004,3.347891
259.2004,3.347891
259.6553,3.350342
260.1102,3.352702
260.5651,3.354879
260.5651,3.354879
261.3261,3.354758
261.8176,3.353905
262.4606,3.351591
262.4606,3.351591
262.7816,3.345135
263.0915,3.338862
263.3957,3.332680
263.3957,3.332680
264.1286,3.304740
264.8615,3.276892
265.5944,3.249226
265.5944,3.249226
265.9403,3.210254
266.2814,3.171281
266.6188,3.132309
266.9538,3.093336
267.2876,3.054364
267.2876,3.054364
267.6040,3.039016
267.9316,3.027505
268.5513,3.009965
268.5513,3.009965
268.7272,3.009264
268.8976,3.008747
269.0567,2.994754
269.0567,2.994754
269.0567,2.999276
269.0567,3.003798
269.0567,3.008321
269.0567,3.008321
269.6080,2.980944
270.0470,2.972524
270.7500,2.962277
270.7500,2.962277
271.7216,2.960085
272.8785,2.960085
273.7827,2.962277
273.7827,2.962277
274.6513,2.972768
275.3065,2.982893
276.3099,3.001332
276.3099,3.001332
276.6628,3.015188
277.0101,3.028860
277.3461,3.042442
277.3461,3.042442
277.5230,3.043660
277.6999,3.044787
277.8768,3.045731
277.8768,3.045731
278.1867,3.051273
278.3505,3.057455
278.5087,3.069575
278.5087,3.069575
279.3174,3.091348
280.1261,3.113030
280.9348,3.134529
280.9348,3.134529
281.1117,3.135747
281.2886,3.136874
281.4655,3.137818
281.4655,3.137818
282.0150,3.150912
282.5588,3.161997
283.5632,3.180572
283.5632,3.180572
284.0967,3.187515
284.8829,3.203503
286.5959,3.242237
286.5959,3.242237
286.9085,3.256093
287.2099,3.266751
287.7584,3.283348
287.7584,3.283348
288.0364,3.285693
288.3144,3.287855
288.5924,3.289925
288.5924,3.289925
288.9715,3.288707
289.3506,3.287580
289.7297,3.286636
289.7297,3.286636
290.2660,3.271212
291.2404,3.246288
292.6865,3.208116
292.6865,3.208116
293.0834,3.207415
293.4691,3.206898
293.8491,3.206472
293.8491,3.206472
294.2712,3.212212
294.6821,3.217861
295.0874,3.223327
295.0874,3.223327
295.1034,3.228489
295.2147,3.232006
295.5171,3.236893
295.5171,3.236893
296.0469,3.275126
296.5710,3.313358
297.0840,3.351591
297.0840,3.351591
297.4125,3.358168
297.4378,3.351591
297.4705,3.361046
297.5398,3.363924
297.6147,3.366801
297.7916,3.351591
297.8169,3.356524
297.8169,3.358701
297.8169,3.361061
297.8169,3.363512
298.1454,3.351591
298.1454,3.351591
298.4234,3.329817
298.7014,3.308135
298.9794,3.286636
298.9794,3.286636
299.0555,3.264059
299.1498,3.240977
299.2640,3.216125
299.3993,3.188238
299.5573,3.156051
299.7395,3.118298
299.9472,3.073713
300.1820,3.021032
300.4452,2.958988
300.4452,2.958988
300.5787,2.952494
300.7548,2.933243
301.0920,2.885857
301.7088,2.794959
301.7088,2.794959
301.8253,2.748540
301.9185,2.710226
301.9911,2.677886
302.0457,2.649389
302.0848,2.622604
302.1110,2.595400
302.1269,2.565645
302.1350,2.531209
302.1381,2.489960
302.1385,2.439767
302.1385,2.439767
302.3775,2.398840
302.5827,2.363943
302.7636,2.333709
302.9294,2.306768
303.0896,2.281751
303.2536,2.257289
303.4308,2.232014
303.6305,2.204556
303.8621,2.173546
304.1351,2.137616
304.4588,2.095398
304.8426,2.045520
304.8426,2.045520
305.0448,2.013340
305.2255,1.985199
305.3908,1.959793
305.5465,1.935817
305.6988,1.911967
305.8535,1.886938
306.0167,1.859425
306.1942,1.828123
306.3922,1.791729
306.6164,1.748937
306.8729,1.698442
307.1677,1.638940
307.1677,1.638940
307.2806,1.625283
307.3911,1.612558
307.5214,1.598737
307.6934,1.581794
307.9291,1.559701
308.2504,1.530429
308.6794,1.491952
309.2380,1.442243
309.9483,1.379273
310.8322,1.301015
310.8322,1.301015
310.9829,1.298563
311.1280,1.296204
311.2619,1.294027
311.2619,1.294027
311.7917,1.250161
312.3158,1.206478
312.8288,1.162884
312.8288,1.162884
313.1068,1.120557
313.3848,1.078319
313.6628,1.036266
313.6628,1.036266
313.9810,1.008400
314.2038,0.972592
314.5220,0.898138
314.5220,0.898138
314.6662,0.895257
314.7991,0.892378
314.9264,0.889503
314.9264,0.889503
315.2932,0.853388
315.6573,0.817274
316.0192,0.781181
316.3794,0.745106
316.7382,0.709058
317.0961,0.673049
317.4536,0.637089
317.4536,0.637089
317.8710,0.603794
318.2283,0.575465
318.5482,0.550485
318.8534,0.527204
319.1666,0.503995
319.5105,0.479244
319.9076,0.451280
320.3808,0.418500
320.9526,0.379269
321.6457,0.331953
322.4829,0.274896
322.4829,0.274896
323.1624,0.240125
323.8371,0.205340
324.5081,0.170555
325.1767,0.135800
325.8441,0.101025
325.8441,0.101025
325.9312,0.092089
326.0688,0.087178
326.3749,0.082103
326.3749,0.082103
326.6201,0.065318
326.9215,0.051577
##END=
