##TITLE=1-Naphthalenesulfonic acid
##JCAMP-DX=4.24
##DATA TYPE=UV/VIS SPECTRUM
##ORIGIN=INSTITUTE OF ENERGY PROBLEMS OF CHEMICAL PHYSICS, RAS
##OWNER=INEP CP RAS, NIST OSRD
Collection (C) 2007 copyright by the U.S. Secretary of Commerce
on behalf of the United States of America. All rights reserved.
##CAS REGISTRY NO=85-47-2
##MOLFORM=C10H8O3S
##MP=140
##SOURCE REFERENCE=RAS UV No. 300
##$NIST SQUIB=1962HOR1324-1326
##$NIST SOURCE=TSGMTE
##SPECTROMETER/DATA SYSTEM=n.i.g.
##XUNITS=Wavelength (nm)
##YUNITS=Logarithm epsilon
##XFACTOR=1.000000
##YFACTOR=1.000000
##FIRSTX=200.6148
##LASTX=239.4876
##FIRSTY=4.28562
##MAXX=239.488
##MINX=200.615
##MAXY=4.75661
##MINY=3.02027
##NPOINTS=158
##$REF AUTHOR=Horyna, J.
##$REF TITLE=Loslichkeit der naphthalin-1- und -2-sulfonsaure in verschieden konzentrierter schwefelsaure
##$REF JOURNAL=Collect. Czech. Chem. Commun.
##$REF VOLUME=27
##$REF PAGE=1324-1326
##$REF DATE=1962
##XYPOINTS=(XY..XY)
200.6148,4.285618
200.7244,4.288474
200.7244,4.288474
201.0114,4.307213
201.2652,4.323821
201.4964,4.339032
201.7155,4.353581
201.9333,4.368201
202.1603,4.383625
202.4072,4.400588
202.6847,4.419823
203.0033,4.442064
203.3736,4.468044
203.8064,4.498498
204.3122,4.534158
204.9017,4.575760
205.5855,4.624036
205.5855,4.624036
205.9464,4.646270
206.2974,4.668656
206.6499,4.690309
207.0154,4.710344
207.4057,4.727876
207.8322,4.742021
208.3064,4.751894
208.8401,4.756610
209.4447,4.755284
209.4447,4.755284
209.7716,4.729319
210.0423,4.702755
210.2671,4.675469
210.4567,4.647338
210.6214,4.618238
210.7717,4.588047
210.9182,4.556642
211.0712,4.523898
211.0712,4.523898
211.1580,4.496086
211.2448,4.468296
211.3317,4.440527
211.4187,4.412778
211.5057,4.385047
211.5928,4.357334
211.6799,4.329636
211.7670,4.301953
211.8541,4.274282
211.9413,4.246625
212.0285,4.218977
212.1156,4.191339
212.2028,4.163709
212.2899,4.136086
212.3770,4.108469
212.4641,4.080855
212.5511,4.053245
212.6381,4.025636
212.7250,3.998028
212.8118,3.970418
212.8986,3.942806
212.9853,3.915191
213.0719,3.887571
213.1584,3.859945
213.2448,3.832311
213.3310,3.804668
213.4172,3.777016
213.5032,3.749352
213.5891,3.721676
213.6749,3.693985
213.7604,3.666280
213.8459,3.638558
213.9311,3.610818
214.0162,3.583059
214.1011,3.555280
214.1858,3.527479
214.2703,3.499655
214.3546,3.471807
214.4386,3.443934
214.5225,3.416033
214.6061,3.388105
214.6061,3.388105
214.7237,3.359315
214.8364,3.330276
214.9486,3.301087
215.0647,3.271846
215.1891,3.242650
215.3264,3.213599
215.4809,3.184791
215.6572,3.156323
215.8596,3.128295
216.0925,3.100803
216.3605,3.073948
216.6680,3.047827
217.0194,3.022537
217.1173,3.020266
217.5833,3.024841
217.9674,3.032169
218.3917,3.044872
218.3917,3.044872
218.7151,3.070611
219.0387,3.096315
219.3624,3.121986
219.6864,3.147630
220.0107,3.173251
220.3355,3.198853
220.6608,3.224442
220.9867,3.250021
221.3134,3.275594
221.3134,3.275594
221.9541,3.321207
222.5459,3.363084
223.0897,3.401345
223.5866,3.436112
224.0373,3.467507
224.4430,3.495651
224.8045,3.520666
225.1227,3.542672
225.3986,3.561791
225.6331,3.578145
225.8272,3.591855
225.9818,3.603043
226.0978,3.611830
226.1762,3.618337
226.1762,3.618337
226.2646,3.620490
226.3554,3.622643
226.4511,3.624792
226.4511,3.624792
226.8340,3.647537
227.2125,3.669349
227.5901,3.690129
227.9700,3.709779
228.3557,3.728200
228.7506,3.745296
229.1581,3.760966
229.5816,3.775113
230.0245,3.787637
230.4901,3.798442
230.9820,3.807428
231.5034,3.814496
232.0578,3.819550
232.6486,3.822489
233.2791,3.823217
233.2791,3.823217
233.9503,3.804128
234.5156,3.786365
235.0176,3.768120
235.4990,3.747586
236.0024,3.722957
236.5706,3.692425
236.5706,3.692425
236.9586,3.660232
237.3421,3.627529
237.7160,3.594929
238.0757,3.563046
238.4160,3.532492
238.7323,3.503881
239.0195,3.477825
239.2729,3.454939
239.4876,3.435835
##END=
