##TITLE=1-(-2-Pyridylazo)-2-naphthol
##JCAMP-DX=4.24
##DATA TYPE=UV/VIS SPECTRUM
##ORIGIN=INSTITUTE OF ENERGY PROBLEMS OF CHEMICAL PHYSICS, RAS
##OWNER=INEP CP RAS, NIST OSRD
Collection (C) 2007 copyright by the U.S. Secretary of Commerce
on behalf of the United States of America. All rights reserved.
##CAS REGISTRY NO=85-85-8
##MOLFORM=C15H11N3O
##MP=85-90
##SOURCE REFERENCE=RAS UV No. 8765
##$NIST SQUIB=1968LAN217
##$NIST SOURCE=TYUGLMTE
##SPECTROMETER/DATA SYSTEM=Unicam SP 700
##XUNITS=Wavelength (nm)
##YUNITS=Logarithm epsilon
##XFACTOR=1.0
##YFACTOR=1.0
##FIRSTX=246.16
##LASTX=445.59
##FIRSTY=3.604
##MAXX=445.59
##MINX=246.16
##MAXY=3.807
##MINY=2.92
##NPOINTS=213
##$REF AUTHOR=Lang (editor), L.
##$REF JOURNAL=Absorption Spectra in the Ultraviolet and Visible Region
##$REF VOLUME=10
##$REF PAGE=217
##$REF DATE=1968
##XYPOINTS=(XY..XY)
246.16,3.604
246.33,3.601
246.50,3.601
246.67,3.591
247.18,3.574
247.69,3.557
248.20,3.540
248.71,3.523
249.22,3.502
249.73,3.482
250.24,3.461
250.75,3.468
251.26,3.485
251.77,3.495
252.27,3.509
252.78,3.519
253.29,3.526
253.80,3.533
254.31,3.533
254.82,3.526
255.33,3.516
255.84,3.519
256.35,3.523
256.86,3.526
257.37,3.540
257.88,3.557
258.38,3.570
258.89,3.577
259.40,3.587
259.91,3.591
260.42,3.604
260.93,3.608
261.44,3.615
261.95,3.632
262.46,3.652
262.97,3.679
263.48,3.696
263.99,3.713
264.49,3.727
264.98,3.737
265.51,3.744
266.02,3.747
266.54,3.751
267.04,3.751
267.58,3.749
267.98,3.746
268.39,3.743
268.91,3.739
269.37,3.735
270.10,3.730
270.60,3.730
271.11,3.737
271.62,3.744
272.13,3.754
272.61,3.763
273.15,3.775
273.66,3.785
274.17,3.792
274.63,3.798
275.19,3.802
275.70,3.805
276.20,3.807
276.72,3.807
277.22,3.805
277.64,3.802
278.24,3.795
278.75,3.788
279.09,3.780
279.55,3.770
280.13,3.758
280.65,3.748
281.30,3.737
281.81,3.730
282.32,3.723
282.82,3.723
283.37,3.726
283.83,3.732
284.35,3.737
284.87,3.744
285.37,3.751
285.88,3.754
286.39,3.754
286.90,3.754
287.41,3.754
287.92,3.744
288.42,3.730
288.93,3.706
289.44,3.676
289.95,3.638
290.46,3.598
290.97,3.574
291.48,3.550
293.06,3.520
294.87,3.499
296.40,3.489
297.93,3.492
299.46,3.499
300.81,3.509
302.34,3.519
303.70,3.529
304.97,3.537
306.22,3.544
307.58,3.553
309.15,3.561
310.82,3.566
312.53,3.570
314.05,3.574
315.58,3.574
317.19,3.570
318.47,3.564
319.99,3.553
321.35,3.540
322.71,3.526
323.98,3.514
325.25,3.499
325.76,3.490
326.61,3.482
327.53,3.482
328.14,3.485
328.89,3.494
329.50,3.499
330.25,3.502
331.03,3.499
332.21,3.478
333.06,3.451
333.91,3.427
334.76,3.400
335.27,3.373
336.12,3.349
336.80,3.322
337.30,3.295
337.81,3.267
338.49,3.240
339.00,3.209
339.51,3.182
339.85,3.152
340.36,3.124
340.87,3.097
341.55,3.070
342.06,3.043
342.91,3.019
343.58,2.992
344.77,2.971
345.96,2.951
347.15,2.934
347.78,2.927
348.49,2.922
350.03,2.920
351.56,2.924
352.93,2.929
354.45,2.937
355.97,2.948
357.29,2.957
358.69,2.968
360.05,2.981
361.41,2.992
362.75,3.001
364.29,3.012
365.65,3.022
367.03,3.031
368.53,3.043
370.06,3.053
371.33,3.063
372.95,3.073
374.30,3.087
375.58,3.094
377.19,3.104
378.55,3.114
380.01,3.123
381.43,3.135
382.96,3.145
384.35,3.152
385.85,3.162
387.37,3.169
388.73,3.179
390.26,3.186
391.79,3.196
393.14,3.206
394.67,3.213
396.10,3.222
397.56,3.230
398.91,3.240
400.44,3.247
401.80,3.257
403.33,3.264
404.85,3.271
406.38,3.278
407.91,3.284
409.44,3.291
410.75,3.297
412.20,3.304
413.68,3.312
415.09,3.317
416.51,3.324
418.26,3.329
419.76,3.334
421.25,3.339
422.75,3.343
424.04,3.347
425.78,3.352
427.43,3.356
428.91,3.360
430.38,3.366
431.84,3.369
433.37,3.373
434.78,3.376
436.42,3.380
437.95,3.383
439.48,3.387
440.85,3.390
442.31,3.392
444.06,3.393
445.59,3.397
##END=
