##TITLE=1,1'-Biphenyl, 2-nitro-
##JCAMP-DX=4.24
##DATA TYPE=UV/VIS SPECTRUM
##ORIGIN=INSTITUTE OF ENERGY PROBLEMS OF CHEMICAL PHYSICS, RAS
##OWNER=INEP CP RAS, NIST OSRD
Collection (C) 2007 copyright by the U.S. Secretary of Commerce
on behalf of the United States of America. All rights reserved.
##CAS REGISTRY NO=86-00-0
##MOLFORM=C12H9NO2
##MP=37.2
##BP=320
##SOURCE REFERENCE=RAS UV No. 3791
##$NIST SQUIB=1955GRA59-61
##$NIST SOURCE=TSGMTE
##SPECTROMETER/DATA SYSTEM=n.i.g.
##XUNITS=Wavelength (nm)
##YUNITS=Logarithm epsilon
##XFACTOR=1.000000
##YFACTOR=1.000000
##FIRSTX=414.9194
##LASTX=221.8421
##FIRSTY=1.0548
##MAXX=414.919
##MINX=221.842
##MAXY=4.08294
##MINY=1.0548
##NPOINTS=151
##$REF AUTHOR=Grammaticakis, P.
##$REF TITLE=Remarques sur l'absorption des derives du diphenyle dans l'ultraviolet moyen et le visible
##$REF JOURNAL=Compt. Rend.
##$REF VOLUME=241
##$REF PAGE=59-61
##$REF DATE=1955
##XYPOINTS=(XY..XY)
414.9194,1.054797
414.4200,1.087487
413.7145,1.120004
412.8373,1.152377
411.8228,1.184626
410.7052,1.216773
409.5180,1.248843
408.2940,1.280858
407.0655,1.312841
405.8638,1.344817
404.7197,1.376805
403.6631,1.408832
402.7236,1.440919
401.9301,1.473088
401.3117,1.505364
400.8972,1.537770
400.8972,1.537770
399.2980,1.578101
397.9278,1.612981
396.7364,1.643640
395.6751,1.671315
394.6968,1.697241
393.7552,1.722649
392.8051,1.748776
391.8021,1.776856
390.7027,1.808124
389.4645,1.843812
388.0465,1.885157
386.4095,1.933392
384.5161,1.989751
384.5161,1.989751
381.1629,2.072037
378.7818,2.131712
377.1703,2.173340
376.1429,2.201484
375.5245,2.220709
375.1456,2.235578
374.8400,2.250655
374.8400,2.250655
371.9399,2.315236
369.8335,2.363058
368.3089,2.398637
367.1672,2.426489
366.2178,2.451131
365.2749,2.477080
364.1570,2.508853
364.1570,2.508853
359.8089,2.593212
356.6059,2.656778
354.3382,2.702710
352.8215,2.734167
351.8878,2.754307
351.3792,2.766289
351.1437,2.773273
351.0319,2.778417
351.0319,2.778417
349.2398,2.808385
347.4854,2.837952
345.7602,2.867148
344.0559,2.895999
342.3649,2.924534
340.6796,2.952782
338.9927,2.980771
337.2974,3.008528
335.5869,3.036082
333.8549,3.063462
332.0953,3.090695
330.3024,3.117809
330.3024,3.117809
328.2781,3.143207
326.2786,3.168531
324.3032,3.193793
322.3516,3.219011
320.4234,3.244199
318.5181,3.269372
318.5181,3.269372
316.8544,3.283986
315.0925,3.299192
313.2525,3.314488
311.3534,3.329372
309.4140,3.343342
307.4519,3.355897
305.4841,3.366534
303.5266,3.374752
301.5947,3.380049
299.7030,3.381923
297.8653,3.379872
296.0946,3.373395
294.4035,3.361989
292.8039,3.345153
292.8039,3.345153
290.6664,3.339516
288.6544,3.336454
286.7538,3.335826
284.9511,3.337487
283.2339,3.341294
281.5901,3.347102
280.0084,3.354770
278.4779,3.364154
276.9883,3.375109
275.5296,3.387493
274.0923,3.401161
272.6673,3.415972
271.2458,3.431781
269.8194,3.448444
268.3800,3.465819
266.9201,3.483761
265.4322,3.502128
265.4322,3.502128
264.1734,3.522644
262.9306,3.543238
261.7032,3.563910
260.4909,3.584661
259.2931,3.605490
258.1094,3.626396
256.9395,3.647379
255.7829,3.668437
254.6393,3.689572
253.5083,3.710781
252.3895,3.732064
251.2824,3.753422
250.1869,3.774853
249.1026,3.796357
248.0291,3.817933
246.9661,3.839581
245.9132,3.861300
244.8703,3.883090
243.8370,3.904951
242.8130,3.926880
241.7980,3.948880
240.7918,3.970947
239.7941,3.993083
239.7941,3.993083
238.2871,4.015055
236.9410,4.036871
235.6187,4.056687
234.1891,4.072657
232.5276,4.082938
232.5276,4.082938
230.7602,4.079991
229.3730,4.077229
228.2406,4.074631
227.2445,4.072179
226.2707,4.069855
225.2096,4.067637
223.9557,4.065510
222.4089,4.063451
222.4089,4.063451
222.2577,4.059261
222.1107,4.057717
221.8421,4.057497
##END=
