##TITLE=9H-Carbazole, 9-ethyl-
##JCAMP-DX=4.24
##DATA TYPE=UV/VIS SPECTRUM
##ORIGIN=INSTITUTE OF ENERGY PROBLEMS OF CHEMICAL PHYSICS, RAS
##OWNER=INEP CP RAS, NIST OSRD
Collection (C) 2007 copyright by the U.S. Secretary of Commerce
on behalf of the United States of America. All rights reserved.
##CAS REGISTRY NO=86-28-2
##MOLFORM=C14H13N
##MP=247-248
##SOURCE REFERENCE=RAS UV No. 16012
##$NIST SQUIB=1971CHE/5102
##$NIST SOURCE=TYUGLMTE
##SPECTROMETER/DATA SYSTEM=Cary 11
##XUNITS=Wavelength (nm)
##YUNITS=Logarithm epsilon
##XFACTOR=1.0
##YFACTOR=1.0
##FIRSTX=213.85
##LASTX=339.04
##FIRSTY=4.456
##MAXX=339.04
##MINX=213.85
##MAXY=4.6
##MINY=3.378
##NPOINTS=189
##$REF AUTHOR=Chen, H.J.; et al.
##$REF JOURNAL=J. Am. Chem. Soc.
##$REF VOLUME=93
##$REF PAGE=5102
##$REF DATE=1971
##XYPOINTS=(XY..XY)
213.85,4.456
214.00,4.456
214.16,4.456
214.32,4.455
214.47,4.452
215.10,4.450
215.73,4.449
216.36,4.448
216.99,4.447
217.62,4.447
218.25,4.449
218.88,4.455
219.51,4.459
220.14,4.462
220.77,4.466
221.39,4.470
222.02,4.475
222.65,4.479
223.28,4.483
223.91,4.487
224.54,4.492
225.17,4.502
225.80,4.517
226.43,4.535
227.06,4.544
227.69,4.553
228.31,4.557
228.94,4.561
229.57,4.563
230.20,4.567
230.83,4.577
231.46,4.584
232.09,4.591
232.72,4.596
233.35,4.600
233.98,4.597
234.61,4.578
235.23,4.559
235.86,4.536
236.49,4.510
237.12,4.482
237.75,4.453
238.38,4.431
239.01,4.417
239.64,4.404
240.27,4.396
240.90,4.390
241.53,4.385
242.15,4.381
242.78,4.378
243.41,4.375
244.04,4.370
244.67,4.366
245.30,4.356
245.93,4.347
246.56,4.334
247.19,4.319
247.82,4.299
248.45,4.266
249.07,4.230
249.70,4.205
250.33,4.191
250.96,4.189
251.59,4.189
252.22,4.192
252.85,4.199
253.48,4.205
254.11,4.212
254.74,4.220
255.37,4.225
255.99,4.230
256.62,4.226
257.25,4.210
257.88,4.176
258.51,4.145
259.14,4.101
259.77,4.032
260.40,3.975
261.03,3.951
261.66,3.931
262.29,3.884
262.91,3.836
263.54,3.785
264.17,3.734
264.80,3.687
265.43,3.654
266.06,3.634
266.69,3.622
267.32,3.609
268.58,3.587
269.21,3.587
269.83,3.587
271.09,3.592
272.35,3.613
272.98,3.630
273.61,3.650
274.24,3.672
274.87,3.691
275.50,3.721
276.13,3.747
276.75,3.774
277.38,3.802
278.01,3.826
278.64,3.851
279.27,3.882
279.90,3.910
280.53,3.935
281.16,3.953
281.79,3.972
282.42,3.988
283.05,4.004
283.68,4.016
284.30,4.030
284.93,4.040
285.56,4.051
286.19,4.062
286.82,4.074
287.45,4.082
288.08,4.094
288.71,4.105
289.34,4.117
289.97,4.134
290.60,4.146
291.22,4.163
291.85,4.169
292.48,4.152
293.11,4.121
293.74,4.088
294.37,4.038
295.00,3.997
295.63,3.941
296.26,3.882
296.89,3.794
297.52,3.715
298.14,3.665
298.77,3.618
299.40,3.583
300.03,3.540
300.66,3.509
301.29,3.487
301.92,3.470
302.55,3.452
303.18,3.446
303.81,3.433
304.44,3.426
305.06,3.420
305.69,3.420
306.32,3.420
306.95,3.420
307.58,3.420
308.21,3.420
310.10,3.426
313.24,3.446
313.87,3.452
314.50,3.464
315.13,3.470
317.65,3.498
318.28,3.503
318.90,3.509
319.53,3.519
320.16,3.525
320.79,3.530
321.42,3.535
322.05,3.545
322.68,3.545
323.31,3.550
323.94,3.550
324.57,3.550
325.20,3.545
325.82,3.535
326.45,3.530
327.08,3.525
327.71,3.503
328.34,3.475
328.97,3.464
329.60,3.446
330.23,3.439
331.49,3.433
332.12,3.433
332.74,3.433
334.00,3.439
334.63,3.446
335.26,3.446
335.89,3.446
336.52,3.439
337.15,3.433
337.78,3.420
338.41,3.406
339.04,3.378
##END=
