##TITLE=Carbazole
##JCAMP-DX=4.24
##DATA TYPE=UV/VIS SPECTRUM
##ORIGIN=INSTITUTE OF ENERGY PROBLEMS OF CHEMICAL PHYSICS, RAS
##OWNER=INEP CP RAS, NIST OSRD
Collection (C) 2007 copyright by the U.S. Secretary of Commerce
on behalf of the United States of America. All rights reserved.
##CAS REGISTRY NO=86-74-8
##MOLFORM=C12H9N
##MP=246.2
##BP=354.7
##SOURCE REFERENCE=RAS UV No. 595
##$NIST SQUIB=1951WAL/BRA3341-3348
##$NIST SOURCE=TSGMTE
##SPECTROMETER/DATA SYSTEM=Beckman spectrophotometer
##XUNITS=Wavelength (nm)
##YUNITS=Logarithm epsilon
##XFACTOR=1.000000
##YFACTOR=1.000000
##FIRSTX=226.4526
##LASTX=338.8835
##FIRSTY=4.52805
##MAXX=338.884
##MINX=226.453
##MAXY=4.5962
##MINY=3.10306
##NPOINTS=419
##$REF AUTHOR=Walba, H.; Branch, G.E.K.
##$REF TITLE=The absorption spectra of some N-substituted p-aminotriphenylmethyl ions
##$REF JOURNAL=J. Am. Chem. Soc.
##$REF VOLUME=73
##$REF PAGE=3341-3348
##$REF DATE=1951
##XYPOINTS=(XY..XY)
226.4526,4.528054
226.7032,4.531059
226.9541,4.533978
227.2057,4.536750
227.2057,4.536750
227.8364,4.539449
228.4593,4.542002
229.0656,4.544472
229.0656,4.544472
229.7358,4.546309
230.0558,4.547283
230.3000,4.548232
230.3000,4.548232
230.6171,4.550768
230.9181,4.553161
231.2109,4.555477
231.2109,4.555477
231.3143,4.557155
231.4097,4.558762
231.4888,4.560238
231.4888,4.560238
231.6612,4.561381
231.8168,4.562516
231.9640,4.563646
231.9640,4.563646
232.1771,4.566065
232.3825,4.568348
232.5713,4.570556
232.5713,4.570556
232.7170,4.571665
232.8628,4.572771
233.0085,4.573875
233.0085,4.573875
233.1120,4.575483
233.2073,4.577024
233.2864,4.578439
233.2864,4.578439
233.5370,4.581115
233.7879,4.583718
234.0394,4.586191
234.0394,4.586191
234.4373,4.589629
234.8355,4.592983
235.2343,4.596199
235.2343,4.596199
235.5026,4.595841
235.7702,4.595594
236.0375,4.595404
236.0375,4.595404
236.1590,4.593928
236.2718,4.592501
236.3670,4.591178
236.3670,4.591178
236.6191,4.586900
236.8624,4.582635
237.0882,4.578439
237.0882,4.578439
237.4485,4.573336
237.7913,4.568286
238.1253,4.563235
238.1253,4.563235
238.2544,4.560271
238.3752,4.557284
238.4791,4.554272
238.4791,4.554272
238.7251,4.550731
238.9624,4.547221
239.1821,4.543804
239.1821,4.543804
239.4304,4.537878
239.6615,4.531929
239.8836,4.526026
239.8836,4.526026
240.0081,4.523987
240.1326,4.521937
240.2571,4.519879
240.2571,4.519879
240.6180,4.508517
240.9783,4.496992
241.3382,4.485224
241.3382,4.485224
241.5171,4.483098
241.8269,4.480058
242.5331,4.473435
242.5331,4.473435
242.9087,4.474136
243.2766,4.474685
243.6278,4.475154
243.6278,4.475154
243.7377,4.475760
243.8398,4.476214
243.9254,4.476588
243.9254,4.476588
244.0334,4.477608
244.1333,4.478550
244.2169,4.479337
244.2169,4.479337
244.6238,4.481780
245.0307,4.484210
245.4376,4.486626
245.4376,4.486626
246.0815,4.486846
246.7169,4.487062
247.3355,4.487273
247.3355,4.487273
248.0966,4.484706
248.8402,4.482264
249.5750,4.479877
249.5750,4.479877
249.9054,4.479992
250.2189,4.480101
250.5240,4.480206
250.5240,4.480206
250.7851,4.481283
251.0462,4.482357
251.3074,4.483429
251.3074,4.483429
251.7082,4.487145
252.1090,4.490829
252.5099,4.494483
252.5099,4.494483
252.8794,4.496420
253.2411,4.498204
253.5863,4.499907
253.5863,4.499907
253.8127,4.499982
254.0306,4.500054
254.2316,4.500120
254.2316,4.500120
254.4765,4.496354
254.6599,4.493031
254.9392,4.487275
254.9392,4.487275
255.0816,4.480895
255.2149,4.474566
255.3309,4.468211
255.3309,4.468211
255.8289,4.450093
256.3266,4.431268
256.8236,4.411761
256.8236,4.411761
256.9492,4.408445
257.0658,4.405274
257.1652,4.402159
257.1652,4.402159
257.5548,4.386698
257.9271,4.370752
258.2903,4.354390
258.2903,4.354390
258.4174,4.350604
258.5439,4.346984
258.6699,4.343433
258.6699,4.343433
258.9209,4.333192
259.1544,4.322906
259.3790,4.312473
259.3790,4.312473
259.5061,4.308302
259.6326,4.304310
259.7586,4.300391
259.7586,4.300391
260.6693,4.258150
261.3385,4.225077
261.9417,4.193075
262.6542,4.150902
262.6542,4.150902
262.7773,4.146047
262.8920,4.141131
262.9898,4.136146
262.9898,4.136146
263.3687,4.112573
263.7305,4.087811
264.0831,4.061928
264.0831,4.061928
264.2102,4.054474
264.3366,4.047285
264.4627,4.040177
264.4627,4.040177
264.5918,4.030213
264.7126,4.020006
264.8165,4.009537
264.8165,4.009537
265.7609,3.934291
266.7053,3.843218
267.6498,3.727837
267.6498,3.727837
267.9333,3.706072
268.2161,3.684074
268.4985,3.661382
268.4985,3.661382
268.8899,3.643014
269.2722,3.624863
269.6373,3.606421
269.6373,3.606421
269.8681,3.599674
270.0902,3.593359
270.2947,3.588049
270.7563,3.578929
271.4826,3.591248
272.2259,3.603271
272.9775,3.614992
272.9775,3.614992
273.2120,3.622758
273.4633,3.630430
273.7230,3.637988
273.7230,3.637988
274.9603,3.665274
276.2060,3.690964
277.4687,3.715253
277.4687,3.715253
277.6170,3.719926
277.7647,3.725382
277.9120,3.731180
277.9120,3.731180
279.0504,3.755350
279.6999,3.767692
280.4172,3.779442
280.4172,3.779442
280.7142,3.788614
281.0190,3.798314
281.3403,3.808173
281.3403,3.808173
281.8373,3.816690
282.3509,3.825399
282.8722,3.834598
282.8722,3.834598
283.2145,3.845182
283.5736,3.855538
283.9411,3.865666
283.9411,3.865666
284.5475,3.877265
285.1704,3.888871
285.8010,3.900742
285.8010,3.900742
286.0980,3.907696
286.4028,3.915090
286.7241,3.922644
286.7241,3.922644
286.8078,3.925468
286.9077,3.928816
287.0156,3.932406
287.0156,3.932406
287.2132,3.935307
287.4269,3.938717
287.6488,3.942363
287.6488,3.942363
287.9458,3.948686
288.2505,3.955419
288.5719,3.962309
288.5719,3.962309
288.6555,3.964887
288.7554,3.967946
288.8634,3.971228
288.8634,3.971228
289.1604,3.977148
289.4652,3.983456
289.7865,3.989919
289.7865,3.989919
290.0416,3.997255
290.2966,4.004470
290.5517,4.011567
290.5517,4.011567
290.7492,4.013985
290.9630,4.016832
291.1848,4.019880
291.1848,4.019880
292.1794,4.046007
293.1903,4.071041
294.2092,4.094894
294.2092,4.094894
294.2883,4.099173
294.3836,4.103772
294.4870,4.108502
294.4870,4.108502
294.6804,4.112543
294.8903,4.116729
295.1080,4.121216
295.1080,4.121216
295.4117,4.121456
295.7153,4.121697
296.0190,4.121937
296.0190,4.121937
296.1364,4.120302
296.2544,4.118325
296.3728,4.116170
296.3728,4.116170
296.5655,4.115534
296.7671,4.114735
296.9862,4.113609
296.9862,4.113609
297.0377,4.107453
297.0981,4.101042
297.1760,4.094193
297.1760,4.094193
297.2960,4.091050
297.4163,4.087705
297.5373,4.083969
297.5373,4.083969
297.7452,4.075040
297.9616,4.065932
298.1948,4.056643
298.1948,4.056643
298.2546,4.050545
298.3313,4.044375
298.4165,4.038125
299.7572,3.983247
299.9135,3.980344
300.0695,3.977655
300.2248,3.975416
300.2248,3.975416
300.3464,3.969231
300.4591,3.963186
300.5543,3.957525
300.5543,3.957525
300.6743,3.953255
300.7942,3.948943
300.9142,3.944588
300.9142,3.944588
301.3616,3.922293
301.8084,3.899349
302.2549,3.875419
302.2549,3.875419
302.3780,3.866218
302.4927,3.856807
302.5904,3.847161
302.5904,3.847161
302.7115,3.840641
302.8318,3.834668
302.9518,3.828939
302.9518,3.828939
303.0748,3.818743
303.1891,3.808630
303.2858,3.798951
303.2858,3.798951
303.5273,3.783333
303.7600,3.767493
303.9752,3.751805
303.9752,3.751805
304.0983,3.739532
304.2130,3.726886
304.3107,3.713826
304.3107,3.713826
304.4304,3.704935
304.5409,3.696730
304.6341,3.688782
304.6341,3.688782
305.0457,3.642481
305.4489,3.590625
305.8352,3.531675
305.8352,3.531675
306.0722,3.511475
306.3007,3.490260
306.5124,3.467894
306.5124,3.467894
306.5214,3.447250
306.5301,3.426402
306.5382,3.406240
306.5382,3.406240
307.2120,3.324947
307.8767,3.227423
308.5242,3.103062
308.5242,3.103062
309.8385,3.128553
311.1362,3.150950
312.4262,3.169207
312.4262,3.169207
312.8660,3.191694
313.2892,3.211613
313.7046,3.228000
313.7046,3.228000
315.8971,3.274125
318.0899,3.314752
320.2834,3.349931
320.2834,3.349931
321.2970,3.354647
322.2937,3.359234
323.2820,3.363735
323.2820,3.363735
323.7688,3.352894
324.2387,3.341694
324.7001,3.330156
324.7001,3.330156
324.9703,3.317518
325.2402,3.305593
325.5094,3.295574
325.5094,3.295574
325.6925,3.281394
325.8583,3.267831
326.0150,3.256239
326.0150,3.256239
326.3499,3.241392
326.6680,3.225914
326.9776,3.209811
328.4003,3.140063
329.2595,3.158459
330.1025,3.173034
330.9374,3.185642
330.9374,3.185642
331.6779,3.242330
332.5335,3.303088
333.6961,3.372103
333.6961,3.372103
334.4918,3.375625
335.2791,3.379082
336.0495,3.382439
336.0495,3.382439
336.3302,3.369260
336.6731,3.347097
337.3719,3.292985
337.3719,3.292985
337.4889,3.278355
337.5971,3.264367
337.6877,3.252294
337.6877,3.252294
338.0272,3.219930
338.3494,3.186281
338.6625,3.152861
338.6625,3.152861
338.8835,3.133329
##END=
