##TITLE=Fluorene
##JCAMP-DX=4.24
##DATA TYPE=UV/VIS SPECTRUM
##ORIGIN=INSTITUTE OF ENERGY PROBLEMS OF CHEMICAL PHYSICS, RAS
##OWNER=INEP CP RAS, NIST OSRD
Collection (C) 2007 copyright by the U.S. Secretary of Commerce
on behalf of the United States of America. All rights reserved.
##CAS REGISTRY NO=86-73-7
##MOLFORM=C13H10
##MP=114.8
##BP=295
##SOURCE REFERENCE=RAS UV No. 651
##$NIST SQUIB=1948RAM/MAT1215-1225
##$NIST SOURCE=TSGMTE
##SPECTROMETER/DATA SYSTEM=n.i.g.
##XUNITS=Wavelength (nm)
##YUNITS=Logarithm epsilon
##XFACTOR=1.000000
##YFACTOR=1.000000
##FIRSTX=316.3624
##LASTX=220.2891
##FIRSTY=1.2828
##MAXX=316.362
##MINX=220.289
##MAXY=4.28064
##MINY=1.27403
##NPOINTS=997
##$REF AUTHOR=Ramart-Lucas, M.; Matti, M.J.; Guilmart, T.
##$REF TITLE=Structure, absorption et comportement chimique dans la serie du phenanthrene
##$REF JOURNAL=Bull. Soc. Chim. Fr.
##$REF VOLUME=15
##$REF PAGE=1215-1225
##$REF DATE=1948
##XYPOINTS=(XY..XY)
316.3624,1.282803
316.3624,1.282803
316.3607,1.292599
316.3591,1.302467
316.3574,1.312486
316.3574,1.312486
316.3175,1.279779
316.2727,1.276829
316.2278,1.274028
316.1758,1.324085
316.0806,1.331340
315.9902,1.340470
315.7576,1.378914
315.7562,1.387009
315.7549,1.395104
315.7535,1.403199
315.0268,1.434879
315.0250,1.445335
315.0233,1.455792
315.0215,1.466248
314.8931,1.562375
314.8918,1.570482
314.8904,1.578666
314.8890,1.586998
314.8890,1.586998
314.7916,1.497608
314.7904,1.504455
314.7893,1.511450
314.7881,1.518522
314.7766,1.587431
314.6643,1.588014
314.5520,1.588672
314.2980,1.633861
314.2285,1.643066
314.1540,1.652420
314.0696,1.661849
313.9494,1.712778
313.8813,1.714899
313.8081,1.717169
313.7251,1.719515
313.7251,1.719515
313.6793,1.726946
313.6334,1.734453
313.5876,1.742109
313.5818,1.777189
313.5128,1.785294
313.4388,1.793474
313.3550,1.801804
313.3489,1.838570
313.3199,1.839592
313.2810,1.840691
313.2371,1.841938
313.2371,1.841938
313.1920,1.845984
313.1469,1.850030
313.1018,1.854076
312.8725,1.897917
312.8436,1.898940
312.8048,1.900038
312.7611,1.901286
312.7611,1.901286
312.7306,1.912178
312.6902,1.923220
312.6448,1.934337
312.3967,1.962324
312.3275,1.975139
312.2533,1.987954
312.1694,2.000768
312.1608,2.053387
312.1545,2.091503
312.1315,2.057434
312.1250,2.097248
312.0924,2.061480
312.0856,2.103068
312.0484,2.065526
312.0484,2.065526
312.0413,2.109038
312.0413,2.109038
312.0370,2.135348
312.0370,2.135348
312.0360,2.141094
312.0351,2.146916
312.0341,2.152887
312.0341,2.152887
312.0042,2.065962
311.9888,2.160319
311.9681,2.111834
311.9600,2.066547
311.9499,2.132983
311.9434,2.167825
311.9158,2.067207
311.8981,2.175482
311.8981,2.175482
311.8851,2.114779
311.8678,2.130619
311.7973,2.117799
311.7973,2.117799
311.7967,2.121184
311.7962,2.124644
311.7956,2.128255
311.7956,2.128255
311.7589,2.177837
311.6101,2.180193
311.4566,2.182548
311.4566,2.182548
311.4249,2.201773
311.3835,2.220998
311.3373,2.240223
311.3373,2.240223
311.2645,2.242581
311.1820,2.244939
311.0947,2.247297
311.0947,2.247297
311.0267,2.255390
310.9540,2.263482
310.8715,2.271574
310.8715,2.271574
310.7952,2.297206
310.7091,2.322838
310.6183,2.348470
310.6183,2.348470
310.5504,2.357674
310.4777,2.367029
310.3952,2.376458
310.3952,2.376458
310.2848,2.379251
310.1696,2.382195
310.0448,2.385214
310.0448,2.385214
310.0135,2.404439
309.9725,2.423664
309.9266,2.442888
309.9266,2.442888
309.8598,2.447371
309.7881,2.452003
309.7068,2.456709
309.7068,2.456709
309.7044,2.471888
309.7019,2.487067
309.6995,2.502245
309.6995,2.502245
309.6329,2.505628
309.5813,2.561606
309.5813,2.561606
309.5616,2.509086
309.5094,2.563303
309.4806,2.512693
309.4806,2.512693
309.4580,2.557991
309.4279,2.565073
309.4087,2.515052
309.3444,2.554526
309.3416,2.566994
309.3416,2.566994
309.3271,2.517410
309.3125,2.573402
309.2737,2.579809
309.2408,2.519767
309.2408,2.519767
309.2391,2.530224
309.2375,2.540680
309.2358,2.551136
309.2358,2.551136
309.2301,2.586216
309.2301,2.586216
309.1165,2.619267
309.1165,2.619267
309.1158,2.623752
309.1151,2.628387
309.1143,2.633097
309.1048,2.692462
309.1044,2.694823
309.1040,2.697184
309.1036,2.699545
309.1036,2.699545
309.1005,2.718772
309.1005,2.718772
309.0780,2.589596
309.0582,2.717521
309.0321,2.700654
309.0289,2.720468
309.0207,2.716420
308.9928,2.715394
308.9928,2.715394
308.9654,2.616900
308.9509,2.701913
308.9502,2.711345
308.9477,2.722239
308.9259,2.593050
308.9076,2.707296
308.8650,2.703246
308.8650,2.703246
308.8617,2.724159
308.8572,2.752155
308.8278,2.760687
308.8144,2.614533
308.7888,2.769368
308.7740,2.596655
308.7740,2.596655
308.7452,2.601726
308.7449,2.778123
308.7449,2.778123
308.7068,2.606871
308.6790,2.780482
308.6635,2.612166
308.6635,2.612166
308.6082,2.782840
308.5279,2.785198
308.5279,2.785198
308.4995,2.787996
308.4615,2.790942
308.4187,2.793964
308.4137,2.825333
308.3318,2.832951
308.2696,2.837495
308.1739,2.842864
308.1650,2.898856
308.1650,2.898856
308.1231,2.896493
308.0860,2.894131
308.0599,2.882998
308.0595,2.885797
308.0590,2.888745
308.0585,2.891768
308.0585,2.891768
308.0144,2.898850
307.8639,2.898844
307.7147,2.891755
307.7144,2.894116
307.7140,2.896477
307.7136,2.898838
307.7136,2.898838
307.7064,2.944037
307.6243,2.960499
307.5675,2.968717
307.4869,2.975735
307.2678,3.007095
307.2664,3.016302
307.2649,3.025660
307.2634,3.035092
307.0216,3.076908
307.0206,3.082654
307.0197,3.088476
307.0188,3.094448
306.8003,3.125808
306.7992,3.132654
306.7981,3.139650
306.7970,3.146721
306.7970,3.146721
306.7265,3.147830
306.6466,3.149089
306.5619,3.150422
306.5559,3.188875
306.4899,3.196967
306.4193,3.205060
306.3392,3.213152
305.7671,3.340968
305.7671,3.340968
305.7396,3.341404
305.7026,3.341990
305.6609,3.342650
305.6543,3.384476
305.6261,3.389634
305.5884,3.394942
305.5460,3.400325
305.5460,3.400325
305.5185,3.400761
305.4816,3.401346
305.4400,3.402007
305.3266,3.450912
305.3266,3.450912
305.3260,3.454959
305.3254,3.459007
305.3247,3.463054
305.3247,3.463054
305.2848,3.448549
305.2551,3.463489
305.2429,3.446186
305.2010,3.443823
305.1760,3.464073
305.0922,3.464732
305.0922,3.464732
305.0656,3.460246
305.0296,3.455609
304.9889,3.450898
304.9819,3.496097
304.9806,3.504204
304.9793,3.512387
304.9780,3.520720
304.9753,3.538259
304.9468,3.545691
304.9090,3.553198
304.8664,3.560855
304.8664,3.560855
304.6987,3.566020
304.6110,3.569165
304.5278,3.572984
304.3118,3.611428
304.3107,3.618274
304.3096,3.625270
304.3085,3.632341
304.0702,3.681578
304.0424,3.685624
304.0053,3.689670
303.9636,3.693716
303.9636,3.693716
303.9364,3.694152
303.8998,3.694738
303.8586,3.695399
303.8522,3.737224
303.7830,3.738333
303.7046,3.739592
303.6216,3.740925
303.6216,3.740925
303.6207,3.746659
303.6198,3.752394
303.6189,3.758128
303.4036,3.800282
303.3395,3.804764
303.2709,3.809396
303.1930,3.814103
303.1870,3.852556
303.1863,3.857278
303.1856,3.862000
303.1848,3.866722
302.7404,3.915613
302.7129,3.919660
302.6761,3.923706
302.6347,3.927752
302.6347,3.927752
302.6077,3.928188
302.5715,3.928774
302.5307,3.929434
302.5240,3.973284
302.5178,4.013423
302.5173,4.016808
302.5167,4.020269
302.5162,4.023879
302.5162,4.023879
302.4460,3.975979
302.3864,3.979125
302.3707,4.026234
302.2941,3.985417
302.2253,4.028590
302.0801,4.030945
302.0801,4.030945
302.0796,4.034330
302.0791,4.037791
302.0785,4.041401
301.2097,4.058568
301.1068,4.059901
301.0039,4.061158
300.9010,4.062266
300.9010,4.062266
300.8207,4.055854
300.7450,4.049442
300.6784,4.043030
300.6784,4.043030
300.5736,4.058542
300.4949,4.042361
300.4303,4.058536
300.3162,4.041766
300.2872,4.058530
300.1611,3.946877
300.1611,3.946877
300.1468,4.041322
300.1468,4.041322
300.1463,4.044695
300.1456,4.049180
300.1449,4.053815
300.1442,4.058524
300.1442,4.058524
300.1079,4.033575
300.0970,3.960717
300.0735,4.025903
300.0482,4.018381
300.0482,4.018381
300.0284,3.974631
299.9737,4.011307
299.9507,3.988694
299.9507,3.988694
299.9083,4.004308
299.8833,3.990390
299.8475,3.997460
299.8475,3.997460
299.8069,3.996209
299.8068,3.992161
299.7812,3.941814
299.7663,3.995108
299.7258,3.994082
299.7258,3.994082
299.5915,3.939533
299.4291,3.938077
299.4291,3.938077
299.3898,3.934028
299.3551,3.929979
299.3294,3.925930
299.3294,3.925930
299.2491,3.924590
299.1734,3.923325
299.1077,3.915464
299.1074,3.917588
299.1070,3.919862
299.1067,3.922210
299.1067,3.922210
298.9108,3.877003
298.8712,3.876339
298.8360,3.875751
298.8099,3.875313
298.8099,3.875313
298.7711,3.868902
298.7369,3.862492
298.7116,3.856082
298.4972,3.803454
298.4578,3.801765
298.4229,3.800077
298.3970,3.798390
298.2927,3.820985
298.2138,3.819532
298.1306,3.817255
297.9738,3.798372
297.9731,3.802857
297.9724,3.807492
297.9717,3.812201
297.9717,3.812201
297.6801,3.745740
297.6762,3.772050
297.6375,3.766664
297.6135,3.748099
297.6034,3.761353
297.5781,3.756192
297.5781,3.756192
297.5382,3.754941
297.5381,3.750457
297.4982,3.753840
297.4583,3.752814
297.4583,3.752814
297.2644,3.708957
297.2258,3.703658
297.1917,3.698509
297.1665,3.693436
296.6535,3.649565
296.6159,3.639544
296.5826,3.629674
296.5582,3.619878
296.5582,3.619878
296.4799,3.615827
296.4059,3.611777
296.3409,3.607726
296.3409,3.607726
296.3034,3.597268
296.2703,3.586810
296.2461,3.576353
296.2461,3.576353
296.1674,3.575013
296.0933,3.573748
296.0290,3.565887
296.0286,3.568011
296.0283,3.570284
296.0280,3.572633
296.0280,3.572633
295.2209,3.537856
295.0827,3.537850
294.9446,3.537845
294.8067,3.537839
292.3766,3.590016
292.3118,3.596859
292.2384,3.603852
292.1607,3.610920
292.1559,3.644312
292.1307,3.645336
292.0968,3.646434
292.0587,3.647681
292.0587,3.647681
292.0331,3.651728
291.9988,3.655774
291.9603,3.659820
291.9508,3.726269
291.9508,3.726269
291.8870,3.727378
291.8799,3.716746
291.8263,3.706774
291.8146,3.728636
291.7440,3.687807
291.7379,3.729970
291.7379,3.729970
291.7123,3.734016
291.6782,3.738062
291.6398,3.742108
291.6398,3.742108
291.5809,3.744467
291.5178,3.746825
291.4461,3.749183
291.4461,3.749183
291.2864,3.749613
291.1183,3.750193
290.9462,3.750848
290.9462,3.750848
290.7544,3.746117
290.5586,3.741386
290.3556,3.729909
290.3556,3.729909
290.3553,3.732258
290.3549,3.734531
290.3546,3.736655
290.3546,3.736655
290.2928,3.728794
290.2215,3.727529
290.1461,3.726189
289.5602,3.694794
289.4906,3.689294
289.4421,3.683870
289.3732,3.673873
289.3732,3.673873
289.2982,3.672533
289.2274,3.671268
289.1651,3.670153
288.3965,3.624920
288.2898,3.619531
288.1915,3.614217
288.0974,3.609053
287.4263,3.575967
287.3523,3.574627
287.2825,3.573362
287.2210,3.572248
287.2210,3.572248
287.1526,3.566510
287.0925,3.560774
287.0366,3.555037
286.4613,3.537471
286.3556,3.534443
286.2583,3.531490
286.1652,3.528688
286.1652,3.528688
285.9991,3.527431
285.8373,3.526324
285.6839,3.525293
285.4993,3.523260
285.3700,3.523255
285.2409,3.523249
285.1119,3.523243
283.5894,3.533629
283.3465,3.538777
283.0960,3.544075
282.8419,3.549448
282.8419,3.549448
282.8418,3.549885
282.8417,3.550472
282.8417,3.551134
282.2589,3.579103
282.2351,3.581901
282.2033,3.584847
282.1674,3.587869
282.1674,3.587869
282.0365,3.592910
281.9661,3.595181
281.8958,3.596626
281.3158,3.633365
281.0623,3.643148
280.9689,3.647166
280.9554,3.648864
280.0226,3.690983
280.0223,3.693107
280.0221,3.695381
280.0217,3.697729
280.0217,3.697729
279.9630,3.699426
279.8963,3.701196
279.8257,3.703117
279.8257,3.703117
279.8256,3.703554
279.8255,3.704141
279.8255,3.704803
279.0066,3.741531
278.8830,3.743211
278.7594,3.744892
278.6360,3.746573
278.6360,3.746573
278.6122,3.753655
278.5807,3.760737
278.5452,3.767818
277.8918,3.800843
277.7615,3.806208
277.6703,3.810751
277.5399,3.818366
277.5399,3.818366
277.5049,3.818801
277.4700,3.819387
277.4350,3.820047
276.5254,3.861829
276.4720,3.867573
276.4148,3.873392
276.3499,3.879360
275.3608,3.926534
275.3082,3.929917
275.2518,3.933375
275.1877,3.936982
275.1877,3.936982
275.0511,3.942148
274.9796,3.945292
274.9118,3.949112
273.0457,4.041778
273.0457,4.041778
272.9939,4.045823
272.9497,4.038750
272.9383,4.049868
272.8753,4.053913
272.8753,4.053913
272.8613,4.035797
272.7767,4.032995
272.7568,4.057292
272.6384,4.060747
272.5201,4.064351
272.5201,4.064351
272.4857,4.070096
272.4513,4.075916
272.4169,4.081886
272.4169,4.081886
272.2817,4.082316
272.1430,4.082897
271.9968,4.083551
271.9968,4.083551
271.8458,4.085243
271.6949,4.087009
271.5442,4.088925
271.5442,4.088925
271.4786,4.093994
271.4131,4.098014
271.2918,4.104429
271.2918,4.104429
271.2701,4.104865
271.2410,4.105451
271.2082,4.106111
270.1583,4.136078
270.0539,4.138783
269.9422,4.141564
269.8268,4.144494
268.8850,4.181211
268.8521,4.182909
268.8191,4.184681
268.7861,4.186603
267.6094,4.210828
267.5557,4.212525
267.4948,4.214295
267.4303,4.216216
267.4303,4.216216
267.3167,4.217896
267.2031,4.219577
267.0897,4.221258
265.7519,4.242438
265.4789,4.247495
265.2028,4.252628
264.9203,4.257910
264.9203,4.257910
264.7089,4.258336
264.4908,4.258911
264.2695,4.259562
264.2695,4.259562
264.0729,4.262350
263.8802,4.264613
263.5266,4.268292
263.5266,4.268292
263.3686,4.269395
263.2073,4.270649
263.0391,4.271976
263.0391,4.271976
262.8510,4.272403
262.6632,4.272980
262.4756,4.273632
261.1697,4.280645
260.8563,4.280628
260.5368,4.280610
260.2147,4.280593
258.7956,4.276804
258.4476,4.276122
258.1038,4.275516
257.7676,4.275060
257.7676,4.275060
257.6068,4.272690
257.4529,4.270320
257.3024,4.267951
257.3024,4.267951
256.9884,4.266683
256.6784,4.265567
256.3758,4.264525
256.1379,4.262825
255.9299,4.262813
255.7222,4.262802
255.5148,4.262790
254.2944,4.245180
254.0901,4.243482
253.8894,4.241784
253.6955,4.240086
253.6955,4.240086
253.6669,4.239410
253.6416,4.238734
253.6228,4.238058
253.6228,4.238058
253.5209,4.236803
253.4191,4.235697
253.3173,4.234667
253.3173,4.234667
253.1873,4.232299
253.0606,4.229930
252.9405,4.227562
252.9405,4.227562
252.8391,4.226894
252.7378,4.226301
252.6365,4.225858
252.6365,4.225858
252.4822,4.222238
252.3344,4.218769
252.1900,4.215375
250.7032,4.181894
250.6484,4.176882
250.5934,4.173293
250.4912,4.168052
250.4912,4.168052
250.4628,4.167389
250.4344,4.166800
250.4061,4.166361
250.4061,4.166361
250.3067,4.165693
250.2074,4.165100
250.1082,4.164657
250.1082,4.164657
249.9570,4.159925
249.8123,4.155194
249.6709,4.150464
249.6709,4.150464
249.6434,4.148101
249.6191,4.145738
249.6010,4.143376
249.6010,4.143376
249.3339,4.134603
249.0674,4.125904
248.8014,4.117356
248.8014,4.117356
248.7035,4.114989
248.6056,4.112622
248.5079,4.110255
247.3560,4.066673
247.3510,4.065223
247.3153,4.062947
247.2183,4.057894
247.2183,4.057894
247.1037,4.055152
247.0106,4.053309
246.8594,4.050789
246.8594,4.050789
246.8326,4.047764
246.8088,4.044814
246.7912,4.042015
245.6403,4.010575
245.5453,4.008208
245.4535,4.005841
245.3688,3.993018
245.3685,3.996404
245.3681,3.999864
245.3678,4.003475
245.3678,4.003475
244.3806,3.954504
244.2861,3.952137
244.1917,3.949770
244.0980,3.940657
244.0978,3.942781
244.0976,3.945055
244.0974,3.947403
244.0974,3.947403
242.7061,3.895034
242.6022,3.890942
242.4955,3.885951
242.2948,3.875781
241.0679,3.831854
240.9930,3.829500
240.9240,3.827222
240.8580,3.825094
240.8580,3.825094
240.8096,3.822068
240.7671,3.819117
240.7274,3.816316
240.1142,3.789966
240.0889,3.786942
240.0664,3.783992
240.0498,3.781192
240.0498,3.781192
240.0016,3.779503
239.9592,3.777814
239.9197,3.776124
239.9197,3.776124
239.6172,3.770995
239.4421,3.768273
239.2442,3.765624
239.2442,3.765624
239.1930,3.763697
239.1447,3.761920
239.1021,3.760218
238.3690,3.727114
238.3439,3.725189
238.3216,3.723413
238.3051,3.721713
238.3051,3.721713
238.2154,3.718097
238.1257,3.714631
238.0361,3.711239
238.0361,3.711239
238.0114,3.705853
237.9896,3.700542
237.9734,3.695382
237.0426,3.669348
237.0426,3.669348
237.0425,3.669785
237.0425,3.670372
237.0424,3.671034
236.9483,3.664157
236.8793,3.660917
236.7766,3.656850
235.7307,3.613268
235.7307,3.613268
235.7306,3.613705
235.7306,3.614292
235.7305,3.614954
235.5407,3.605635
235.4401,3.601081
235.3425,3.595702
234.4327,3.562585
234.4084,3.560659
234.3869,3.558884
234.3709,3.557184
234.3709,3.557184
234.2763,3.553417
234.1928,3.550701
234.0487,3.546705
233.4069,3.524062
233.2589,3.523390
233.1110,3.522793
232.9634,3.522345
232.9634,3.522345
232.9395,3.519321
232.9184,3.516371
232.9027,3.513571
232.9027,3.513571
232.8169,3.511204
232.7311,3.508837
232.6454,3.506470
232.6454,3.506470
232.3998,3.507703
232.1682,3.508561
231.7530,3.509782
231.7530,3.509782
231.6681,3.507415
231.5832,3.505048
231.4983,3.502681
231.4983,3.502681
231.4747,3.499743
231.4539,3.496956
231.4384,3.494244
231.2566,3.492208
231.0870,3.492196
230.9177,3.492184
230.7486,3.492172
229.8111,3.492106
229.7747,3.492778
229.7357,3.493450
229.6913,3.494122
229.6913,3.494122
229.5921,3.494552
229.4877,3.495132
229.3807,3.495786
229.3807,3.495786
229.3649,3.499171
229.3439,3.502630
229.3201,3.506238
229.3201,3.506238
229.2963,3.506674
229.2724,3.507259
229.2485,3.507920
229.2485,3.507920
229.1290,3.508349
229.0069,3.508927
228.8797,3.509580
228.8797,3.509580
228.7964,3.511935
228.7132,3.514291
228.6300,3.516646
228.6300,3.516646
228.6142,3.521130
228.5932,3.525763
228.5696,3.530471
228.5696,3.530471
228.5102,3.532828
228.4508,3.535185
228.3915,3.537542
227.7172,3.563803
227.6194,3.568281
227.5164,3.572909
227.4109,3.577611
227.4109,3.577611
227.4108,3.578048
227.4108,3.578635
227.4107,3.579297
226.7414,3.616015
226.6486,3.621180
226.6001,3.624325
226.5541,3.628145
226.0060,3.658125
225.9328,3.662604
225.8544,3.667234
225.7735,3.671938
225.7735,3.671938
225.7504,3.672373
225.7273,3.672959
225.7041,3.673619
225.2287,3.708664
225.1481,3.710782
225.0675,3.713050
224.9869,3.715392
224.9869,3.715392
224.9867,3.717753
224.9865,3.720114
224.9863,3.722476
224.9863,3.722476
224.9484,3.723585
224.9054,3.724843
224.8599,3.726177
224.3882,3.759198
224.3505,3.760894
224.3077,3.762665
224.2623,3.764585
224.2623,3.764585
224.2474,3.766708
224.2273,3.768980
224.2048,3.771327
224.2048,3.771327
224.1222,3.775306
224.0777,3.778014
224.0331,3.781771
223.4981,3.800958
223.4978,3.804430
223.4975,3.808053
223.4972,3.811751
223.4972,3.811751
223.4823,3.814461
223.4624,3.817245
223.4399,3.820180
223.4399,3.820180
223.3457,3.824357
223.2692,3.828462
223.1447,3.836011
223.1447,3.836011
223.1102,3.839394
223.0731,3.842851
223.0311,3.846459
223.0311,3.846459
223.0085,3.846894
222.9859,3.847480
222.9633,3.848140
222.4995,3.881499
222.4427,3.885542
222.3834,3.889585
222.3191,3.893628
222.3191,3.893628
222.2625,3.895985
222.2034,3.898342
222.1394,3.900698
222.1394,3.900698
222.1247,3.903495
222.1050,3.906442
222.0828,3.909464
222.0828,3.909464
222.0121,3.913943
221.9364,3.918572
221.8583,3.923276
221.8583,3.923276
221.7655,3.927317
221.6677,3.931357
221.5676,3.935397
221.5676,3.935397
221.5255,3.941765
221.4935,3.945436
221.4441,3.949555
220.7536,3.993014
220.7536,3.993014
220.7125,3.990313
220.6813,3.987162
220.6759,3.997731
220.6332,3.980862
220.5983,4.002447
220.5208,4.007163
220.5208,4.007163
220.4655,4.008846
220.4103,4.010528
220.3551,4.012210
220.3551,4.012210
220.3331,4.012208
220.3111,4.012207
220.2891,4.012205
##END=
