##TITLE=2-Pyrrolidinone, 1-methyl-
##JCAMP-DX=4.24
##DATA TYPE=UV/VIS SPECTRUM
##ORIGIN=INSTITUTE OF ENERGY PROBLEMS OF CHEMICAL PHYSICS, RAS
##OWNER=INEP CP RAS, NIST OSRD
Collection (C) 2007 copyright by the U.S. Secretary of Commerce
on behalf of the United States of America. All rights reserved.
##CAS REGISTRY NO=872-50-4
##MOLFORM=C5H9NO
##MP=-24- -25
##BP=90/ 15 mm
##SOURCE REFERENCE=RAS UV No. 19954
##$NIST SQUIB=1966JOHb10/4
##$NIST SOURCE=TYUGLMTE
##SPECTROMETER/DATA SYSTEM=Unicam SP 500
##XUNITS=Wavelength (nm)
##YUNITS=Logarithm epsilon
##XFACTOR=1.0
##YFACTOR=1.0
##FIRSTX=190.63
##LASTX=241.99
##FIRSTY=3.952
##MAXX=241.99
##MINX=190.63
##MAXY=3.957
##MINY=1.093
##NPOINTS=112
##$REF AUTHOR=Johnson, E.A.
##$REF JOURNAL=UV atlas of organic compounds
##$REF VOLUME=1
##$REF PAGE=B10/4
##$REF DATE=1966
##XYPOINTS=(XY..XY)
190.63,3.952
191.33,3.954
192.04,3.955
192.75,3.957
193.47,3.955
194.19,3.954
194.92,3.952
195.65,3.947
196.31,3.942
196.97,3.936
197.55,3.928
198.22,3.920
198.81,3.912
199.40,3.904
200.00,3.894
201.38,3.864
201.46,3.862
201.55,3.861
201.64,3.859
201.72,3.858
201.81,3.856
201.90,3.854
201.99,3.853
202.07,3.851
202.16,3.850
202.25,3.848
202.33,3.846
202.42,3.845
202.51,3.843
202.60,3.842
202.69,3.840
202.77,3.838
202.86,3.837
202.95,3.835
203.04,3.834
203.12,3.832
203.21,3.830
203.30,3.829
203.57,3.824
204.01,3.814
204.46,3.800
204.90,3.790
205.35,3.776
205.80,3.765
206.26,3.750
206.71,3.738
207.17,3.723
207.63,3.707
208.09,3.693
208.56,3.677
209.02,3.661
209.49,3.643
209.96,3.627
210.43,3.608
210.91,3.587
211.38,3.566
211.86,3.544
212.34,3.526
212.82,3.504
213.31,3.480
213.80,3.459
214.29,3.437
214.78,3.413
215.27,3.389
215.77,3.363
216.27,3.336
216.77,3.310
217.27,3.283
217.78,3.256
218.28,3.226
218.79,3.195
219.31,3.163
219.82,3.131
220.34,3.096
220.86,3.062
221.38,3.029
221.91,2.992
222.43,2.947
222.96,2.912
223.50,2.877
224.03,2.837
224.57,2.790
225.11,2.742
225.65,2.691
226.20,2.637
226.74,2.582
227.29,2.526
227.85,2.469
228.40,2.411
228.96,2.354
229.52,2.296
230.09,2.238
230.66,2.184
231.23,2.130
231.80,2.069
232.37,2.006
232.95,1.954
233.53,1.893
234.12,1.838
234.70,1.784
235.29,1.730
235.89,1.677
236.48,1.618
237.08,1.562
237.68,1.507
238.29,1.445
238.90,1.386
239.51,1.328
240.12,1.267
240.74,1.198
241.36,1.142
241.99,1.093
##END=
