##TITLE=Benzonitrile, 4-amino-
##JCAMP-DX=4.24
##DATA TYPE=UV/VIS SPECTRUM
##ORIGIN=INSTITUTE OF ENERGY PROBLEMS OF CHEMICAL PHYSICS, RAS
##OWNER=INEP CP RAS, NIST OSRD
Collection (C) 2007 copyright by the U.S. Secretary of Commerce
on behalf of the United States of America. All rights reserved.
##CAS REGISTRY NO=873-74-5
##MOLFORM=C7H6N2
##MP=86.5
##SOURCE REFERENCE=RAS UV No. 17594
##$NIST SQUIB=1976ABR/KAL7777
##$NIST SOURCE=TYUGLMTE
##SPECTROMETER/DATA SYSTEM=Cary 14
##XUNITS=Wavelength (nm)
##YUNITS=Logarithm epsilon
##XFACTOR=1.0
##YFACTOR=1.0
##FIRSTX=217.97
##LASTX=316.59
##FIRSTY=3.996
##MAXX=316.59
##MINX=217.97
##MAXY=4.291
##MINY=2.646
##NPOINTS=104
##$REF AUTHOR=Abrams, W.R.; Kallen, R.J.
##$REF JOURNAL=J. Am. Chem. Soc.
##$REF VOLUME=98
##$REF PAGE=7777
##$REF DATE=1976
##XYPOINTS=(XY..XY)
217.97,3.996
218.05,3.993
218.16,3.985
218.30,3.975
218.54,3.953
218.98,3.919
220.13,3.838
221.29,3.733
222.45,3.603
223.60,3.498
224.76,3.378
225.91,3.294
226.62,3.259
227.35,3.230
228.08,3.205
228.92,3.176
229.62,3.162
230.57,3.164
231.70,3.176
232.40,3.191
233.09,3.211
233.78,3.236
234.65,3.264
235.68,3.311
236.55,3.345
237.44,3.385
237.94,3.404
238.60,3.431
239.20,3.458
239.93,3.483
240.60,3.508
241.03,3.527
241.45,3.540
241.76,3.551
242.06,3.562
242.34,3.573
243.49,3.614
244.65,3.660
245.81,3.705
246.96,3.751
248.12,3.794
249.28,3.850
250.43,3.906
251.72,3.951
252.75,3.982
253.90,4.011
254.99,4.040
256.22,4.071
257.37,4.097
258.53,4.121
259.68,4.145
260.50,4.164
261.62,4.185
263.15,4.211
264.31,4.229
265.67,4.244
266.62,4.254
267.78,4.264
268.94,4.273
270.09,4.281
271.18,4.286
272.41,4.290
273.56,4.291
274.72,4.289
275.86,4.283
277.03,4.276
278.23,4.266
279.35,4.255
280.50,4.244
281.66,4.229
282.83,4.213
283.95,4.196
285.13,4.178
286.28,4.152
287.44,4.128
288.60,4.096
289.75,4.069
290.91,4.032
292.07,4.003
293.22,3.968
294.38,3.933
295.54,3.895
296.69,3.853
297.85,3.798
299.01,3.735
300.16,3.672
301.32,3.606
302.48,3.552
303.63,3.488
304.79,3.416
305.95,3.335
307.10,3.260
308.17,3.191
309.41,3.115
310.28,3.059
310.84,3.025
311.16,3.004
311.79,2.967
312.64,2.917
313.81,2.838
314.46,2.790
315.25,2.729
315.83,2.695
316.59,2.646
##END=
