##TITLE=1H-Indene, 2,3-dihydro-5-methyl-
##JCAMP-DX=4.24
##DATA TYPE=UV/VIS SPECTRUM
##ORIGIN=INSTITUTE OF ENERGY PROBLEMS OF CHEMICAL PHYSICS, RAS
##OWNER=INEP CP RAS, NIST OSRD
Collection (C) 2007 copyright by the U.S. Secretary of Commerce
on behalf of the United States of America. All rights reserved.
##CAS REGISTRY NO=874-35-1
##MOLFORM=C10H12
##BP=201.1/ 740.5 mm
##SOURCE REFERENCE=RAS UV No. 20052
##$NIST SQUIB=1963KUS/139
##$NIST SOURCE=TYUGLMTE
##SPECTROMETER/DATA SYSTEM=unknown
##XUNITS=Wavelength (nm)
##YUNITS=Logarithm epsilon
##XFACTOR=1.0
##YFACTOR=1.0
##FIRSTX=230.22
##LASTX=287.63
##FIRSTY=2.368
##MAXX=287.63
##MINX=230.22
##MAXY=3.19
##MINY=1.516
##NPOINTS=339
##$REF AUTHOR=Kusakov, M.M.; et al.
##$REF JOURNAL=Ultraviolet Absorption Spectra of Aromatic Hydrocarbons
##$REF PAGE=139
##$REF DATE=1963
##XYPOINTS=(XY..XY)
230.22,2.368
230.26,2.367
230.30,2.366
230.39,2.302
230.56,2.238
230.74,2.174
230.91,2.111
231.09,2.047
231.26,1.983
231.43,1.919
231.61,1.855
231.78,1.791
231.95,1.742
232.13,1.697
232.30,1.671
232.48,1.655
232.66,1.640
232.83,1.626
233.02,1.616
233.26,1.606
233.47,1.599
233.65,1.590
233.87,1.583
234.13,1.576
234.39,1.569
234.69,1.564
235.04,1.560
235.43,1.557
235.82,1.560
236.21,1.562
236.56,1.566
236.86,1.571
237.17,1.578
237.43,1.585
237.64,1.593
237.90,1.600
238.08,1.609
238.30,1.617
238.43,1.627
238.60,1.635
238.69,1.645
238.82,1.653
238.95,1.662
239.03,1.671
239.12,1.681
239.21,1.690
239.34,1.700
239.42,1.710
239.51,1.719
239.60,1.729
239.68,1.738
239.73,1.748
239.82,1.757
239.90,1.767
239.95,1.777
240.03,1.786
240.16,1.796
240.25,1.805
240.34,1.815
240.42,1.824
240.51,1.834
240.64,1.844
240.73,1.853
240.86,1.863
240.94,1.872
241.07,1.881
241.20,1.890
241.34,1.900
241.47,1.909
241.64,1.917
241.77,1.927
241.94,1.935
242.07,1.945
242.25,1.953
242.42,1.962
242.64,1.970
242.86,1.978
243.03,1.986
243.29,1.994
243.46,2.002
243.72,2.010
243.94,2.018
244.16,2.027
244.38,2.034
244.64,2.041
244.85,2.050
245.07,2.059
245.33,2.066
245.55,2.074
245.81,2.081
246.03,2.089
246.29,2.097
246.50,2.105
246.72,2.113
246.98,2.120
247.20,2.128
247.46,2.135
247.68,2.144
247.89,2.151
248.11,2.159
248.33,2.167
248.54,2.176
248.76,2.184
248.98,2.191
249.15,2.200
249.37,2.209
249.54,2.217
249.76,2.224
249.93,2.233
250.06,2.241
250.28,2.250
250.46,2.259
250.59,2.267
250.80,2.276
250.93,2.284
251.11,2.293
251.24,2.301
251.41,2.310
251.54,2.318
251.72,2.327
251.85,2.335
252.02,2.344
252.15,2.352
252.28,2.362
252.41,2.370
252.58,2.379
252.71,2.388
252.84,2.397
253.02,2.405
253.15,2.415
253.28,2.424
253.41,2.434
253.58,2.443
253.71,2.452
253.84,2.462
253.97,2.471
254.19,2.480
254.32,2.489
254.54,2.498
254.71,2.506
254.84,2.515
255.06,2.523
255.23,2.532
255.45,2.540
255.62,2.549
255.84,2.557
256.06,2.566
256.23,2.574
256.45,2.582
256.67,2.590
256.88,2.599
257.14,2.606
257.32,2.615
257.58,2.622
257.80,2.631
258.06,2.638
258.27,2.647
258.49,2.654
258.75,2.662
258.97,2.670
259.23,2.677
259.45,2.685
259.66,2.693
259.92,2.700
260.10,2.709
260.36,2.716
260.53,2.724
260.75,2.733
260.92,2.741
261.14,2.750
261.31,2.759
261.53,2.767
261.70,2.776
261.88,2.784
262.05,2.793
262.23,2.801
262.36,2.811
262.53,2.819
262.66,2.828
262.79,2.836
262.96,2.845
263.09,2.854
263.22,2.863
263.35,2.871
263.48,2.881
263.65,2.894
263.75,2.899
263.88,2.907
264.01,2.916
264.18,2.924
264.31,2.933
264.48,2.941
264.70,2.950
264.87,2.959
265.57,2.972
265.96,2.971
266.31,2.966
266.57,2.960
266.83,2.952
267.13,2.946
267.39,2.938
267.78,2.937
268.04,2.945
268.18,2.954
268.31,2.964
268.44,2.973
268.57,2.983
268.70,2.993
268.83,3.002
268.96,3.012
269.04,3.021
269.17,3.030
269.30,3.039
269.43,3.049
269.61,3.057
269.87,3.065
269.91,3.066
269.96,3.067
270.00,3.069
270.04,3.070
270.09,3.071
270.13,3.072
270.17,3.073
270.22,3.076
270.39,3.083
270.56,3.089
270.74,3.096
270.91,3.098
271.08,3.100
271.26,3.098
271.43,3.094
271.61,3.085
271.78,3.077
271.95,3.073
272.13,3.071
272.30,3.071
272.47,3.071
272.65,3.074
272.82,3.079
273.00,3.086
273.17,3.095
273.34,3.103
273.52,3.112
273.69,3.119
273.86,3.127
274.04,3.134
274.21,3.138
274.39,3.141
274.56,3.140
274.73,3.136
274.91,3.125
275.08,3.108
275.23,3.093
275.40,3.075
275.59,3.053
275.78,3.029
275.95,3.005
276.12,2.978
276.30,2.950
276.47,2.919
276.64,2.882
276.81,2.854
276.99,2.837
277.17,2.835
277.34,2.837
277.51,2.846
277.69,2.860
277.87,2.881
278.07,2.915
278.25,2.944
278.44,2.977
278.60,3.000
278.75,3.023
278.88,3.041
279.08,3.067
279.25,3.094
279.42,3.120
279.60,3.145
279.77,3.163
279.94,3.178
280.12,3.187
280.29,3.190
280.47,3.188
280.64,3.177
280.81,3.151
280.95,3.125
281.03,3.101
281.10,3.082
281.18,3.060
281.26,3.040
281.34,3.014
281.41,2.993
281.49,2.966
281.62,2.933
281.75,2.888
281.95,2.828
282.16,2.766
282.26,2.734
282.42,2.690
282.55,2.656
282.68,2.609
282.81,2.569
282.94,2.521
283.07,2.471
283.20,2.445
283.33,2.403
283.46,2.363
283.59,2.318
283.72,2.281
283.85,2.235
283.98,2.204
284.11,2.173
284.24,2.141
284.37,2.105
284.50,2.076
284.64,2.045
284.77,2.005
284.90,1.972
285.03,1.945
285.16,1.921
285.29,1.895
285.42,1.868
285.55,1.839
285.68,1.812
285.81,1.786
285.94,1.760
286.07,1.735
286.20,1.709
286.33,1.687
286.46,1.673
286.59,1.654
286.72,1.633
286.85,1.614
286.98,1.595
287.11,1.579
287.24,1.562
287.37,1.546
287.50,1.531
287.63,1.516
##END=
