##TITLE=6-Chloropurine
##JCAMP-DX=4.24
##DATA TYPE=UV/VIS SPECTRUM
##ORIGIN=INSTITUTE OF ENERGY PROBLEMS OF CHEMICAL PHYSICS, RAS
##OWNER=INEP CP RAS, NIST OSRD
Collection (C) 2007 copyright by the U.S. Secretary of Commerce
on behalf of the United States of America. All rights reserved.
##CAS REGISTRY NO=87-42-3
##MOLFORM=C5H3ClN4
##MP=175-7 dec
##SOURCE REFERENCE=RAS UV No. 2486
##$NIST SQUIB=1954BEN/RUS6073-6077
##$NIST SOURCE=TSGMTE
##SPECTROMETER/DATA SYSTEM=Beckman DU
##XUNITS=Wavelength (nm)
##YUNITS=Logarithm epsilon
##XFACTOR=1.000000
##YFACTOR=1.000000
##FIRSTX=227.9725
##LASTX=284.7128
##FIRSTY=3.31309
##MAXX=284.713
##MINX=227.973
##MAXY=3.95931
##MINY=2.72243
##NPOINTS=192
##$REF AUTHOR=Bendich, A.; Russell, P.J.; Fox, J.J.
##$REF TITLE=The synthesis and properties of 6-chloropurine and purine
##$REF JOURNAL=J. Am. Chem. Soc.
##$REF VOLUME=76
##$REF PAGE=6073-6077
##$REF DATE=1954
##XYPOINTS=(XY..XY)
227.9725,3.313086
228.1159,3.316975
228.2667,3.320665
228.4212,3.324243
230.0269,3.362983
230.1761,3.368982
230.3188,3.371543
230.5774,3.372914
231.3771,3.397098
231.4005,3.398824
231.4314,3.400407
231.4659,3.401917
232.8120,3.428706
232.8477,3.430673
232.8834,3.432632
232.9191,3.434582
235.0634,3.477883
235.0652,3.479648
235.0670,3.481406
235.0688,3.483156
235.6022,3.490711
235.8467,3.497465
236.0911,3.504063
236.3354,3.510458
237.3217,3.528172
237.3451,3.529449
237.3759,3.530622
237.4105,3.531741
237.9465,3.540694
238.1910,3.546719
238.4354,3.552614
238.6797,3.558337
241.5587,3.608159
241.7337,3.611673
241.9125,3.615158
242.0988,3.618613
244.0698,3.644895
244.3120,3.648114
244.5542,3.651310
244.7964,3.654482
247.4850,3.682124
247.5948,3.683999
247.7121,3.685865
247.8332,3.687723
248.2832,3.693236
248.4269,3.695060
248.5782,3.696874
248.7332,3.698681
249.6359,3.710997
250.0449,3.719285
250.4554,3.727417
250.8691,3.735399
251.2876,3.743236
252.1957,3.757165
252.5148,3.764338
252.8339,3.771382
253.1529,3.778291
253.4719,3.785056
254.0198,3.795823
254.3214,3.801825
254.6267,3.807744
254.9396,3.813583
255.1381,3.819011
255.2607,3.820804
255.3833,3.822539
255.5058,3.824241
255.9574,3.836429
256.2974,3.843825
256.6410,3.851050
256.9921,3.858132
257.3510,3.866234
257.6003,3.871037
257.8496,3.875765
258.0987,3.880398
258.2736,3.882478
258.3984,3.884849
258.5232,3.887207
258.6480,3.889553
259.1140,3.899102
259.3870,3.904218
259.6676,3.909253
259.9518,3.914189
260.4957,3.920757
260.6600,3.925153
260.9455,3.929714
261.5969,3.938264
262.3314,3.945844
262.7485,3.949240
263.1656,3.952609
263.5827,3.955953
264.6612,3.959306
265.3604,3.958323
265.8167,3.956779
266.4074,3.953551
266.9211,3.949522
267.1378,3.946571
267.3619,3.943560
267.5897,3.940508
267.9354,3.936896
267.9843,3.936010
268.0369,3.935102
268.0970,3.934153
268.6368,3.933137
268.9646,3.927569
269.2219,3.923320
269.4339,3.919693
269.6260,3.915960
269.8233,3.911368
270.0512,3.905126
270.4693,3.896600
270.6831,3.892123
270.9043,3.887577
271.1291,3.882938
271.3062,3.879228
271.3516,3.876810
271.4008,3.874379
271.4574,3.871933
271.6110,3.865446
271.8993,3.857206
272.1334,3.851363
272.3565,3.843944
272.6107,3.836570
272.7298,3.830130
272.8787,3.824839
273.0731,3.818463
273.3285,3.808625
273.7444,3.796861
273.7824,3.791862
273.8647,3.788232
273.9045,3.784049
274.2473,3.777469
274.2909,3.773517
274.3383,3.769528
274.3932,3.765501
274.7228,3.751694
274.7245,3.752634
274.7263,3.753573
274.7281,3.754509
274.8870,3.748840
274.9786,3.741653
275.0844,3.735912
275.2091,3.730146
275.3572,3.722798
275.5332,3.712191
275.8565,3.702917
275.9952,3.694461
276.1355,3.685823
276.2790,3.676979
276.4271,3.667905
276.6537,3.649715
276.8180,3.640402
276.9822,3.630869
277.1464,3.621087
277.3106,3.611028
277.4694,3.603120
277.4936,3.594376
277.5935,3.586252
277.7691,3.575015
278.0205,3.556485
278.2615,3.530593
278.2651,3.533706
278.2686,3.536748
278.2720,3.539671
278.4402,3.523563
278.5329,3.510841
278.6331,3.497681
278.7370,3.483997
279.2229,3.443162
279.3809,3.424872
279.5463,3.405642
279.7154,3.385452
280.0362,3.362246
280.1418,3.348688
280.3154,3.327136
280.5363,3.302248
280.7840,3.279703
281.0382,3.266368
281.3561,3.230694
281.5408,3.206514
281.7162,3.186641
281.9081,3.166304
282.1423,3.139695
282.4447,3.099301
282.8657,3.049166
283.0400,3.010613
283.3128,2.968231
283.6107,2.919872
283.8601,2.862374
284.1989,2.784606
284.3652,2.765247
284.5353,2.744677
284.7128,2.722434
##END=
