##TITLE=Pyrogallol
##JCAMP-DX=4.24
##DATA TYPE=UV/VIS SPECTRUM
##ORIGIN=INSTITUTE OF ENERGY PROBLEMS OF CHEMICAL PHYSICS, RAS
##OWNER=INEP CP RAS, NIST OSRD
Collection (C) 2007 copyright by the U.S. Secretary of Commerce
on behalf of the United States of America. All rights reserved.
##CAS REGISTRY NO=87-66-1
##MOLFORM=C6H6O3
##MP=133
##BP=309
##SOURCE REFERENCE=RAS UV No. 3025
##$NIST SQUIB=1954BER230-238
##$NIST SOURCE=TSGMTE
##SPECTROMETER/DATA SYSTEM=n.i.g.
##XUNITS=Wavelength (nm)
##YUNITS=Logarithm epsilon
##XFACTOR=1.000000
##YFACTOR=1.000000
##FIRSTX=251.3892
##LASTX=293.2241
##FIRSTY=2.0171
##MAXX=293.224
##MINX=251.389
##MAXY=2.88793
##MINY=1.93081
##NPOINTS=85
##$REF AUTHOR=Bernauer, K.
##$REF TITLE=Zusammenhange zwischen konstitution, sterischen verhaltnissen und ultraviolett-spektren bei derivaten des brevifolins
##$REF JOURNAL=Justus Liebigs Ann. Chem.
##$REF VOLUME=588
##$REF PAGE=230-238
##$REF DATE=1954
##XYPOINTS=(XY..XY)
251.3892,2.017103
251.4005,2.035177
251.4337,2.053241
251.4876,2.071291
251.5611,2.089330
251.6533,2.107357
251.7630,2.125372
251.8891,2.143375
252.0306,2.161365
252.1863,2.179344
252.3552,2.197310
252.5362,2.215264
252.7282,2.233205
252.9302,2.251134
253.1410,2.269050
253.3596,2.286954
253.5848,2.304845
253.8157,2.322724
254.0510,2.340590
254.2899,2.358443
254.5310,2.376283
254.7735,2.394111
255.0161,2.411925
255.2578,2.429727
255.4976,2.447515
255.7342,2.465291
255.9668,2.483053
256.1941,2.500802
256.4151,2.518538
256.6287,2.536260
256.8339,2.553970
256.8339,2.553970
257.0701,2.557343
257.3620,2.565046
257.7067,2.576595
258.1017,2.591507
258.5442,2.609299
259.0313,2.629488
259.5605,2.651590
260.1290,2.675122
260.7340,2.699600
261.3731,2.724542
262.0431,2.749465
262.7417,2.773885
263.4660,2.797319
264.2133,2.819283
264.2133,2.819283
265.5061,2.841353
266.8186,2.863423
268.1707,2.885496
268.1707,2.885496
269.6840,2.886435
271.2173,2.887277
272.7906,2.887925
272.7906,2.887925
274.6045,2.839113
275.9223,2.804050
276.8468,2.780347
277.4811,2.765613
277.9277,2.757460
278.2897,2.753500
278.6697,2.751341
278.6697,2.751341
278.9920,2.732740
279.3234,2.714125
279.6621,2.695494
280.0065,2.676845
280.3545,2.658174
280.7046,2.639481
281.0550,2.620761
281.4037,2.602014
281.7492,2.583236
282.0895,2.564426
282.4229,2.545580
282.7476,2.526697
283.0619,2.507774
283.3640,2.488809
283.6519,2.469799
283.9241,2.450742
284.1787,2.431636
284.4139,2.412478
284.6280,2.393267
284.8192,2.373998
284.9856,2.354671
293.2241,1.930810
##END=
