##TITLE=Benzene, hexamethyl-
##JCAMP-DX=4.24
##DATA TYPE=UV/VIS SPECTRUM
##ORIGIN=INSTITUTE OF ENERGY PROBLEMS OF CHEMICAL PHYSICS, RAS
##OWNER=INEP CP RAS, NIST OSRD
Collection (C) 2007 copyright by the U.S. Secretary of Commerce
on behalf of the United States of America. All rights reserved.
##CAS REGISTRY NO=87-85-4
##MOLFORM=C12H18
##MP=166.5
##BP=263.4
##SOURCE REFERENCE=RAS UV No. 8969
##$NIST SQUIB=1966DOR/BUTd2/3C
##$NIST SOURCE=TSGMTE
##SPECTROMETER/DATA SYSTEM=Zeiss PMQ II
##XUNITS=Wavelength (nm)
##YUNITS=Logarithm epsilon
##XFACTOR=1.000000
##YFACTOR=1.000000
##FIRSTX=290.5553
##LASTX=184.5331
##FIRSTY=1.1393
##MAXX=290.555
##MINX=184.533
##MAXY=4.72258
##MINY=1.1393
##NPOINTS=282
##$REF AUTHOR=Dorr, F.; Buttgereit, G.; Munchen, T.H.
##$REF TITLE=Hexamethylbenzene
##$REF BOOK TITLE=UV Atlas of Organic Compounds - Vol. 2
##$REF PAGE=D2/3
##$REF DATE=1966
##$REF PUBLISHER=Plenum Press
##$REF LOCATION=New York
##XYPOINTS=(XY..XY)
290.5553,1.139296
290.1833,1.176239
289.9717,1.205805
289.9717,1.205805
289.8634,1.207599
289.7503,1.209394
289.6277,1.211190
289.6277,1.211190
289.0809,1.283566
288.6060,1.345548
288.1966,1.398180
287.8468,1.442502
287.5506,1.479554
287.3021,1.510379
287.0957,1.536018
286.9256,1.557511
286.7862,1.575900
286.6720,1.592227
286.5776,1.607531
286.4972,1.622857
286.4972,1.622857
286.0550,1.653937
285.4731,1.706779
284.8093,1.759120
284.8093,1.759120
284.4637,1.794561
284.1188,1.830002
283.7747,1.865441
283.4313,1.900878
283.0884,1.936312
282.7461,1.971743
282.4043,2.007170
282.0629,2.042592
281.7219,2.078008
281.3812,2.113418
281.0407,2.148821
280.7005,2.184217
280.3604,2.219604
280.3604,2.219604
280.1240,2.223034
279.9737,2.226683
279.7805,2.233678
279.7805,2.233678
279.2904,2.235084
278.9666,2.235114
278.5312,2.233796
278.5312,2.233796
278.2866,2.228203
278.0380,2.222553
277.7808,2.216791
277.7808,2.216791
277.5356,2.216550
277.2818,2.216253
277.0241,2.215844
277.0241,2.215844
276.8211,2.254464
276.3607,2.310613
275.5407,2.346745
275.5407,2.346745
275.2454,2.346009
274.9463,2.345274
274.6392,2.344539
274.6392,2.344539
274.2792,2.334426
273.8350,2.326304
273.3235,2.318160
273.3219,2.315356
273.3204,2.312553
273.3188,2.309749
273.0167,2.321504
273.0167,2.321504
272.4628,2.344914
271.7157,2.367948
270.3369,2.375809
270.3369,2.375809
269.2611,2.342971
268.7930,2.330067
268.5260,2.326035
268.5260,2.326035
268.0184,2.326852
267.5045,2.327669
266.9885,2.328488
266.9885,2.328488
265.9319,2.304950
264.9367,2.282596
262.9475,2.274622
262.9475,2.274622
261.9387,2.254283
261.2835,2.228468
260.7637,2.201450
260.7637,2.201450
260.0544,2.186083
259.5608,2.176753
258.8600,2.165464
258.8600,2.165464
257.9027,2.125071
256.8118,2.084015
254.8952,2.051209
254.8952,2.051209
254.5501,2.042072
254.1985,2.032937
253.8443,2.023801
253.8443,2.023801
253.5352,1.988029
252.9558,1.955121
251.7296,1.922855
251.7296,1.922855
250.1532,1.898023
249.1958,1.868475
248.6403,1.825598
248.6403,1.825598
248.6043,1.827056
248.5611,1.828402
248.5591,1.824258
248.5144,1.829691
248.4745,1.822805
248.4516,1.831993
248.4516,1.831993
248.3827,1.821296
248.3708,1.831238
248.2866,1.830483
248.1954,1.829729
248.1954,1.829729
248.0726,1.818067
247.8301,1.807041
247.3066,1.795936
247.3066,1.795936
247.3059,1.794586
247.3053,1.793123
247.3045,1.791604
247.3045,1.791604
245.6897,1.775345
244.3981,1.783179
243.1767,1.811228
243.1767,1.811228
243.1086,1.822309
242.9893,1.832549
242.6865,1.841111
242.6865,1.841111
242.2289,1.881019
241.9037,1.911097
241.6205,1.940694
241.2899,1.979155
240.8234,2.035826
240.8234,2.035826
240.6564,2.067434
240.4912,2.099053
240.3275,2.130682
240.1651,2.162321
240.0038,2.193969
239.8434,2.225624
239.6837,2.257287
239.5246,2.288956
239.3658,2.320630
239.2072,2.352308
239.0485,2.383991
238.8896,2.415676
238.7303,2.447363
238.5704,2.479051
238.4097,2.510740
238.2481,2.542429
238.0853,2.574116
237.9212,2.605801
237.7555,2.637483
237.5882,2.669161
237.4190,2.700835
237.2478,2.732503
237.0743,2.764164
236.8985,2.795819
236.7201,2.827466
236.5389,2.859104
236.3549,2.890733
236.1678,2.922351
235.9774,2.953957
235.7836,2.985552
235.5862,3.017133
235.3851,3.048701
235.1800,3.080255
234.9710,3.111793
234.7576,3.143314
234.5399,3.174819
234.3177,3.206305
234.0908,3.237773
233.8590,3.269221
233.6222,3.300649
233.3803,3.332055
233.1331,3.363440
232.8805,3.394801
232.6223,3.426139
232.3584,3.457452
232.0886,3.488740
231.8128,3.520001
231.5310,3.551235
231.2429,3.582442
230.9484,3.613620
230.9484,3.613620
230.4813,3.651500
230.0098,3.688836
229.5214,3.725743
229.0040,3.762333
228.4453,3.798720
227.8337,3.835016
227.1576,3.871336
227.1576,3.871336
226.6850,3.888481
226.2143,3.905626
225.7455,3.922772
225.7455,3.922772
224.7760,3.948128
224.2454,3.960733
223.9715,3.967637
223.9715,3.967637
222.3715,3.991428
220.7115,4.012185
219.0128,4.030835
217.2957,4.048306
215.5792,4.065524
215.5792,4.065524
215.1856,4.073177
214.5139,4.084443
213.7554,4.097932
213.7554,4.097932
212.7185,4.125865
211.8383,4.153150
211.1587,4.184255
211.1587,4.184255
210.9760,4.190402
210.5519,4.213073
209.5291,4.271699
209.5291,4.271699
209.0338,4.307485
208.5533,4.343185
208.0863,4.378811
207.6314,4.414376
207.1874,4.449892
206.7528,4.485370
206.3265,4.520824
205.9072,4.556264
205.9072,4.556264
205.4193,4.590366
204.8717,4.627684
204.2093,4.664582
203.3788,4.697425
202.3292,4.722576
202.3292,4.722576
201.3853,4.721728
200.2824,4.715473
199.6270,4.698602
199.6270,4.698602
198.6623,4.682554
197.4846,4.650745
196.7318,4.628033
196.7318,4.628033
195.8549,4.595311
194.9836,4.562533
194.1157,4.529643
194.1157,4.529643
193.4823,4.501554
192.8412,4.472716
192.1996,4.443223
191.5646,4.413169
190.9429,4.382647
190.3413,4.351753
189.7661,4.320579
189.2238,4.289220
188.7205,4.257769
188.2624,4.226321
187.8555,4.194970
187.8555,4.194970
187.5056,4.174369
186.9821,4.139531
186.6294,4.118762
186.6294,4.118762
186.1800,4.083183
185.5921,4.047520
185.0824,4.010766
185.0824,4.010766
185.0201,4.009429
184.9578,4.007979
184.8955,4.006473
184.8955,4.006473
184.5331,3.976380
##END=
