##TITLE=2-diazo-1(2H)-naphthalenone
##JCAMP-DX=4.24
##DATA TYPE=UV/VIS SPECTRUM
##ORIGIN=INSTITUTE OF ENERGY PROBLEMS OF CHEMICAL PHYSICS, RAS
##OWNER=INEP CP RAS, NIST OSRD
Collection (C) 2007 copyright by the U.S. Secretary of Commerce
on behalf of the United States of America. All rights reserved.
##CAS REGISTRY NO=879-15-2
##MOLFORM=C10H6N2O
##MP=75.5-76
##SOURCE REFERENCE=RAS UV No. 23149
##$NIST SQUIB=1976KOM/PON1758
##$NIST SOURCE=TYUGLMTE
##SPECTROMETER/DATA SYSTEM=SF-4
##XUNITS=Wavelength (nm)
##YUNITS=Logarithm epsilon
##XFACTOR=1.0
##YFACTOR=1.0
##FIRSTX=230.535
##LASTX=467.461
##FIRSTY=4.21
##MAXX=467.461
##MINX=230.535
##MAXY=4.598
##MINY=2.622
##NPOINTS=156
##$REF AUTHOR=Komagorov, A.M.; Ponomareva, R.P.
##$REF JOURNAL=Zhur. Organ. Khim.
##$REF VOLUME=12
##$REF PAGE=1758
##$REF DATE=1976
##XYPOINTS=(XY..XY)
230.535,4.210
232.035,4.169
233.535,4.139
235.035,4.121
236.535,4.113
238.035,4.113
239.535,4.122
241.035,4.137
242.535,4.157
244.035,4.183
245.535,4.211
247.432,4.252
248.932,4.297
250.432,4.340
251.932,4.380
253.432,4.416
254.932,4.450
256.432,4.482
257.932,4.514
259.432,4.543
260.932,4.570
262.432,4.590
263.932,4.598
265.432,4.585
266.900,4.543
268.400,4.434
269.900,4.351
271.400,4.285
272.900,4.231
274.400,4.187
275.900,4.153
277.400,4.126
278.900,4.108
280.400,4.097
282.235,4.083
284.466,4.066
287.442,4.032
290.417,3.992
292.649,3.953
294.762,3.912
296.740,3.868
298.240,3.824
299.740,3.771
301.240,3.714
302.740,3.660
304.240,3.610
305.740,3.564
307.240,3.520
308.740,3.478
310.240,3.432
311.740,3.382
313.240,3.324
314.740,3.258
316.240,3.184
317.197,3.137
317.941,3.094
319.441,3.010
320.941,2.937
322.441,2.886
323.941,2.861
325.441,2.863
326.941,2.889
328.441,2.932
329.941,2.980
331.331,3.023
332.831,3.053
334.331,3.085
335.831,3.118
337.331,3.154
338.831,3.190
340.331,3.226
341.831,3.263
343.331,3.300
344.831,3.336
346.331,3.372
347.831,3.407
349.331,3.442
350.831,3.475
352.331,3.507
353.831,3.537
355.331,3.567
356.831,3.595
358.331,3.622
359.831,3.648
361.331,3.672
362.831,3.695
364.331,3.716
365.831,3.737
367.331,3.756
368.831,3.774
370.331,3.791
371.831,3.807
373.331,3.822
374.831,3.836
376.331,3.849
377.831,3.862
379.331,3.873
380.831,3.884
382.331,3.894
383.831,3.904
385.331,3.913
386.831,3.921
388.331,3.928
389.831,3.935
391.331,3.942
392.831,3.947
394.331,3.952
395.831,3.957
397.331,3.960
398.831,3.963
400.331,3.964
401.831,3.965
403.331,3.965
404.831,3.964
406.331,3.961
407.831,3.958
409.331,3.953
410.831,3.946
412.331,3.938
413.831,3.928
415.331,3.917
416.831,3.904
418.331,3.888
419.831,3.871
421.331,3.852
422.831,3.830
424.331,3.806
425.831,3.780
427.331,3.751
428.831,3.720
430.331,3.687
431.831,3.651
433.331,3.612
434.831,3.572
436.331,3.529
437.831,3.484
439.331,3.436
440.831,3.387
442.331,3.336
443.831,3.284
445.331,3.231
446.831,3.176
448.331,3.121
449.831,3.066
451.331,3.012
452.831,2.958
454.331,2.906
455.831,2.857
457.331,2.810
458.831,2.767
460.331,2.728
461.831,2.695
463.331,2.669
464.831,2.651
466.331,2.641
467.461,2.622
##END=
