##TITLE=Naphthalene, 2-methyl-1-nitro-
##JCAMP-DX=4.24
##DATA TYPE=UV/VIS SPECTRUM
##ORIGIN=INSTITUTE OF ENERGY PROBLEMS OF CHEMICAL PHYSICS, RAS
##OWNER=INEP CP RAS, NIST OSRD
Collection (C) 2007 copyright by the U.S. Secretary of Commerce
on behalf of the United States of America. All rights reserved.
##CAS REGISTRY NO=881-03-8
##MOLFORM=C11H9NO2
##MP=80.1
##SOURCE REFERENCE=RAS UV No. 19133
##$NIST SQUIB=1967LAN151
##$NIST SOURCE=TYUGLMTE
##SPECTROMETER/DATA SYSTEM=Unicam SP 800
##XUNITS=Wavelength (nm)
##YUNITS=Logarithm epsilon
##XFACTOR=1.0
##YFACTOR=1.0
##FIRSTX=207.44
##LASTX=419.06
##FIRSTY=4.479
##MAXX=419.06
##MINX=207.44
##MAXY=4.988
##MINY=1.368
##NPOINTS=526
##$REF AUTHOR=Lang (editor), L.
##$REF JOURNAL=Absorption Spectra in the Ultraviolet and Visible Region
##$REF VOLUME=8
##$REF PAGE=151
##$REF DATE=1967
##XYPOINTS=(XY..XY)
207.44,4.479
207.61,4.482
207.78,4.482
207.94,4.486
208.11,4.489
208.28,4.493
208.45,4.496
208.62,4.496
209.13,4.506
209.63,4.523
210.14,4.540
210.65,4.554
211.16,4.571
211.66,4.592
212.17,4.619
212.68,4.636
213.18,4.657
213.69,4.684
214.20,4.704
214.71,4.732
215.21,4.752
215.72,4.769
216.23,4.797
216.73,4.817
217.24,4.834
217.75,4.851
218.26,4.869
218.76,4.886
219.27,4.899
219.78,4.916
220.28,4.930
220.79,4.937
221.30,4.954
221.80,4.968
222.31,4.981
222.82,4.988
223.33,4.985
223.83,4.964
224.34,4.892
224.85,4.790
225.35,4.704
225.86,4.616
226.37,4.503
226.88,4.421
227.38,4.346
227.89,4.263
228.40,4.185
228.90,4.069
229.41,3.990
229.92,3.915
230.43,3.840
230.93,3.778
231.44,3.734
231.95,3.699
232.45,3.672
232.96,3.652
233.30,3.641
233.47,3.635
233.98,3.621
234.41,3.613
234.99,3.600
235.48,3.591
236.00,3.580
236.51,3.573
237.02,3.566
237.44,3.560
238.03,3.552
238.51,3.547
238.93,3.542
239.22,3.539
239.55,3.535
240.06,3.532
240.40,3.529
240.57,3.529
241.07,3.525
241.58,3.525
242.09,3.525
242.60,3.525
242.76,3.529
243.10,3.529
243.61,3.529
243.95,3.532
244.12,3.532
244.62,3.532
245.13,3.535
245.64,3.539
246.15,3.546
246.31,3.546
246.65,3.549
247.16,3.549
247.50,3.552
247.67,3.552
248.17,3.563
248.68,3.566
249.19,3.570
249.70,3.570
249.86,3.573
250.20,3.573
250.71,3.583
251.05,3.583
251.22,3.583
251.72,3.587
252.23,3.590
252.74,3.593
253.24,3.597
253.41,3.597
253.75,3.597
254.26,3.600
254.60,3.604
254.77,3.604
255.27,3.611
255.78,3.614
256.29,3.614
256.79,3.617
256.96,3.617
257.30,3.617
257.81,3.621
258.15,3.621
258.32,3.624
258.82,3.631
259.33,3.631
259.84,3.631
260.34,3.635
260.51,3.635
260.85,3.635
261.36,3.635
261.70,3.638
261.87,3.638
262.37,3.638
262.88,3.645
263.39,3.645
263.89,3.648
264.06,3.648
264.40,3.648
264.91,3.648
265.25,3.648
265.41,3.652
265.92,3.652
266.43,3.652
266.94,3.652
267.44,3.652
267.61,3.652
267.95,3.652
268.46,3.652
268.80,3.652
268.96,3.652
269.47,3.652
269.98,3.652
270.49,3.652
270.99,3.652
271.16,3.648
271.50,3.648
272.01,3.648
272.35,3.645
272.51,3.645
273.02,3.645
273.53,3.635
274.04,3.635
274.54,3.631
274.71,3.631
275.05,3.631
275.56,3.628
275.89,3.628
276.06,3.624
276.57,3.617
277.08,3.614
277.59,3.611
278.09,3.600
278.26,3.600
278.60,3.597
279.11,3.593
279.44,3.590
279.61,3.590
280.12,3.580
280.63,3.576
281.13,3.563
281.64,3.559
281.81,3.559
282.15,3.549
282.66,3.542
282.99,3.539
283.16,3.535
283.67,3.529
284.18,3.522
284.68,3.511
285.19,3.505
285.36,3.498
285.70,3.491
286.21,3.484
286.54,3.477
286.71,3.474
287.22,3.467
287.73,3.457
288.23,3.443
288.74,3.436
288.91,3.433
289.25,3.423
289.76,3.416
290.09,3.405
290.26,3.402
290.77,3.388
291.28,3.382
291.78,3.368
292.29,3.354
292.46,3.351
292.80,3.337
293.31,3.330
293.64,3.317
293.81,3.313
294.32,3.296
294.83,3.279
295.33,3.262
295.84,3.245
296.01,3.241
296.35,3.228
296.85,3.211
297.19,3.207
297.36,3.204
297.87,3.190
298.38,3.187
298.88,3.176
299.39,3.173
299.56,3.170
299.90,3.170
300.40,3.163
300.74,3.159
300.91,3.159
301.42,3.156
301.93,3.156
302.43,3.153
302.94,3.153
303.11,3.153
303.45,3.149
303.95,3.149
304.29,3.146
304.46,3.142
304.97,3.142
305.48,3.139
305.98,3.139
306.49,3.135
306.66,3.135
307.00,3.135
307.50,3.132
307.84,3.125
308.01,3.125
308.52,3.122
309.02,3.118
309.53,3.118
310.04,3.112
310.21,3.108
310.55,3.105
311.05,3.101
311.39,3.101
311.56,3.101
312.07,3.098
312.57,3.094
313.08,3.088
313.59,3.084
313.76,3.084
314.10,3.084
314.60,3.081
314.94,3.077
315.11,3.077
315.62,3.077
316.12,3.081
316.63,3.088
317.14,3.091
317.31,3.094
317.65,3.094
318.15,3.098
318.49,3.098
318.66,3.094
319.17,3.094
319.67,3.088
320.18,3.081
320.69,3.081
320.86,3.081
321.20,3.077
321.70,3.070
322.04,3.067
322.21,3.064
322.72,3.060
323.22,3.057
323.73,3.050
324.24,3.047
324.41,3.047
324.74,3.043
325.25,3.036
325.59,3.033
325.76,3.033
326.27,3.026
326.77,3.023
327.28,3.019
327.79,3.012
327.96,3.012
328.29,3.009
328.80,3.006
329.14,3.002
329.31,2.999
329.82,2.995
330.32,2.992
330.83,2.982
331.34,2.975
331.51,2.975
331.84,2.971
332.35,2.968
332.69,2.961
332.86,2.961
333.37,2.958
333.87,2.958
334.38,2.954
334.89,2.951
335.06,2.951
335.39,2.947
335.90,2.944
336.24,2.944
336.41,2.941
336.92,2.937
337.42,2.937
337.93,2.937
338.44,2.934
338.61,2.934
338.94,2.934
339.45,2.934
339.79,2.934
339.96,2.930
340.46,2.924
340.97,2.924
341.48,2.924
341.99,2.920
342.16,2.920
342.49,2.920
343.00,2.920
343.34,2.920
343.51,2.920
344.01,2.920
344.52,2.920
345.03,2.920
345.54,2.917
345.70,2.917
346.04,2.917
346.55,2.917
346.89,2.917
347.06,2.913
347.56,2.913
348.07,2.910
348.58,2.906
349.09,2.903
349.25,2.903
349.59,2.903
350.10,2.903
350.44,2.900
350.61,2.900
351.11,2.900
351.62,2.896
352.13,2.889
352.63,2.886
352.80,2.886
353.14,2.886
353.65,2.882
353.99,2.882
354.16,2.882
354.66,2.882
355.17,2.879
355.68,2.876
356.18,2.872
356.35,2.869
356.69,2.869
357.20,2.869
357.54,2.869
357.71,2.869
358.21,2.862
358.72,2.862
359.23,2.862
359.73,2.859
359.90,2.859
360.24,2.855
360.75,2.848
361.09,2.848
361.26,2.848
361.76,2.845
362.27,2.845
362.78,2.841
363.28,2.838
363.45,2.838
363.79,2.831
364.30,2.828
364.64,2.828
364.81,2.828
365.31,2.824
365.82,2.818
366.33,2.814
366.83,2.811
367.00,2.807
367.34,2.807
367.85,2.797
368.19,2.794
368.35,2.794
368.86,2.787
369.37,2.777
369.88,2.773
370.38,2.763
370.55,2.759
370.89,2.759
371.40,2.746
371.74,2.742
371.90,2.742
372.41,2.735
372.92,2.725
373.43,2.722
373.93,2.708
374.10,2.708
374.44,2.705
374.95,2.694
375.29,2.691
375.45,2.688
375.96,2.681
376.47,2.674
376.98,2.667
377.48,2.653
377.65,2.653
377.99,2.647
378.50,2.636
378.83,2.633
379.00,2.630
379.51,2.616
380.02,2.609
380.53,2.599
381.03,2.592
381.20,2.585
381.54,2.582
382.05,2.568
382.38,2.565
382.55,2.565
383.06,2.551
383.57,2.544
384.07,2.530
384.58,2.527
384.75,2.517
385.09,2.513
385.60,2.506
385.93,2.496
386.10,2.493
386.61,2.479
387.12,2.469
387.62,2.459
388.13,2.445
388.30,2.442
388.64,2.431
389.15,2.421
389.48,2.411
389.65,2.407
390.16,2.394
390.67,2.383
391.17,2.373
391.68,2.359
391.85,2.353
392.19,2.342
392.70,2.329
393.03,2.322
393.20,2.318
393.71,2.305
394.22,2.291
394.72,2.277
395.23,2.267
395.40,2.260
395.74,2.254
396.24,2.240
396.58,2.233
396.75,2.226
397.26,2.212
397.77,2.202
398.27,2.189
398.78,2.171
398.95,2.168
399.29,2.158
399.79,2.141
400.13,2.130
400.30,2.124
400.81,2.110
401.32,2.096
401.82,2.079
402.33,2.062
402.50,2.055
402.84,2.048
403.34,2.031
403.68,2.018
403.85,2.014
404.36,1.997
404.87,1.980
405.37,1.963
405.88,1.946
406.05,1.939
406.39,1.922
406.89,1.905
407.23,1.895
407.40,1.888
407.91,1.871
408.42,1.854
408.92,1.836
409.43,1.816
409.60,1.806
409.94,1.799
410.44,1.775
410.78,1.768
410.95,1.754
411.46,1.737
411.96,1.717
412.47,1.689
412.98,1.669
413.15,1.659
413.49,1.645
413.99,1.618
414.33,1.604
414.50,1.601
415.01,1.570
415.51,1.553
416.02,1.522
416.53,1.488
416.70,1.484
417.04,1.467
417.54,1.440
417.88,1.423
418.05,1.419
418.56,1.392
419.06,1.368
##END=
