##TITLE=Dipyrido[1,2-b:1',2'-e][1,2,4,5-]tetrazine
##JCAMP-DX=4.24
##DATA TYPE=UV/VIS SPECTRUM
##ORIGIN=INSTITUTE OF ENERGY PROBLEMS OF CHEMICAL PHYSICS, RAS
##OWNER=INEP CP RAS, NIST OSRD
Collection (C) 2007 copyright by the U.S. Secretary of Commerce
on behalf of the United States of America. All rights reserved.
##CAS REGISTRY NO=881-64-1
##MOLFORM=C10H8N4
##MP=203-203.5
##SOURCE REFERENCE=RAS UV No. 16963
##$NIST SQUIB=1986EIC/BAL1521
##$NIST SOURCE=TYUGLMTE
##SPECTROMETER/DATA SYSTEM=Perkin-Elmer Lambda 5
##XUNITS=Wavelength (nm)
##YUNITS=Logarithm epsilon
##XFACTOR=1.0
##YFACTOR=1.0
##FIRSTX=242.08
##LASTX=480.04
##FIRSTY=4.085
##MAXX=480.04
##MINX=242.08
##MAXY=4.411
##MINY=2.612
##NPOINTS=127
##$REF AUTHOR=Eichenberger, T.; Balli, H.
##$REF JOURNAL=Helv. Chim. Acta
##$REF VOLUME=69
##$REF PAGE=1521
##$REF DATE=1986
##XYPOINTS=(XY..XY)
242.08,4.085
242.99,4.093
243.91,4.107
244.83,4.116
245.76,4.132
246.70,4.145
247.65,4.163
248.60,4.180
249.56,4.196
250.53,4.214
251.50,4.233
252.48,4.248
253.48,4.256
254.47,4.281
255.48,4.299
256.49,4.313
257.52,4.329
258.55,4.340
259.58,4.353
260.63,4.363
261.69,4.372
262.75,4.381
263.82,4.390
264.90,4.397
265.99,4.404
267.09,4.410
268.20,4.411
269.32,4.411
270.45,4.404
271.58,4.397
272.73,4.388
273.89,4.377
275.05,4.366
276.23,4.353
277.41,4.340
278.61,4.322
279.82,4.297
281.03,4.271
282.26,4.242
283.50,4.205
284.75,4.177
286.01,4.148
287.28,4.124
288.56,4.107
289.86,4.093
291.16,4.082
292.48,4.066
293.81,4.054
295.15,4.041
296.50,4.028
297.87,4.024
299.25,4.028
300.64,4.038
302.05,4.048
303.47,4.054
304.90,4.054
306.34,4.038
307.80,4.014
309.27,3.993
310.76,3.974
312.26,3.970
313.78,3.978
315.31,4.003
316.86,4.021
318.42,4.007
319.99,3.913
321.59,3.762
323.20,3.589
324.82,3.422
326.46,3.278
327.56,3.195
328.12,3.171
328.67,3.147
329.23,3.120
329.79,3.092
330.35,3.062
330.92,3.030
331.48,2.995
332.05,2.957
332.62,2.915
333.19,2.869
334.34,2.818
336.66,2.791
339.02,2.772
341.41,2.760
343.83,2.760
346.29,2.760
351.31,2.767
353.87,2.790
356.47,2.818
359.11,2.869
361.79,2.915
364.52,2.957
367.28,2.995
370.08,3.030
381.74,3.147
384.77,3.195
387.85,3.259
390.98,3.297
394.16,3.332
397.39,3.348
400.67,3.364
404.01,3.422
407.41,3.485
410.86,3.519
414.38,3.530
417.95,3.530
421.59,3.519
425.28,3.530
429.05,3.560
432.88,3.598
436.78,3.624
440.75,3.580
444.80,3.497
448.92,3.422
453.11,3.408
457.39,3.435
461.75,3.461
466.19,3.422
470.72,3.195
473.01,3.062
474.17,3.030
475.33,2.957
476.50,2.915
477.67,2.818
478.85,2.692
480.04,2.612
##END=
