##TITLE=Phenanthrene, 9-methyl-
##JCAMP-DX=4.24
##DATA TYPE=UV/VIS SPECTRUM
##ORIGIN=INSTITUTE OF ENERGY PROBLEMS OF CHEMICAL PHYSICS, RAS
##OWNER=INEP CP RAS, NIST OSRD
Collection (C) 2007 copyright by the U.S. Secretary of Commerce
on behalf of the United States of America. All rights reserved.
##CAS REGISTRY NO=883-20-5
##MOLFORM=C15H12
##MP=90-91
##SOURCE REFERENCE=RAS UV No. 12787
##$NIST SQUIB=1957CAG/CAG1403
##$NIST SOURCE=TYUGLMTE
##SPECTROMETER/DATA SYSTEM=Unicam spectrophotometer
##XUNITS=Wavelength (nm)
##YUNITS=Logarithm epsilon
##XFACTOR=1.0
##YFACTOR=1.0
##FIRSTX=219.93
##LASTX=348.24
##FIRSTY=4.771
##MAXX=348.24
##MINX=219.93
##MAXY=4.839
##MINY=2.09
##NPOINTS=471
##$REF AUTHOR=Cagniant, D.; Cagniant, P.
##$REF JOURNAL=Bull. soc. chim. France
##$REF VOLUME=[5] 24
##$REF PAGE=1403
##$REF DATE=1957
##XYPOINTS=(XY..XY)
219.93,4.771
220.17,4.761
220.41,4.751
220.66,4.741
220.90,4.731
221.14,4.727
221.39,4.707
221.63,4.702
221.87,4.688
222.11,4.678
222.36,4.668
222.60,4.658
222.84,4.644
223.09,4.634
223.33,4.629
223.57,4.614
223.82,4.604
224.06,4.600
224.30,4.585
224.54,4.580
224.79,4.565
225.03,4.561
225.27,4.551
225.52,4.541
225.76,4.531
226.00,4.517
226.25,4.512
226.49,4.497
226.73,4.492
226.97,4.482
227.22,4.468
227.46,4.463
227.70,4.448
227.95,4.443
228.19,4.429
228.43,4.424
228.68,4.419
228.92,4.404
229.16,4.399
229.40,4.395
229.65,4.385
229.89,4.380
230.13,4.375
230.38,4.375
230.62,4.370
230.86,4.370
231.11,4.370
231.35,4.375
231.59,4.375
231.83,4.380
232.08,4.385
232.32,4.390
232.56,4.395
232.81,4.404
233.05,4.414
233.29,4.424
233.54,4.434
233.78,4.443
234.02,4.453
234.26,4.468
234.51,4.478
234.75,4.487
234.99,4.492
235.24,4.507
235.48,4.512
235.72,4.517
235.97,4.521
236.21,4.521
236.45,4.526
236.70,4.536
236.94,4.551
237.18,4.561
237.42,4.565
237.67,4.575
237.91,4.585
238.15,4.590
238.40,4.595
238.64,4.600
238.88,4.609
239.13,4.614
239.37,4.624
239.61,4.629
239.85,4.639
240.10,4.648
240.34,4.658
240.58,4.668
240.83,4.673
241.07,4.683
241.31,4.688
241.56,4.697
241.80,4.702
242.04,4.707
242.28,4.717
242.77,4.727
243.26,4.731
243.50,4.731
243.74,4.736
243.99,4.741
244.23,4.741
244.47,4.746
245.93,4.756
246.17,4.761
246.66,4.771
246.90,4.775
247.14,4.780
247.39,4.790
247.63,4.795
247.87,4.800
248.12,4.805
248.36,4.814
248.60,4.819
248.85,4.824
249.09,4.829
249.33,4.834
249.82,4.839
250.06,4.839
250.30,4.834
250.55,4.829
250.79,4.824
251.03,4.819
251.28,4.814
251.52,4.805
251.76,4.795
252.00,4.780
252.25,4.751
252.49,4.736
252.73,4.727
252.98,4.707
253.22,4.697
253.46,4.683
253.71,4.673
253.95,4.658
254.19,4.639
254.43,4.629
254.68,4.604
254.92,4.585
255.16,4.570
255.41,4.556
255.65,4.536
255.89,4.521
256.14,4.517
256.38,4.512
256.62,4.492
256.87,4.473
257.11,4.453
257.35,4.438
257.59,4.429
257.84,4.414
258.08,4.404
258.32,4.395
258.57,4.390
258.81,4.375
259.05,4.370
259.30,4.360
259.54,4.351
259.78,4.346
260.02,4.341
260.27,4.331
260.51,4.326
260.75,4.316
261.00,4.316
261.24,4.307
261.73,4.297
263.18,4.272
263.43,4.272
263.67,4.268
263.91,4.263
264.16,4.258
264.40,4.258
264.64,4.258
264.88,4.258
265.13,4.258
265.37,4.263
265.61,4.263
265.86,4.268
266.10,4.268
266.34,4.268
266.59,4.268
266.83,4.268
267.07,4.268
267.31,4.263
269.02,4.224
269.26,4.214
269.50,4.209
269.74,4.204
269.99,4.204
270.23,4.204
270.47,4.209
270.72,4.214
270.96,4.224
271.20,4.229
271.45,4.233
271.69,4.233
272.90,4.229
273.15,4.229
273.39,4.224
273.63,4.219
274.12,4.204
274.36,4.199
274.61,4.194
274.85,4.180
275.09,4.175
275.58,4.160
275.82,4.155
276.06,4.141
276.31,4.136
276.55,4.131
276.79,4.121
277.04,4.111
277.28,4.106
277.52,4.102
277.76,4.092
278.01,4.087
278.25,4.087
278.49,4.082
278.74,4.077
278.98,4.077
279.22,4.072
279.47,4.077
279.71,4.082
279.95,4.092
280.19,4.106
280.44,4.116
280.68,4.121
280.92,4.126
281.17,4.126
281.41,4.121
282.62,4.106
282.87,4.102
283.11,4.092
283.60,4.087
283.84,4.077
284.08,4.067
284.33,4.062
284.57,4.053
284.81,4.038
285.05,4.028
285.30,4.014
285.54,3.999
285.78,3.989
286.03,3.979
286.27,3.970
286.51,3.965
286.76,3.970
287.00,3.975
287.24,3.999
287.48,4.009
287.73,4.023
287.97,4.038
288.21,4.053
288.46,4.067
288.70,4.072
289.67,4.092
289.91,4.102
290.16,4.106
290.40,4.131
290.64,4.150
290.89,4.165
291.13,4.175
291.37,4.185
291.62,4.194
292.35,4.199
292.59,4.194
292.83,4.189
293.07,4.180
293.32,4.165
293.56,4.165
293.80,4.150
294.05,4.131
294.29,4.102
294.53,4.062
294.78,4.058
295.02,4.014
295.26,3.965
295.50,3.848
295.75,3.716
295.99,3.545
296.23,3.511
296.48,3.457
296.72,3.364
296.96,3.306
297.21,3.159
297.45,3.096
297.69,3.062
297.93,3.022
298.18,3.003
298.42,2.983
298.66,2.949
298.91,2.905
299.15,2.861
299.39,2.817
299.64,2.744
299.88,2.725
300.12,2.695
300.36,2.676
300.61,2.656
300.85,2.642
301.09,2.632
301.34,2.612
301.58,2.603
301.82,2.593
302.07,2.583
302.31,2.578
302.79,2.559
303.04,2.554
303.28,2.549
303.52,2.549
304.74,2.549
306.93,2.539
307.17,2.539
307.41,2.534
307.65,2.524
307.90,2.520
308.14,2.520
308.38,2.520
308.63,2.524
308.87,2.524
309.11,2.539
309.36,2.544
309.60,2.554
309.84,2.563
310.09,2.573
310.33,2.578
310.81,2.588
311.06,2.593
311.30,2.598
311.54,2.598
311.79,2.598
312.52,2.578
312.76,2.568
313.49,2.539
313.73,2.534
313.97,2.529
314.22,2.524
314.46,2.515
314.70,2.505
314.95,2.500
315.19,2.495
315.43,2.490
315.67,2.490
315.92,2.490
316.16,2.490
316.40,2.490
316.65,2.490
316.89,2.495
317.13,2.510
317.38,2.515
317.62,2.529
317.86,2.539
318.10,2.559
318.35,2.573
318.59,2.593
318.83,2.603
319.08,2.607
319.32,2.612
319.56,2.612
319.81,2.612
320.05,2.607
320.29,2.603
320.53,2.593
320.78,2.583
321.02,2.568
321.26,2.559
321.51,2.539
321.75,2.529
321.99,2.515
322.24,2.495
322.48,2.485
322.72,2.471
322.96,2.466
323.21,2.461
323.45,2.461
323.69,2.466
323.94,2.495
324.18,2.529
324.42,2.559
324.67,2.612
324.91,2.651
325.15,2.700
325.39,2.720
325.64,2.725
325.88,2.725
326.12,2.725
326.37,2.720
326.61,2.710
326.85,2.695
327.10,2.686
327.34,2.671
327.58,2.651
327.83,2.642
328.07,2.622
328.31,2.603
328.55,2.588
328.80,2.578
329.04,2.559
329.28,2.544
329.53,2.529
329.77,2.510
330.01,2.495
330.26,2.480
330.50,2.466
330.74,2.446
330.98,2.437
331.23,2.422
331.47,2.412
331.71,2.402
331.96,2.397
332.20,2.397
332.44,2.412
332.69,2.446
332.93,2.480
333.17,2.505
333.41,2.529
333.66,2.534
334.63,2.524
334.87,2.515
335.12,2.500
335.36,2.480
335.60,2.461
335.84,2.437
336.09,2.402
336.33,2.373
336.57,2.349
336.82,2.324
337.06,2.300
337.30,2.261
337.55,2.241
337.79,2.231
338.03,2.212
338.27,2.202
338.52,2.202
338.76,2.207
339.00,2.217
339.25,2.241
339.49,2.295
339.73,2.432
339.98,2.598
340.22,2.622
340.46,2.637
340.70,2.686
340.95,2.739
341.19,2.754
341.43,2.764
341.68,2.769
341.92,2.769
342.16,2.764
342.41,2.754
342.65,2.744
342.89,2.734
343.13,2.695
343.38,2.671
343.62,2.622
343.86,2.583
344.11,2.578
344.35,2.544
344.59,2.510
344.84,2.456
345.08,2.422
345.32,2.388
345.57,2.344
345.81,2.319
346.05,2.261
346.29,2.236
346.54,2.217
346.78,2.192
347.02,2.168
347.27,2.153
347.51,2.139
347.75,2.124
348.00,2.100
348.24,2.090
##END=
