##TITLE=1,4-Diphenyl-1,3-Butadiene
##JCAMP-DX=4.24
##DATA TYPE=UV/VIS SPECTRUM
##ORIGIN=INSTITUTE OF ENERGY PROBLEMS OF CHEMICAL PHYSICS, RAS
##OWNER=INEP CP RAS, NIST OSRD
Collection (C) 2007 copyright by the U.S. Secretary of Commerce
on behalf of the United States of America. All rights reserved.
##CAS REGISTRY NO=886-65-7
##MOLFORM=C16H14
##MP=33-35
##BP=102( 0.1)
##SOURCE REFERENCE=RAS UV No. 9005
##$NIST SQUIB=1966BER/PLEd10/63C
##$NIST SOURCE=TSGMTE
##SPECTROMETER/DATA SYSTEM=Beckman DU
##XUNITS=Wavelength (nm)
##YUNITS=Logarithm epsilon
##XFACTOR=1.000000
##YFACTOR=1.000000
##FIRSTX=330.0350
##LASTX=203.7535
##FIRSTY=1.93764
##MAXX=330.035
##MINX=203.754
##MAXY=4.47214
##MINY=1.93764
##NPOINTS=165
##$REF AUTHOR=Bertoli, V.; Plesch, P.H.
##$REF TITLE=1,1-Diphenylbuta-1,3-diene
##$REF BOOK TITLE=UV Atlas of Organic Compounds - Vol. 2
##$REF PAGE=D10/63
##$REF DATE=1966
##$REF PUBLISHER=Plenum Press
##$REF LOCATION=New York
##XYPOINTS=(XY..XY)
330.0350,1.937643
329.4588,1.978734
329.0044,2.011656
328.6287,2.039822
328.2892,2.066639
327.9440,2.095518
327.5513,2.129870
327.0699,2.173104
326.4590,2.228631
326.4590,2.228631
326.1749,2.260401
325.8917,2.292183
325.6097,2.323975
325.3286,2.355778
325.0484,2.387589
324.7690,2.419409
324.4905,2.451236
324.2127,2.483070
323.9355,2.514910
323.6590,2.546755
323.3830,2.578604
323.1076,2.610457
322.8326,2.642313
322.5580,2.674171
322.2837,2.706030
322.0098,2.737889
321.7360,2.769749
321.4625,2.801607
321.1890,2.833463
320.9157,2.865316
320.6424,2.897167
320.3690,2.929013
320.0955,2.960854
319.8220,2.992689
319.5482,3.024517
319.2742,3.056339
318.9999,3.088152
318.7253,3.119956
318.4502,3.151750
318.1748,3.183535
317.8988,3.215308
317.6223,3.247068
317.3453,3.278816
317.0676,3.310551
316.7892,3.342271
316.5101,3.373976
316.2302,3.405665
315.9495,3.437337
315.6680,3.468992
315.6680,3.468992
315.2827,3.502944
314.8948,3.536867
314.5020,3.570751
314.1022,3.604582
313.6935,3.638349
313.2737,3.672038
312.8408,3.705637
312.3928,3.739135
311.9278,3.772519
311.4438,3.805775
311.4438,3.805775
310.6577,3.843061
309.8722,3.880311
309.0879,3.917533
308.3055,3.954733
307.5257,3.991918
306.7491,4.029097
306.7491,4.029097
306.0513,4.046850
305.1170,4.073864
304.4425,4.090073
304.4425,4.090073
304.0289,4.107168
303.2636,4.123406
302.8532,4.139472
302.8532,4.139472
301.7707,4.159330
300.5977,4.188565
299.7468,4.212540
299.7468,4.212540
298.0078,4.241718
296.4245,4.276670
294.3666,4.302589
294.3666,4.302589
293.2864,4.319341
291.4885,4.336265
290.1691,4.351987
290.1691,4.351987
289.2661,4.357400
288.2499,4.364242
286.4270,4.374628
286.4270,4.374628
283.3827,4.374304
280.9159,4.368606
278.0665,4.351987
278.0665,4.351987
277.0447,4.341382
275.5737,4.328374
274.2987,4.318798
274.2987,4.318798
273.6429,4.308202
272.4203,4.295947
271.4444,4.281235
271.4444,4.281235
269.4317,4.256040
267.3179,4.225814
265.7286,4.195302
265.7286,4.195302
265.6015,4.194711
265.4745,4.194006
265.3476,4.193244
265.3476,4.193244
264.7625,4.176882
263.6265,4.156691
262.5869,4.140501
262.5869,4.140501
261.2592,4.114861
259.3109,4.079718
257.2636,4.047372
255.6103,4.030126
255.6103,4.030126
253.8451,4.011468
251.8572,4.012421
250.1969,4.034243
250.1969,4.034243
249.8800,4.038693
249.6244,4.043600
249.2663,4.049423
249.2663,4.049423
248.7446,4.060581
247.6101,4.082088
246.3123,4.108340
246.3123,4.108340
245.7603,4.116469
245.0253,4.128599
244.3151,4.139472
244.3151,4.139472
242.2720,4.160886
240.2601,4.183435
238.2046,4.203041
236.0361,4.215627
236.0361,4.215627
233.3641,4.215563
231.4901,4.215113
229.4960,4.213891
226.5302,4.211511
226.5302,4.211511
224.0769,4.204659
222.7206,4.200267
221.3190,4.196331
221.3190,4.196331
219.4395,4.197376
217.6064,4.201991
215.8554,4.212395
214.2198,4.230807
214.2198,4.230807
212.9240,4.260837
211.7562,4.292905
210.6948,4.326578
209.7195,4.361425
208.8107,4.397012
208.8107,4.397012
207.2716,4.429982
205.6316,4.453919
203.7535,4.472139
##END=
