##TITLE=Phenol, 2-nitro-
##JCAMP-DX=4.24
##DATA TYPE=UV/VIS SPECTRUM
##ORIGIN=INSTITUTE OF ENERGY PROBLEMS OF CHEMICAL PHYSICS, RAS
##OWNER=INEP CP RAS, NIST OSRD
Collection (C) 2007 copyright by the U.S. Secretary of Commerce
on behalf of the United States of America. All rights reserved.
##CAS REGISTRY NO=88-75-5
##MOLFORM=C6H5NO3
##MP=44.8
##BP=216
##SOURCE REFERENCE=RAS UV No. 94
##$NIST SQUIB=1951GRA220-226
##$NIST SOURCE=TSGMTE
##SPECTROMETER/DATA SYSTEM=n.i.g.
##XUNITS=Wavelength (nm)
##YUNITS=Logarithm epsilon
##XFACTOR=1.000000
##YFACTOR=1.000000
##FIRSTX=447.3432
##LASTX=227.7486
##FIRSTY=0.332459
##MAXX=447.343
##MINX=227.749
##MAXY=3.60618
##MINY=0.332459
##NPOINTS=280
##$REF AUTHOR=Grammaticakis, P.
##$REF TITLE=Contribution a l'etude de l'absorption dans l'ultraviolet moyen et le visible des arylamines isomeres et de leurs derives N substitues (Premier memoire)
##$REF JOURNAL=Bull. Soc. Chim. Fr.
##$REF VOLUME=18
##$REF PAGE=220-226
##$REF DATE=1951
##XYPOINTS=(XY..XY)
447.3432,0.332459
446.3776,0.365113
445.2074,0.418401
445.2074,0.418401
442.4471,0.518895
440.2567,0.599435
438.5558,0.662323
437.2694,0.709855
436.3269,0.744316
435.6607,0.768016
435.2050,0.783239
434.8956,0.792280
434.6688,0.797448
434.4614,0.801019
434.4614,0.801019
434.1130,0.828518
433.6092,0.853656
432.8631,0.885152
431.7896,0.931743
430.3065,1.002153
430.3065,1.002153
429.0520,1.049664
428.2308,1.084208
427.5222,1.101059
427.5222,1.101059
426.5642,1.151072
425.5453,1.197589
424.5281,1.245226
423.5742,1.298611
423.5742,1.298611
422.9254,1.309034
422.3699,1.323341
421.7640,1.335370
421.7640,1.335370
419.6039,1.429654
417.7366,1.512616
416.1350,1.584983
414.7734,1.647483
413.6279,1.700842
412.6755,1.745789
411.8942,1.783051
411.2630,1.813355
410.7612,1.837429
410.3686,1.856002
410.0656,1.869799
409.8325,1.879550
409.6501,1.885981
409.4992,1.889820
409.3604,1.891796
409.3604,1.891796
408.6532,1.926572
407.9341,1.961613
407.1901,1.996780
406.5022,2.027786
406.4926,2.031558
406.4824,2.035597
406.4718,2.039769
405.1046,2.077201
404.8034,2.092092
403.7457,2.131841
401.6218,2.225010
401.6218,2.225010
400.7691,2.250507
399.7620,2.292350
398.9171,2.317847
398.9171,2.317847
398.0874,2.358167
397.0828,2.397936
395.8338,2.446970
394.2733,2.515086
394.2733,2.515086
392.7095,2.554310
391.1551,2.593648
389.6073,2.633071
388.0636,2.672550
386.5216,2.712054
386.5216,2.712054
384.6845,2.751844
382.8544,2.791659
381.0338,2.831529
379.2252,2.871485
377.4309,2.911554
377.4309,2.911554
377.0628,2.912226
376.6948,2.913164
376.3273,2.914235
376.3273,2.914235
376.3142,2.920249
376.3009,2.926396
376.2869,2.932809
376.2869,2.932809
375.4792,2.942057
375.0405,2.952344
374.5930,2.972487
374.5930,2.972487
370.5376,3.032645
367.8743,3.072218
365.9344,3.099972
364.0912,3.124670
361.7458,3.155076
361.7458,3.155076
359.7385,3.176053
357.7427,3.197159
355.7477,3.218525
355.7477,3.218525
352.5455,3.226655
349.3900,3.235049
346.2707,3.243569
346.2707,3.243569
344.9949,3.243134
343.7188,3.242695
342.4329,3.242250
342.4329,3.242250
338.3763,3.220507
336.1273,3.207778
334.6185,3.201703
334.6185,3.201703
330.7846,3.171670
329.3001,3.158214
328.8344,3.149801
328.8344,3.149801
328.3577,3.148844
327.8740,3.147618
327.3744,3.146251
327.3744,3.146251
323.1045,3.097889
321.0865,3.072228
319.5260,3.047272
319.5260,3.047272
319.1659,3.037536
318.9139,3.031017
318.6845,3.043960
318.6618,3.024766
318.4100,3.018647
318.1880,3.039719
317.6093,3.030915
317.6093,3.030915
317.5690,3.025925
317.5125,3.020662
317.4480,3.015262
317.4480,3.015262
314.8663,2.986330
312.5417,2.958552
310.4640,2.932994
308.6242,2.910721
307.0144,2.892796
307.0144,2.892796
306.3019,2.882895
306.0678,2.878619
305.8415,2.874479
305.6305,2.870612
305.1106,2.887505
304.2919,2.883882
303.8416,2.878821
303.8416,2.878821
303.3204,2.880566
302.7855,2.882572
302.2449,2.884707
302.2449,2.884707
301.4252,2.894532
300.6026,2.904354
299.7698,2.914170
299.7698,2.914170
298.7785,2.944361
297.6240,2.982068
295.3509,3.048827
295.3509,3.048827
293.9506,3.083697
293.1610,3.106994
292.4520,3.125398
292.4520,3.125398
292.1363,3.137882
291.6365,3.153341
291.1032,3.174513
291.1032,3.174513
290.6141,3.184469
290.1128,3.194419
289.6064,3.204365
289.6064,3.204365
289.5571,3.211557
289.4940,3.218876
289.4237,3.226458
289.4237,3.226458
286.8569,3.301591
285.3550,3.349077
284.5289,3.376550
284.0121,3.391642
284.0121,3.391642
283.5001,3.397401
282.9833,3.403289
282.4550,3.409437
282.4550,3.409437
282.0478,3.423617
281.6288,3.437791
281.2046,3.451961
281.2046,3.451961
280.5829,3.461854
279.9637,3.471880
279.3469,3.482173
279.3469,3.482173
279.1366,3.490034
278.9263,3.498162
278.7162,3.506423
278.7162,3.506423
277.3920,3.524688
275.2782,3.559176
273.4051,3.587517
273.4051,3.587517
272.7139,3.589426
270.9903,3.595693
267.0955,3.606180
267.0955,3.606180
266.7026,3.598738
266.2994,3.591158
265.8920,3.583307
265.8920,3.583307
265.3685,3.580007
264.8356,3.576701
264.2992,3.573391
264.2992,3.573391
262.4926,3.525834
260.7457,3.481895
259.8237,3.455628
259.8237,3.455628
259.3276,3.446024
258.7312,3.429298
257.8299,3.404656
257.8299,3.404656
257.5040,3.392310
256.9799,3.373713
256.2438,3.338330
256.2438,3.338330
255.4950,3.309065
254.7402,3.279660
253.9848,3.249986
253.9848,3.249986
252.3152,3.205263
251.1066,3.169086
250.1292,3.137661
249.1627,3.107194
249.1627,3.107194
248.9175,3.101038
248.9095,3.091706
248.8463,3.103988
248.7976,3.085105
248.5307,3.100783
248.4864,3.075574
248.2159,3.097577
248.2159,3.097577
247.9664,3.081114
247.7069,3.070373
247.2161,3.056146
247.2161,3.056146
245.8575,3.032076
245.0526,3.018898
244.4803,3.008139
244.4803,3.008139
243.4232,3.007416
242.3656,3.006686
241.3123,3.005952
241.3123,3.005952
240.7258,3.009315
240.1324,3.012939
239.5371,3.016691
239.5371,3.016691
237.5187,3.047532
236.2799,3.068393
234.7494,3.097156
234.7494,3.097156
233.7459,3.125343
232.1510,3.162804
231.0435,3.184900
231.0435,3.184900
230.6494,3.203162
230.1278,3.219992
229.4747,3.242448
229.4747,3.242448
228.9022,3.256392
228.3282,3.270334
227.7486,3.284268
##END=
