##TITLE=2-Nitroaniline
##JCAMP-DX=4.24
##DATA TYPE=UV/VIS SPECTRUM
##ORIGIN=INSTITUTE OF ENERGY PROBLEMS OF CHEMICAL PHYSICS, RAS
##OWNER=INEP CP RAS, NIST OSRD
Collection (C) 2007 copyright by the U.S. Secretary of Commerce
on behalf of the United States of America. All rights reserved.
##CAS REGISTRY NO=88-74-4
##MOLFORM=C6H6N2O2
##MP=71.2
##BP=284
##SOURCE REFERENCE=RAS UV No. 139
##$NIST SQUIB=1951GRA220-226
##$NIST SOURCE=TSGMTE
##SPECTROMETER/DATA SYSTEM=n.i.g.
##XUNITS=Wavelength (nm)
##YUNITS=Logarithm epsilon
##XFACTOR=1.000000
##YFACTOR=1.000000
##FIRSTX=526.4825
##LASTX=238.5716
##FIRSTY=0.583675
##MAXX=526.482
##MINX=238.572
##MAXY=3.95863
##MINY=0.583675
##NPOINTS=321
##$REF AUTHOR=Grammaticakis, P.
##$REF TITLE=Contribution a l'etude de l'absorption dans l'ultraviolet moyen et le visible des arylamines isomeres et de leurs derives N substitues (Premier memoire)
##$REF JOURNAL=Bull. Soc. Chim. Fr.
##$REF VOLUME=18
##$REF PAGE=220-226
##$REF DATE=1951
##XYPOINTS=(XY..XY)
526.4825,0.583675
525.4600,0.634941
524.6244,0.675751
523.9274,0.711411
523.3214,0.747225
522.7594,0.788487
522.7594,0.788487
521.7497,0.824347
520.4041,0.887988
519.0514,0.949683
518.0143,0.979685
518.0143,0.979685
516.4321,1.059726
515.0731,1.128703
513.9071,1.187848
512.9045,1.238382
512.0367,1.281527
511.2759,1.318510
510.5945,1.350552
509.9654,1.378879
509.3616,1.404714
508.7569,1.429281
508.1248,1.453801
507.4391,1.479500
506.6745,1.507604
505.8053,1.539332
505.8053,1.539332
504.6828,1.569328
503.1095,1.631003
501.5590,1.694630
500.4942,1.730481
500.4942,1.730481
499.4098,1.796338
498.4152,1.839811
497.3697,1.877720
496.1345,1.926884
496.1345,1.926884
495.1789,1.953322
494.2169,1.997564
493.2686,2.024002
493.2686,2.024002
490.9328,2.116792
489.3098,2.176860
488.2140,2.215259
487.4670,2.243041
486.8946,2.271258
486.8946,2.271258
485.2947,2.313029
483.1187,2.385749
481.5435,2.427520
481.5435,2.427520
481.4188,2.441039
481.2585,2.454556
481.0805,2.468072
481.0805,2.468072
480.5677,2.474282
480.0205,2.480490
479.4568,2.486697
479.4568,2.486697
478.6474,2.530381
477.7774,2.565894
476.6609,2.604288
475.1162,2.656614
472.9681,2.733921
472.9681,2.733921
472.3316,2.744780
471.4254,2.773424
469.8271,2.826701
467.1304,2.911461
467.1304,2.911461
466.0861,2.929811
464.7962,2.960515
463.5071,2.984049
463.5071,2.984049
463.3995,2.992000
463.2586,3.000180
463.1012,3.008474
463.1012,3.008474
462.5780,3.011713
462.0558,3.015184
461.5345,3.018770
461.5345,3.018770
460.6082,3.050075
459.6852,3.081612
458.7658,3.113265
458.7658,3.113265
454.4636,3.204293
452.5000,3.245888
451.8142,3.268845
451.8142,3.268845
450.0688,3.295817
447.6748,3.337123
444.8813,3.386439
441.9289,3.437438
439.0470,3.483795
439.0470,3.483795
432.2971,3.559625
428.1491,3.606859
425.6830,3.634097
424.0720,3.649942
422.5328,3.662994
422.5328,3.662994
421.2806,3.665490
420.0087,3.667983
418.7309,3.670475
418.7309,3.670475
416.8596,3.668734
414.9919,3.666876
413.1149,3.664784
413.1149,3.664784
409.3815,3.644079
406.4180,3.627087
403.7141,3.610789
400.7889,3.592165
397.1897,3.568193
392.5014,3.535855
386.3646,3.492129
386.3646,3.492129
381.8346,3.443242
377.1888,3.396528
374.5209,3.372793
374.5209,3.372793
374.1885,3.365473
373.8567,3.358153
373.5255,3.350834
373.5255,3.350834
371.5744,3.330851
369.6332,3.310868
367.6914,3.290882
367.6914,3.290882
365.1871,3.254798
363.2055,3.226979
362.0122,3.206995
362.0122,3.206995
359.2197,3.171851
356.4730,3.133123
354.5076,3.108821
354.5076,3.108821
353.3605,3.093461
352.7294,3.086370
352.0703,3.081473
352.0703,3.081473
350.2647,3.045353
348.4683,3.009232
346.6717,2.973108
346.6717,2.973108
346.2470,2.969779
345.8051,2.966217
345.3553,2.962537
345.3553,2.962537
340.5757,2.873507
337.7004,2.819100
336.1471,2.790187
335.3930,2.777637
334.9421,2.772319
334.9421,2.772319
334.3108,2.751500
333.5950,2.732519
332.3904,2.683006
332.3880,2.686281
332.3854,2.689788
332.3827,2.693410
332.1877,2.699107
332.1877,2.699107
330.6370,2.678757
328.9066,2.650635
327.1693,2.622971
327.1693,2.622971
327.0162,2.614856
326.7711,2.609156
326.2254,2.600986
326.2254,2.600986
325.8569,2.600259
325.4814,2.599300
325.0905,2.598223
325.0905,2.598223
324.3536,2.586075
323.5697,2.576925
322.0739,2.562931
322.0739,2.562931
320.3607,2.562007
318.6579,2.560850
316.9578,2.559575
316.9578,2.559575
315.9968,2.565732
315.1170,2.573288
313.5706,2.588719
313.5706,2.588719
311.1326,2.633511
309.8535,2.660559
308.6180,2.693046
308.6180,2.693046
307.7476,2.732662
307.3390,2.748649
307.0391,2.754709
307.0391,2.754709
306.4192,2.814630
305.9714,2.856472
305.5666,2.891204
305.0769,2.929792
304.3766,2.983206
304.3766,2.983206
304.1062,2.991120
303.8220,2.999264
303.5311,3.007522
303.5311,3.007522
303.3738,3.042952
303.1540,3.065308
302.6842,3.093750
302.6842,3.093750
302.2366,3.101500
301.7903,3.109365
301.3452,3.117462
301.3452,3.117462
300.3684,3.153392
299.8049,3.177713
299.1692,3.211271
299.1692,3.211271
298.7936,3.219166
298.4188,3.227292
298.0448,3.235534
298.0448,3.235534
297.7899,3.236165
297.5216,3.237026
297.2469,3.238000
297.2469,3.238000
297.2030,3.245277
297.1456,3.252551
297.0814,3.259824
297.0814,3.259824
296.2798,3.277396
295.4825,3.295083
294.6892,3.313002
294.6892,3.313002
294.6473,3.318217
294.5920,3.323545
294.5299,3.329103
294.5299,3.329103
293.2831,3.352299
292.0337,3.375492
290.7884,3.398684
290.7884,3.398684
289.7813,3.412706
288.7681,3.426957
287.7556,3.441323
287.7556,3.441323
286.2301,3.455246
284.7081,3.469398
283.1960,3.483664
283.1960,3.483664
278.8050,3.482616
277.1503,3.480810
276.7232,3.476698
276.7232,3.476698
275.2781,3.467568
273.8423,3.458437
272.4100,3.449303
272.4100,3.449303
272.2323,3.445625
272.0548,3.441947
271.8776,3.438269
271.8776,3.438269
268.4392,3.428137
266.9758,3.424997
266.1780,3.426158
266.1780,3.426158
265.0525,3.435206
263.0278,3.448103
261.2804,3.460477
261.2804,3.460477
261.1609,3.463727
261.0415,3.467208
260.9221,3.470804
260.9221,3.470804
259.9686,3.473907
259.3420,3.477197
258.7244,3.478639
257.1770,3.491816
256.7405,3.496033
256.3004,3.500480
255.8516,3.505040
254.2279,3.515071
253.5358,3.525623
252.8963,3.536649
252.3751,3.541691
252.3751,3.541691
251.5803,3.550366
250.7856,3.559157
249.9861,3.568176
249.9861,3.568176
249.9414,3.571807
249.8967,3.575438
249.8520,3.579069
249.8520,3.579069
248.4511,3.592816
247.5040,3.603780
246.1975,3.621359
246.1975,3.621359
245.5440,3.635263
244.8938,3.649283
244.2469,3.663534
244.2469,3.663534
243.8053,3.686874
243.3667,3.706630
242.9289,3.728236
242.9289,3.728236
242.7215,3.735081
242.5084,3.746204
242.2874,3.755127
242.2874,3.755127
242.0727,3.772164
241.8541,3.788737
241.6358,3.816873
241.6358,3.816873
241.2857,3.841775
240.8699,3.866083
240.0353,3.910629
240.0353,3.910629
239.5513,3.926631
239.0648,3.942632
238.5716,3.958631
##END=
