##TITLE=4,5-dihydro-1-phenyl-1H-pyrazole-3-carboxylic acid, ethyl aster
##JCAMP-DX=4.24
##DATA TYPE=UV/VIS SPECTRUM
##ORIGIN=INSTITUTE OF ENERGY PROBLEMS OF CHEMICAL PHYSICS, RAS
##OWNER=INEP CP RAS, NIST OSRD
Collection (C) 2007 copyright by the U.S. Secretary of Commerce
on behalf of the United States of America. All rights reserved.
##CAS REGISTRY NO=89-33-8
##MOLFORM=C12H12N2O3
##MP=180-182
##SOURCE REFERENCE=RAS UV No. 22791
##$NIST SQUIB=1976ZAU/LAD488
##$NIST SOURCE=TYUGLMTE
##SPECTROMETER/DATA SYSTEM=Spectronic 600
##XUNITS=Wavelength (nm)
##YUNITS=Logarithm epsilon
##XFACTOR=1.0
##YFACTOR=1.0
##FIRSTX=215.055
##LASTX=347.999
##FIRSTY=4.087
##MAXX=347.999
##MINX=215.055
##MAXY=4.158
##MINY=3.189
##NPOINTS=91
##$REF AUTHOR=Zauhar, J.; Ladouceur, B.F.
##$REF JOURNAL=Can. J. Chem.
##$REF VOLUME=54
##$REF PAGE=488
##$REF DATE=1976
##XYPOINTS=(XY..XY)
215.055,4.087
216.555,4.062
218.055,4.031
219.555,3.997
221.055,3.966
222.555,3.939
224.055,3.918
225.555,3.904
227.055,3.898
228.555,3.900
230.055,3.908
231.555,3.923
233.055,3.942
234.555,3.965
236.055,3.990
237.555,4.017
239.055,4.043
240.555,4.067
242.055,4.090
243.555,4.110
245.055,4.126
246.555,4.139
248.055,4.149
249.555,4.154
251.055,4.157
252.555,4.158
254.055,4.156
255.555,4.153
257.055,4.148
258.555,4.143
260.055,4.136
261.277,4.131
262.777,4.117
264.277,4.100
265.777,4.076
267.277,4.043
268.777,4.001
270.277,3.950
271.777,3.891
273.277,3.829
274.777,3.766
276.277,3.705
277.777,3.649
279.277,3.598
280.777,3.553
282.277,3.510
282.345,3.506
283.845,3.471
285.345,3.440
286.845,3.411
288.345,3.385
289.845,3.361
291.345,3.340
292.845,3.321
294.345,3.305
295.845,3.291
297.345,3.280
298.845,3.271
300.345,3.264
301.845,3.259
303.345,3.257
304.845,3.257
306.345,3.258
307.499,3.260
308.999,3.264
310.499,3.267
311.999,3.269
313.499,3.272
314.999,3.274
316.499,3.275
317.999,3.276
319.499,3.276
320.999,3.275
322.499,3.274
323.999,3.272
325.499,3.270
326.999,3.267
328.499,3.264
329.999,3.260
331.499,3.256
332.999,3.251
334.499,3.246
335.999,3.241
337.499,3.236
338.999,3.230
340.499,3.224
341.999,3.218
343.499,3.212
344.999,3.205
346.499,3.197
347.999,3.189
##END=
