##TITLE=N,N-dimethyl-N'-[(4-nitrophenyl)methylene]-1,4-benzenediamine
##JCAMP-DX=4.24
##DATA TYPE=UV/VIS SPECTRUM
##ORIGIN=INSTITUTE OF ENERGY PROBLEMS OF CHEMICAL PHYSICS, RAS
##OWNER=INEP CP RAS, NIST OSRD
Collection (C) 2007 copyright by the U.S. Secretary of Commerce
on behalf of the United States of America. All rights reserved.
##CAS REGISTRY NO=896-06-0
##MOLFORM=C15H15N3O2
##MP=217
##SOURCE REFERENCE=RAS UV No. 23491
##$NIST SQUIB=1975SKR/800
##$NIST SOURCE=TYUGLMTE
##SPECTROMETER/DATA SYSTEM=Beckman Akta II
##XUNITS=Wavelength (nm)
##YUNITS=Logarithm epsilon
##XFACTOR=1.0
##YFACTOR=1.0
##FIRSTX=227.58
##LASTX=493.627
##FIRSTY=3.872
##MAXX=493.627
##MINX=227.58
##MAXY=4.308
##MINY=3.289
##NPOINTS=120
##$REF AUTHOR=Skrabal, P.; et al.
##$REF JOURNAL=Helv. Chim. Acta
##$REF VOLUME=58
##$REF PAGE=800
##$REF DATE=1975
##XYPOINTS=(XY..XY)
227.580,3.872
228.621,3.859
229.671,3.850
230.731,3.844
231.800,3.840
232.880,3.838
233.970,3.838
235.070,3.840
236.180,3.842
237.301,3.847
238.433,3.854
239.575,3.863
240.729,3.875
241.893,3.890
243.069,3.908
243.154,3.909
244.342,3.927
245.542,3.945
246.754,3.966
247.977,3.988
249.213,4.012
250.462,4.038
251.723,4.063
252.996,4.089
254.283,4.113
255.583,4.137
256.896,4.158
258.223,4.178
259.563,4.196
260.918,4.212
262.286,4.226
263.670,4.239
265.067,4.251
266.480,4.263
267.908,4.275
267.986,4.276
269.430,4.288
270.889,4.299
272.365,4.305
273.857,4.307
275.365,4.303
276.890,4.296
278.432,4.286
279.991,4.274
281.943,4.257
283.541,4.242
285.158,4.224
286.794,4.204
288.449,4.182
290.122,4.159
291.816,4.136
293.529,4.112
295.262,4.087
297.016,4.062
298.791,4.035
300.587,4.008
302.405,3.980
304.245,3.950
306.108,3.920
307.993,3.888
309.902,3.856
311.835,3.822
313.792,3.787
315.774,3.752
317.781,3.716
319.814,3.680
321.872,3.642
323.958,3.600
326.070,3.552
328.211,3.491
330.177,3.453
332.371,3.400
334.596,3.353
336.850,3.317
339.135,3.296
341.451,3.289
343.798,3.296
346.179,3.313
348.592,3.339
351.040,3.372
353.522,3.412
356.039,3.462
359.083,3.530
361.681,3.578
364.316,3.624
366.990,3.669
369.704,3.713
372.458,3.757
375.253,3.801
378.090,3.845
380.971,3.889
383.896,3.932
386.867,3.974
389.883,4.015
392.947,4.053
396.060,4.090
399.222,4.123
402.436,4.153
405.701,4.180
409.020,4.204
412.393,4.225
415.823,4.242
419.310,4.257
423.741,4.273
427.363,4.286
431.047,4.299
434.795,4.306
438.609,4.308
442.491,4.301
448.178,4.278
452.231,4.254
456.359,4.227
460.563,4.204
466.022,4.165
470.407,4.112
474.874,4.036
479.428,3.938
484.069,3.818
488.801,3.668
493.627,3.428
##END=
