##TITLE=5,10-dihydro-5-methyyl-10-phenyl phenophosphazine
##JCAMP-DX=4.24
##DATA TYPE=UV/VIS SPECTRUM
##ORIGIN=INSTITUTE OF ENERGY PROBLEMS OF CHEMICAL PHYSICS, RAS
##OWNER=INEP CP RAS, NIST OSRD
Collection (C) 2007 copyright by the U.S. Secretary of Commerce
on behalf of the United States of America. All rights reserved.
##CAS REGISTRY NO=896-84-4
##MOLFORM=C19H16NP
##MP=159-160
##SOURCE REFERENCE=RAS UV No. 22577
##$NIST SQUIB=1977SMI/2468
##$NIST SOURCE=TYUGLMTE
##SPECTROMETER/DATA SYSTEM=SF-4A
##XUNITS=Wavelength (nm)
##YUNITS=Logarithm epsilon
##XFACTOR=1.0
##YFACTOR=1.0
##FIRSTX=217.432
##LASTX=352.033
##FIRSTY=4.556
##MAXX=352.033
##MINX=217.432
##MAXY=4.556
##MINY=2.703
##NPOINTS=92
##$REF AUTHOR=Smirnov, A.N.; et al.
##$REF JOURNAL=Zhur. Obshchei Khim.
##$REF PAGE=2468
##$REF DATE=1977
##XYPOINTS=(XY..XY)
217.432,4.556
218.932,4.541
220.432,4.521
221.932,4.497
223.432,4.470
224.932,4.442
226.432,4.413
227.932,4.383
229.432,4.354
230.932,4.326
232.432,4.298
233.932,4.271
235.432,4.244
236.932,4.219
238.432,4.194
239.932,4.169
241.432,4.145
242.932,4.122
244.432,4.099
245.932,4.076
247.432,4.054
248.932,4.033
250.432,4.012
251.932,3.993
253.432,3.974
254.932,3.958
256.432,3.943
257.932,3.930
259.432,3.920
260.932,3.913
262.440,3.907
263.690,3.908
265.190,3.919
266.690,3.935
268.190,3.952
269.690,3.969
271.190,3.985
272.690,3.999
274.190,4.011
275.690,4.020
277.190,4.027
278.690,4.032
280.190,4.034
281.690,4.033
283.190,4.030
284.690,4.023
286.190,4.012
287.690,3.996
289.190,3.976
290.690,3.952
292.190,3.924
293.690,3.894
294.887,3.867
296.387,3.842
297.887,3.823
299.387,3.809
300.887,3.798
302.387,3.790
303.887,3.785
305.387,3.781
306.887,3.780
308.387,3.780
309.887,3.781
311.387,3.784
312.887,3.787
314.387,3.790
315.887,3.794
317.387,3.796
318.887,3.797
320.387,3.796
321.887,3.792
323.387,3.785
324.887,3.774
326.387,3.759
327.887,3.739
329.387,3.716
330.887,3.689
331.033,3.684
332.533,3.661
334.033,3.626
335.533,3.582
337.033,3.530
338.533,3.471
340.033,3.407
341.533,3.338
343.033,3.265
344.533,3.187
346.033,3.105
347.533,3.017
349.033,2.922
350.533,2.818
352.033,2.703
##END=
