##TITLE=Pulegone
##JCAMP-DX=4.24
##DATA TYPE=UV/VIS SPECTRUM
##ORIGIN=INSTITUTE OF ENERGY PROBLEMS OF CHEMICAL PHYSICS, RAS
##OWNER=INEP CP RAS, NIST OSRD
Collection (C) 2007 copyright by the U.S. Secretary of Commerce
on behalf of the United States of America. All rights reserved.
##CAS REGISTRY NO=89-82-7
##MOLFORM=C10H16O
##BP=224
##SOURCE REFERENCE=RAS UV No. 3772
##$NIST SQUIB=1954CON943-948
##$NIST SOURCE=TSGMTE
##SPECTROMETER/DATA SYSTEM=n.i.g.
##XUNITS=Wavelength (nm)
##YUNITS=Logarithm epsilon
##XFACTOR=1.000000
##YFACTOR=1.000000
##FIRSTX=221.0416
##LASTX=281.9353
##FIRSTY=3.60675
##MAXX=281.935
##MINX=221.042
##MAXY=3.96906
##MINY=3.31569
##NPOINTS=157
##$REF AUTHOR=Conia, J.-M.
##$REF TITLE=Alcoylation des cetones par l'intermediaire de l'amylate tertiaire de sodium (4^e Memoire). Cetones ethyleniques: II^e partie: Alcoylation en serie alicyclique
##$REF JOURNAL=Bull. Soc. Chim. Fr.
##$REF VOLUME=21
##$REF PAGE=943-948
##$REF DATE=1954
##XYPOINTS=(XY..XY)
221.0416,3.606750
222.0626,3.617108
223.0857,3.627178
224.1133,3.636996
224.1133,3.636996
224.8292,3.645150
225.3749,3.651525
225.9241,3.658336
226.6501,3.667654
227.7264,3.681349
227.7264,3.681349
228.2949,3.689438
228.9131,3.698300
229.5618,3.707573
230.2217,3.716917
230.8736,3.726025
231.4982,3.734610
232.0763,3.742409
232.5886,3.749175
233.0159,3.754672
233.3388,3.758666
233.5383,3.760920
233.5383,3.760920
233.6276,3.763279
233.7427,3.765782
233.9359,3.769306
234.2600,3.774697
234.7674,3.782740
235.5106,3.794120
236.5422,3.809382
236.5422,3.809382
236.7354,3.812818
236.9208,3.815969
237.1130,3.819081
237.3268,3.822393
237.5770,3.826135
237.8781,3.830531
238.2450,3.835790
238.6924,3.842109
239.2350,3.849665
239.8876,3.858611
240.6647,3.869075
241.5813,3.881152
241.5813,3.881152
242.1516,3.889522
242.5992,3.895958
242.9625,3.901067
243.2801,3.905412
243.5902,3.909528
243.9313,3.913930
244.3418,3.919111
244.8602,3.925537
244.8602,3.925537
245.0267,3.926674
245.1983,3.927933
245.4159,3.929617
245.7202,3.932022
246.1519,3.935434
246.7519,3.940126
247.5607,3.946347
248.6193,3.954319
249.9683,3.964224
249.9683,3.964224
250.8453,3.968200
251.6581,3.969059
252.8068,3.966622
252.8068,3.966622
253.3468,3.963645
253.7995,3.961107
254.2289,3.958635
254.6989,3.955846
255.2735,3.952344
256.0166,3.947721
256.9922,3.941544
258.2642,3.933341
258.2642,3.933341
258.9935,3.930419
259.6594,3.926746
260.2664,3.922472
260.8192,3.917751
261.3223,3.912743
261.7802,3.907613
262.1974,3.902535
262.5786,3.897691
262.5786,3.897691
263.0712,3.889552
263.4507,3.883431
263.7563,3.878549
264.0271,3.874071
264.3024,3.869124
264.6213,3.862791
264.6213,3.862791
264.7767,3.861377
264.8846,3.859797
265.0400,3.858332
265.0400,3.858332
265.5695,3.846949
265.9621,3.838358
266.2553,3.831929
266.4867,3.826953
266.6937,3.822661
266.9139,3.818247
267.1848,3.812870
267.1848,3.812870
267.4012,3.806268
267.6344,3.799613
267.8800,3.792891
268.1335,3.786083
268.3905,3.779173
268.6466,3.772142
268.8974,3.764969
269.1385,3.757635
269.3655,3.750116
269.5740,3.742389
269.7595,3.734427
269.9176,3.726202
269.9176,3.726202
270.0009,3.725499
270.0886,3.724757
270.1785,3.723995
270.1785,3.723995
270.4354,3.715454
270.7247,3.706649
271.0385,3.697589
271.3685,3.688290
271.7065,3.678764
272.0444,3.669027
272.3740,3.659099
272.6872,3.648997
272.6872,3.648997
273.1677,3.641720
273.6151,3.630742
274.0007,3.617641
274.2959,3.604152
274.4722,3.592228
274.4722,3.592228
274.7641,3.581939
275.0496,3.571409
275.3308,3.560632
275.6096,3.549601
275.8880,3.538310
276.1680,3.526752
276.4518,3.514921
276.7412,3.502809
277.0383,3.490408
277.3451,3.477710
277.6636,3.464707
277.9959,3.451389
278.3439,3.437747
278.7096,3.423772
279.0950,3.409454
279.5023,3.394781
279.9333,3.379742
280.3901,3.364326
280.8747,3.348521
281.3891,3.332313
281.9353,3.315690
##END=
