##TITLE=Benzenamine, 2-methoxy-
##JCAMP-DX=4.24
##DATA TYPE=UV/VIS SPECTRUM
##ORIGIN=INSTITUTE OF ENERGY PROBLEMS OF CHEMICAL PHYSICS, RAS
##OWNER=INEP CP RAS, NIST OSRD
Collection (C) 2007 copyright by the U.S. Secretary of Commerce
on behalf of the United States of America. All rights reserved.
##CAS REGISTRY NO=90-04-0
##MOLFORM=C7H9NO
##BP=225/ 760 mm
##SOURCE REFERENCE=RAS UV No. 18994
##$NIST SQUIB=1972LAN125
##$NIST SOURCE=TYUGLMTE
##SPECTROMETER/DATA SYSTEM=Unicam SP 800
##XUNITS=Wavelength (nm)
##YUNITS=Logarithm epsilon
##XFACTOR=1.0
##YFACTOR=1.0
##FIRSTX=209.76
##LASTX=322.72
##FIRSTY=4.351
##MAXX=322.72
##MINX=209.76
##MAXY=4.351
##MINY=0.536
##NPOINTS=163
##$REF AUTHOR=Lang (editor), L.
##$REF JOURNAL=Absorption Spectra in the Ultraviolet and Visible Region
##$REF VOLUME=16
##$REF PAGE=125
##$REF DATE=1972
##XYPOINTS=(XY..XY)
209.76,4.351
210.61,4.327
211.12,4.300
211.64,4.273
212.32,4.246
212.67,4.215
213.18,4.188
213.52,4.157
213.86,4.127
214.21,4.096
214.55,4.066
214.89,4.035
215.06,4.005
215.23,3.974
215.57,3.943
215.75,3.913
215.92,3.882
216.26,3.852
216.43,3.821
216.60,3.790
216.77,3.760
216.94,3.729
217.46,3.702
217.97,3.675
218.83,3.651
220.20,3.638
221.74,3.631
223.28,3.641
224.82,3.651
226.02,3.672
227.04,3.692
228.07,3.712
228.92,3.736
229.95,3.760
230.98,3.780
232.01,3.804
233.20,3.821
234.40,3.838
235.77,3.852
237.31,3.858
238.85,3.858
240.39,3.852
241.59,3.835
242.62,3.814
243.64,3.790
244.50,3.767
245.36,3.743
246.04,3.716
246.90,3.692
247.58,3.665
248.26,3.638
248.95,3.610
249.63,3.583
250.15,3.556
250.83,3.529
251.35,3.498
251.86,3.471
252.37,3.441
252.89,3.413
253.40,3.383
253.74,3.352
254.26,3.325
254.43,3.294
254.94,3.267
255.45,3.237
255.97,3.210
256.31,3.179
256.82,3.148
257.16,3.118
257.68,3.087
258.19,3.057
258.53,3.026
259.05,2.999
259.56,2.972
259.90,2.941
260.25,2.911
260.59,2.880
261.61,2.856
263.16,2.849
264.35,2.870
265.38,2.890
266.24,2.914
267.09,2.941
267.95,2.968
268.80,2.995
269.49,3.023
270.00,3.050
270.86,3.077
271.37,3.104
272.05,3.131
272.91,3.155
273.60,3.182
274.45,3.210
275.31,3.237
275.99,3.264
277.02,3.288
278.05,3.311
279.07,3.335
279.93,3.359
280.95,3.383
282.15,3.403
283.18,3.424
284.38,3.444
285.75,3.454
287.29,3.461
288.83,3.461
290.37,3.458
291.74,3.444
293.11,3.427
294.13,3.407
294.99,3.383
296.02,3.359
296.70,3.332
297.56,3.308
298.07,3.281
298.75,3.254
299.44,3.227
300.12,3.199
300.64,3.172
301.15,3.145
301.66,3.118
302.18,3.087
302.52,3.057
303.03,3.029
303.55,3.002
303.89,2.972
304.40,2.941
304.92,2.914
305.26,2.883
305.77,2.853
306.11,2.822
306.46,2.792
306.97,2.764
307.31,2.734
307.83,2.703
308.17,2.673
308.51,2.642
308.68,2.612
309.02,2.581
309.54,2.550
309.71,2.520
310.22,2.489
310.39,2.459
310.74,2.428
311.08,2.398
311.42,2.367
311.59,2.336
311.93,2.306
312.10,2.275
312.45,2.245
312.79,2.214
315.19,1.878
315.87,1.749
316.55,1.630
317.24,1.507
317.92,1.388
318.61,1.283
319.29,1.123
319.98,1.005
320.66,0.889
321.35,0.777
322.03,0.675
322.72,0.536
##END=
