##TITLE=Benzaldehyde, 2-hydroxy-
##JCAMP-DX=4.24
##DATA TYPE=UV/VIS SPECTRUM
##ORIGIN=INSTITUTE OF ENERGY PROBLEMS OF CHEMICAL PHYSICS, RAS
##OWNER=INEP CP RAS, NIST OSRD
Collection (C) 2007 copyright by the U.S. Secretary of Commerce
on behalf of the United States of America. All rights reserved.
##CAS REGISTRY NO=90-02-8
##MOLFORM=C7H6O2
##MP=-7
##BP=197
##SOURCE REFERENCE=RAS UV No. 3309
##$NIST SQUIB=1953GRA821-826
##$NIST SOURCE=TSGMTE
##SPECTROMETER/DATA SYSTEM=n.i.g.
##XUNITS=Wavelength (nm)
##YUNITS=Logarithm epsilon
##XFACTOR=1.000000
##YFACTOR=1.000000
##FIRSTX=127.5309
##LASTX=75.2283
##FIRSTY=1.07951
##MAXX=127.531
##MINX=75.2283
##MAXY=3.94912
##MINY=1.07951
##NPOINTS=715
##$REF AUTHOR=Grammaticakis, P.
##$REF TITLE=Contribution a l'etude de l'absorption dans l'U.-V. moyen et le visible de quelques aldehydes et cetones aromatiques ainsi que de certains de leurs derives fonctionnels, (Premier memoire)
##$REF JOURNAL=Bull. Soc. Chim. Fr.
##$REF VOLUME=20
##$REF PAGE=821-826
##$REF DATE=1953
##XYPOINTS=(XY..XY)
127.5309,1.079507
127.3637,1.084719
127.3637,1.122530
127.1760,1.127746
127.1760,1.155123
127.1760,1.241825
127.0097,1.160339
127.0097,1.198148
126.8439,1.204017
126.8439,1.230743
126.6578,1.235957
126.6578,1.241825
126.6578,1.247040
126.4928,1.252256
126.4928,1.301147
126.3283,1.306363
126.3283,1.360468
126.1642,1.366335
126.1642,1.409360
125.9801,1.414576
125.9801,1.453037
125.8169,1.458252
125.8169,1.484980
125.6541,1.490847
125.6541,1.555383
125.4715,1.561250
125.4715,1.604276
125.3097,1.604276
125.3097,1.653167
125.1482,1.658382
125.1482,1.679895
124.9670,1.685761
124.9670,1.723571
124.8065,1.728785
124.8065,1.788759
124.6463,1.793975
124.6463,1.810272
124.4865,1.815487
124.4865,1.853297
124.3073,1.859164
124.3073,1.885891
124.1484,1.891106
124.1484,1.929568
123.9899,1.934783
123.9899,1.967377
123.8121,1.972592
123.8121,2.005187
123.6545,2.010401
123.6545,2.031914
123.4973,2.037781
123.4973,2.054078
123.3209,2.059293
123.3209,2.097102
123.1645,2.102318
123.1645,2.124482
123.0085,2.129697
123.0085,2.151209
122.8335,2.156424
122.8335,2.178588
122.6783,2.183804
122.6783,2.205316
122.5236,2.210531
122.5236,2.237910
122.3692,2.237910
122.3692,2.275720
122.1960,2.280935
122.1960,2.303099
122.0425,2.308314
122.0425,2.329827
121.8893,2.335042
121.8893,2.357206
121.7175,2.362421
121.7175,2.383933
121.5651,2.389800
121.5651,2.411313
121.4132,2.416528
121.4132,2.438040
121.2427,2.438040
121.2427,2.465419
121.0915,2.470634
121.0915,2.492147
120.9407,2.498014
120.9407,2.519526
120.7715,2.524741
120.7715,2.546253
120.6216,2.552120
120.6216,2.573633
120.4719,2.573633
120.4719,2.589930
120.3227,2.595145
120.3227,2.616657
120.1552,2.622524
120.1552,2.638821
120.0068,2.644037
120.0068,2.665549
119.8587,2.670764
119.8587,2.687061
119.6925,2.692928
119.6925,2.709225
119.5452,2.714440
119.5452,2.730738
119.3982,2.735953
119.3982,2.747035
119.2334,2.752250
119.2334,2.779629
119.0872,2.784844
119.0872,2.801142
118.9413,2.806357
118.9413,2.822654
118.7777,2.827869
118.7777,2.844166
118.6326,2.850033
118.6326,2.865679
118.4879,2.871545
118.4879,2.887843
118.3435,2.893058
118.3435,2.909355
118.1815,2.909355
118.1815,2.930867
118.0379,2.930867
118.0379,2.952380
117.8946,2.952380
117.8946,2.958247
117.7338,2.963462
117.7338,2.979759
117.5913,2.984974
117.5913,3.017568
117.4491,3.022784
117.4491,3.039081
117.2896,3.044948
117.2896,3.050163
117.1481,3.055378
117.1481,3.071675
117.0070,3.076890
117.0070,3.093187
116.8662,3.093187
116.8662,3.109485
116.7082,3.115352
116.7082,3.130997
116.5681,3.136864
116.5681,3.142079
116.4284,3.147294
116.4284,3.163591
116.2716,3.169458
116.2716,3.179889
116.1326,3.185756
116.1326,3.196186
115.9939,3.201401
115.9939,3.217698
115.8382,3.223565
115.8382,3.233995
115.7003,3.239862
115.7003,3.250292
115.5626,3.250292
115.5626,3.266590
115.4081,3.271805
115.4081,3.282887
115.2712,3.288102
115.2712,3.299184
115.1345,3.304399
115.1345,3.320696
114.9982,3.325911
114.9982,3.336994
114.8452,3.342209
114.8452,3.353291
114.7096,3.353291
114.7096,3.369588
114.5743,3.369588
114.5743,3.380670
114.4224,3.380670
114.4224,3.391100
114.2878,3.396315
114.2878,3.402182
114.1535,3.407397
114.1535,3.412613
114.0027,3.418480
114.0027,3.423695
113.8691,3.428910
113.8691,3.434777
113.7357,3.439992
113.7357,3.445207
113.4534,3.456289
113.4534,3.466719
113.3210,3.466719
113.3210,3.472586
113.1890,3.477801
113.1890,3.483016
112.9094,3.494099
112.9094,3.505181
112.5007,3.520826
112.2245,3.531908
112.0949,3.531908
111.9657,3.542990
111.9657,3.537123
111.8368,3.542990
111.5638,3.553420
111.4358,3.559287
111.4358,3.553420
111.1648,3.559287
110.8951,3.569718
110.3752,3.569718
110.2500,3.575585
108.2079,3.575585
108.0875,3.569718
107.3409,3.564502
107.3409,3.569718
107.0894,3.564502
106.9715,3.559287
106.7217,3.559287
106.6046,3.553420
106.4877,3.553420
106.1241,3.537123
105.9938,3.537123
105.8783,3.531908
105.7630,3.531908
105.2900,3.505181
105.2900,3.510396
105.1618,3.499314
105.1618,3.505181
105.0481,3.494099
105.0481,3.499314
104.9346,3.494099
104.6942,3.483016
104.5815,3.477801
104.5815,3.483016
104.4549,3.466719
104.4549,3.472586
104.2308,3.451074
104.2308,3.456289
103.9936,3.434777
103.9936,3.439992
103.7714,3.412613
103.7714,3.423695
103.6468,3.407397
103.6468,3.412613
103.5363,3.396315
103.5363,3.402182
103.3023,3.380670
103.3023,3.385885
103.1926,3.369588
103.1926,3.374803
103.0830,3.353291
103.0830,3.369588
102.9601,3.342209
102.9601,3.348076
102.8511,3.336994
102.8511,3.342209
102.7423,3.325911
102.7423,3.331778
102.6337,3.315481
102.6337,3.320696
102.4038,3.293969
102.4038,3.304399
102.2959,3.282887
102.2959,3.293969
102.0675,3.266590
102.0675,3.271805
101.9603,3.255508
101.9603,3.261375
101.7334,3.233995
101.7334,3.245077
101.6269,3.228780
101.6269,3.233995
101.5207,3.217698
101.5207,3.223565
101.4015,3.207268
101.4015,3.212483
101.2957,3.196186
101.2957,3.201401
101.1902,3.185756
101.1902,3.196186
101.0717,3.174673
101.0717,3.179889
100.9667,3.163591
100.9667,3.169458
100.8618,3.153161
100.8618,3.158376
100.7441,3.142079
100.7441,3.147294
100.6397,3.130997
100.6397,3.136864
100.4186,3.109485
100.4186,3.120567
100.3149,3.099054
100.3149,3.104270
100.1081,3.082757
100.1081,3.099054
99.9922,3.066460
99.9922,3.076890
99.8893,3.055378
99.8893,3.060593
99.7867,3.044948
99.7867,3.050163
99.6715,3.033866
99.6715,3.044948
99.5693,3.022784
99.5693,3.033866
99.4674,3.006486
99.4674,3.017568
99.1501,2.984974
99.1501,2.990841
99.0363,2.974544
99.0363,2.979759
98.8348,2.952380
98.8348,2.963462
98.7343,2.941949
98.7343,2.947165
98.6215,2.930867
98.6215,2.941949
98.5215,2.925652
98.5215,2.930867
98.4216,2.909355
98.4216,2.920437
98.3096,2.904140
98.3096,2.909355
98.2102,2.893058
98.2102,2.898273
98.1110,2.881976
98.1110,2.887843
97.9008,2.860463
97.9008,2.871545
97.8022,2.850033
97.8022,2.860463
97.6916,2.838951
97.6916,2.844166
97.5934,2.827869
97.5934,2.833736
97.4954,2.822654
97.4954,2.827869
97.3977,2.811572
97.3977,2.817439
97.2879,2.801142
97.2879,2.806357
97.1906,2.790060
97.1906,2.795275
97.0934,2.779629
97.0934,2.790060
96.9843,2.773762
96.9843,2.779629
96.8876,2.757465
96.8876,2.773762
96.6827,2.741168
96.6827,2.747035
96.5865,2.730738
96.5865,2.735953
96.4906,2.719656
96.4906,2.730738
96.3948,2.709225
96.3948,2.714440
96.2873,2.703358
96.2873,2.709225
96.1919,2.692928
96.1919,2.703358
96.0968,2.681846
96.0968,2.687061
95.9899,2.676631
95.8951,2.670764
95.8951,2.676631
95.8006,2.655119
95.8006,2.665549
95.6944,2.649252
95.6944,2.655119
95.6002,2.638821
95.6002,2.644037
95.5062,2.627739
95.5062,2.632954
95.4006,2.622524
95.4006,2.627739
95.3070,2.616657
95.3070,2.622524
95.1204,2.600360
95.1204,2.606227
94.9228,2.589930
94.8301,2.584715
94.8301,2.589930
94.5417,2.562551
94.5417,2.568418
94.4383,2.557335
94.4383,2.562551
94.2550,2.546253
94.1522,2.546253
94.0610,2.541038
93.9700,2.541038
93.7772,2.529956
93.6867,2.529956
93.5965,2.524741
93.4951,2.524741
93.4052,2.519526
93.3154,2.519526
93.1253,2.519526
93.0361,2.524741
92.9360,2.524741
92.8471,2.529956
92.7585,2.529956
92.6700,2.535823
92.6700,2.541038
92.5706,2.541038
92.4824,2.546253
92.3945,2.546253
92.3945,2.552120
92.2957,2.557335
92.2957,2.562551
92.2081,2.562551
92.2081,2.568418
92.1206,2.568418
92.0224,2.573633
92.0224,2.578848
91.9353,2.584715
91.9353,2.589930
91.8484,2.589930
91.8484,2.595145
91.7616,2.595145
91.7616,2.606227
91.6642,2.606227
91.6642,2.616657
91.5778,2.616657
91.5778,2.627739
91.3946,2.638821
91.3946,2.649252
91.3087,2.649252
91.3087,2.660334
91.2230,2.665549
91.2230,2.670764
91.1267,2.676631
91.1267,2.681846
91.0413,2.687061
91.0413,2.703358
90.9560,2.709225
90.9560,2.714440
90.8603,2.719656
90.8603,2.730738
90.7754,2.735953
90.7754,2.752250
90.6906,2.757465
90.6906,2.779629
90.6060,2.784844
90.6060,2.801142
90.5110,2.801142
90.5110,2.817439
90.4267,2.817439
90.4267,2.833736
90.3426,2.838951
90.3426,2.860463
90.2482,2.865679
90.2482,2.881976
90.1644,2.887843
90.1644,2.909355
90.0808,2.914570
90.0808,2.936082
89.9869,2.941949
89.9869,2.974544
89.9036,2.979759
89.9036,3.012353
89.8205,3.017568
89.8205,3.039081
89.7271,3.044948
89.7271,3.076890
89.6443,3.082757
89.6443,3.115352
89.5616,3.120567
89.5616,3.169458
89.4791,3.174673
89.4791,3.196186
89.3865,3.201401
89.3865,3.228780
89.3043,3.233995
89.3043,3.250292
89.2223,3.255508
89.2223,3.277672
89.1302,3.282887
89.1302,3.310266
89.0484,3.315481
89.0484,3.336994
88.9669,3.342209
88.9669,3.364373
88.8753,3.369588
88.8753,3.402182
88.7940,3.402182
88.7940,3.412613
88.7129,3.418480
88.7129,3.439992
88.6320,3.439992
88.6320,3.466719
88.5411,3.472586
88.5411,3.488883
88.4604,3.494099
88.4604,3.515611
88.3800,3.520826
88.3800,3.526693
88.2896,3.526693
88.2896,3.559287
88.2094,3.564502
88.2094,3.586015
88.1294,3.591230
88.1294,3.607527
88.0395,3.613394
88.0395,3.634906
87.9598,3.634906
87.9598,3.645988
87.8802,3.651204
87.8802,3.667501
87.7908,3.672716
87.7908,3.683798
87.7115,3.689013
87.7115,3.705310
87.6324,3.705310
87.6324,3.715740
87.5534,3.721607
87.5534,3.732038
87.4647,3.737905
87.4647,3.748335
87.3860,3.754202
87.3860,3.764632
87.3075,3.764632
87.3075,3.770499
87.2193,3.775714
87.2193,3.786144
87.1410,3.792011
87.1410,3.797227
87.0629,3.802442
87.0629,3.808309
86.9752,3.813524
86.9752,3.829821
86.8974,3.835036
86.8974,3.846118
86.8197,3.851333
86.8197,3.862415
86.7325,3.862415
86.7325,3.867630
86.6551,3.867630
86.6551,3.872846
86.5778,3.872846
86.5778,3.878713
86.5007,3.883928
86.4142,3.883928
86.4142,3.889143
86.3373,3.889143
86.3373,3.900225
86.2607,3.905440
86.2607,3.911307
86.1746,3.911307
86.1746,3.916522
86.0982,3.916522
86.0982,3.921737
86.0219,3.921737
86.0219,3.926952
85.9363,3.926952
85.8603,3.932819
85.6993,3.932819
85.6993,3.943249
85.4731,3.943249
85.3886,3.949116
84.9219,3.949116
84.8478,3.943249
84.6168,3.943249
84.5431,3.938034
84.3870,3.938034
84.3870,3.932819
84.1585,3.932819
84.1585,3.926952
84.0129,3.926952
83.9313,3.921737
83.8588,3.921737
83.7864,3.916522
83.6331,3.916522
83.6331,3.911307
83.5612,3.911307
83.5612,3.905440
83.4087,3.905440
83.4087,3.900225
83.2657,3.889143
83.1855,3.889143
83.1855,3.883928
83.1143,3.883928
83.1143,3.878713
82.9634,3.867630
82.8926,3.867630
82.8926,3.862415
82.8219,3.856548
82.7514,3.856548
82.7514,3.851333
82.5316,3.835036
82.5316,3.829821
82.3829,3.818739
82.3829,3.813524
82.3130,3.813524
82.3130,3.808309
82.2346,3.802442
82.2346,3.797227
82.1651,3.792011
82.1651,3.786144
82.0956,3.786144
82.0956,3.780929
82.0263,3.775714
82.0263,3.770499
81.9484,3.770499
81.9484,3.764632
81.8794,3.759417
81.8104,3.759417
81.8104,3.743120
81.7329,3.737905
81.7329,3.732038
81.6642,3.726823
81.6642,3.721607
81.5956,3.721607
81.5956,3.715740
81.3820,3.700095
81.3820,3.689013
81.3053,3.683798
81.3053,3.677931
81.2373,3.677931
81.2373,3.672716
81.1694,3.667501
81.1694,3.661634
81.1016,3.661634
81.1016,3.656419
81.0255,3.651204
81.0255,3.645988
80.9580,3.640121
80.9580,3.634906
80.8906,3.634906
80.8906,3.629691
80.7477,3.618609
80.7477,3.613394
80.6053,3.602312
80.6053,3.591230
80.5384,3.591230
80.5384,3.586015
80.4717,3.586015
80.4717,3.580800
80.3968,3.580800
80.3968,3.575585
80.3303,3.569718
79.9912,3.515611
79.9912,3.537123
79.9172,3.510396
79.9172,3.515611
79.8515,3.499314
79.8515,3.505181
79.7859,3.488883
79.7859,3.499314
79.7122,3.483016
79.7122,3.488883
79.5816,3.477801
79.5816,3.483016
79.5083,3.472586
79.5083,3.477801
79.4433,3.466719
79.4433,3.472586
79.2407,3.445207
79.2407,3.451074
79.1761,3.439992
79.1761,3.445207
79.1116,3.434777
79.1116,3.439992
79.0392,3.428910
78.9749,3.423695
78.9749,3.428910
78.8387,3.407397
78.8387,3.412613
78.7748,3.402182
78.7109,3.402182
78.6472,3.396315
78.4487,3.396315
78.3143,3.385885
78.2512,3.380670
78.2512,3.385885
78.1803,3.380670
77.7968,3.380670
77.7267,3.385885
77.2784,3.385885
77.2784,3.391100
77.2169,3.391100
77.0867,3.402182
76.9645,3.402182
76.8960,3.407397
76.8960,3.412613
76.8352,3.412613
76.8352,3.418480
76.7062,3.428910
76.6457,3.428910
76.4571,3.445207
76.4571,3.451074
76.3970,3.451074
76.3369,3.456289
76.3369,3.461504
76.2695,3.461504
76.2695,3.466719
76.2097,3.472586
76.2097,3.477801
76.1499,3.477801
76.0828,3.483016
76.0828,3.488883
76.0233,3.494099
76.0233,3.499314
75.9638,3.499314
75.9638,3.505181
75.8970,3.505181
75.8970,3.510396
75.7121,3.526693
75.7121,3.537123
75.6532,3.542990
75.6532,3.548205
75.5355,3.559287
75.5355,3.575585
75.4695,3.575585
75.4695,3.586015
75.4109,3.591230
75.4109,3.602312
75.3524,3.607527
75.3524,3.618609
75.2867,3.623824
75.2867,3.651204
75.2283,3.656419
75.2283,3.710525
##END=
