##TITLE=Naphthalene, 1-bromo-
##JCAMP-DX=4.24
##DATA TYPE=UV/VIS SPECTRUM
##ORIGIN=INSTITUTE OF ENERGY PROBLEMS OF CHEMICAL PHYSICS, RAS
##OWNER=INEP CP RAS, NIST OSRD
Collection (C) 2007 copyright by the U.S. Secretary of Commerce
on behalf of the United States of America. All rights reserved.
##CAS REGISTRY NO=90-11-9
##MOLFORM=C10H7Br
##MP=-1.8
##BP=281
##SOURCE REFERENCE=RAS UV No. 9048
##$NIST SQUIB=1967PER/BRAe1/12C
##$NIST SOURCE=TSGMTE
##SPECTROMETER/DATA SYSTEM=Zeiss PMQ II
##XUNITS=Wavelength (nm)
##YUNITS=Logarithm epsilon
##XFACTOR=1.000000
##YFACTOR=1.000000
##FIRSTX=327.7627
##LASTX=228.1389
##FIRSTY=1.21439
##MAXX=327.763
##MINX=228.139
##MAXY=4.60004
##MINY=1.21439
##NPOINTS=1000
##$REF AUTHOR=Perkampus, H.-H.; Braunschweig, T.H.
##$REF TITLE=1-Bromonaphthalene
##$REF BOOK TITLE=UV Atlas of Organic Compounds - Vol. 3
##$REF PAGE=E1/12
##$REF DATE=1967
##$REF PUBLISHER=Plenum Press
##$REF LOCATION=New York
##XYPOINTS=(XY..XY)
327.7627,1.214388
327.5435,1.242074
327.5158,1.216696
327.3589,1.275848
327.3243,1.244124
327.1723,1.307590
327.1402,1.278152
326.9561,1.337305
326.9263,1.309896
326.7699,1.369047
326.7377,1.339356
326.5521,1.371352
324.0328,1.771582
323.8207,1.801297
323.7912,1.773635
323.6335,1.828726
323.6065,1.803348
323.4468,1.856407
323.4198,1.831030
323.2331,1.883839
323.2040,1.856430
323.0469,1.911521
323.0197,1.885889
322.8337,1.913571
321.4878,2.136032
321.4587,2.108370
321.3033,2.163460
321.2766,2.138082
321.1168,2.188858
321.0924,2.165511
320.9107,2.220604
320.8799,2.191165
320.7006,2.222908
320.3074,2.278021
318.7546,2.254821
318.7522,2.252537
318.5470,2.256871
318.5449,2.254841
318.3397,2.258922
318.1395,2.292951
317.9588,2.320380
317.9327,2.295002
317.7851,2.354406
317.7525,2.322684
317.5942,2.396810
317.5528,2.356459
317.4250,2.434898
317.3881,2.398861
317.2906,2.506737
317.2755,2.492018
317.2540,2.470954
317.2192,2.436948
317.0613,2.511074
317.0593,2.509044
317.0398,2.490011
317.0224,2.473007
316.8863,2.542817
316.8560,2.513125
316.7050,2.568215
316.6814,2.545121
315.9111,2.651034
315.3944,2.547278
315.1615,2.545271
315.1227,2.506950
314.9158,2.504941
314.8922,2.481593
314.6856,2.479583
314.6707,2.464864
314.4386,2.462603
314.4345,2.458542
314.2282,2.456278
313.7955,2.456322
313.7914,2.452261
313.5923,2.456342
313.3917,2.458646
313.3894,2.456362
313.1677,2.462729
313.1657,2.460699
312.9886,2.486097
312.9676,2.465034
312.7885,2.488148
312.6519,2.553897
312.6393,2.541208
312.4313,2.560264
312.4270,2.555950
312.2507,2.581348
312.2319,2.562315
312.0706,2.602686
312.0518,2.583653
311.8654,2.623773
311.8466,2.604739
311.6815,2.640796
311.6667,2.625823
311.4955,2.655536
311.4830,2.642847
311.2726,2.657843
311.0996,2.685271
311.0891,2.674612
310.9041,2.689606
310.9019,2.687322
310.6817,2.691659
310.4845,2.693709
310.4825,2.691679
310.2856,2.693729
310.0643,2.696036
309.6678,2.696077
309.4471,2.698130
309.2515,2.700181
309.2495,2.698150
309.0564,2.702485
309.0542,2.700201
308.8470,2.715197
308.8346,2.702508
308.6604,2.725876
308.6521,2.717247
308.4781,2.740615
308.4658,2.727926
308.2756,2.759671
308.2591,2.742668
308.0998,2.780755
308.0814,2.761722
307.9183,2.795749
307.9061,2.783060
307.7166,2.814805
307.7002,2.797802
307.5375,2.831829
307.5231,2.816856
307.3584,2.848598
307.3443,2.833879
307.1657,2.876283
307.1413,2.850905
306.9953,2.901681
306.9729,2.878334
306.8190,2.920735
306.8028,2.903732
306.6146,2.935477
306.6025,2.922788
306.4429,2.958845
306.4228,2.937781
306.2672,2.977899
306.2510,2.960896
306.0918,2.996953
306.0756,2.979949
305.8886,3.011948
305.8743,2.996975
305.7054,3.022374
305.6974,3.013999
305.5185,3.028738
305.5147,3.024678
305.3079,3.035106
305.3040,3.031045
305.1196,3.039440
305.1155,3.035126
304.9315,3.043775
304.9275,3.039461
304.7195,3.047858
304.7157,3.043798
304.5320,3.052193
304.5279,3.047878
304.3506,3.062872
304.3425,3.054243
304.1454,3.073299
304.1375,3.064925
303.9686,3.088293
303.9566,3.075604
303.7958,3.107346
303.7798,3.090343
303.5994,3.126403
303.5834,3.109400
303.4251,3.143426
303.4110,3.128453
303.2488,3.158166
303.2351,3.143447
303.0531,3.177222
303.0373,3.160219
302.8776,3.192215
302.8657,3.179526
302.7039,3.208985
302.6902,3.194266
302.5051,3.223981
302.4933,3.211292
302.3318,3.240751
302.3182,3.226031
302.1590,3.257774
302.1453,3.243055
301.9628,3.274800
301.9470,3.257797
301.7883,3.289540
301.7765,3.276851
301.6201,3.310877
301.6024,3.291844
301.4265,3.329934
301.4107,3.312931
301.2584,3.351018
301.2408,3.331984
301.0887,3.370071
301.0730,3.353068
300.8957,3.389128
300.8803,3.372378
300.7304,3.412496
300.7110,3.391432
300.5631,3.433580
300.5456,3.414546
300.3806,3.463295
300.3555,3.435887
300.2081,3.478288
300.1965,3.465599
300.0570,3.516375
300.0222,3.478308
299.8828,3.529084
299.8731,3.518426
299.6954,3.552455
299.6759,3.531138
299.5274,3.571509
299.5119,3.554506
299.3596,3.590562
299.3441,3.573559
299.1689,3.609619
299.1534,3.592616
299.0015,3.628672
298.9842,3.609639
298.8343,3.647726
298.8188,3.630723
298.6403,3.662468
298.6270,3.647749
298.4678,3.675178
298.4583,3.664773
298.2897,3.681542
298.2860,3.677482
298.0852,3.683849
298.0831,3.681565
297.5186,3.690257
297.3359,3.690277
297.1553,3.692328
296.9485,3.690321
296.5848,3.690361
296.3786,3.688100
295.0693,3.688247
294.8917,3.690551
294.5124,3.692625
294.5106,3.690595
294.3351,3.694675
294.3334,3.692645
293.9593,3.699033
293.7827,3.701083
293.7810,3.699053
293.6066,3.703388
293.6046,3.701104
293.2306,3.705461
293.2288,3.703431
292.6768,3.705524
292.5018,3.707575
291.0296,3.707745
290.8568,3.710049
290.6622,3.712102
290.6604,3.710072
290.4896,3.714153
290.4878,3.712123
290.3174,3.716457
290.3154,3.714173
290.1271,3.722825
290.1234,3.718510
289.9571,3.727159
289.9552,3.724875
289.7890,3.733524
289.7853,3.729210
289.6012,3.741922
289.5958,3.735577
289.4353,3.750317
289.4299,3.743972
289.2697,3.758965
289.2643,3.752621
289.0826,3.767363
289.0772,3.761018
288.9192,3.778042
288.9119,3.769413
288.7540,3.786437
288.7486,3.780092
288.5675,3.794834
288.5622,3.788490
288.4030,3.803483
288.3976,3.797139
288.2367,3.809848
288.2331,3.805534
288.0509,3.818246
288.0455,3.811901
287.8850,3.824610
287.8816,3.820550
287.7212,3.833259
287.7159,3.826915
287.5574,3.841654
287.5521,3.835310
287.3744,3.852336
287.3672,3.843707
287.2164,3.867075
287.2040,3.852356
287.0497,3.871410
287.0478,3.869126
286.8601,3.873463
286.6903,3.873483
286.5224,3.875534
285.6352,3.875640
285.4651,3.873630
285.2759,3.873653
285.1063,3.871643
285.1044,3.869359
284.9350,3.867349
284.9333,3.865319
284.7429,3.863058
284.7413,3.861028
284.5723,3.859018
284.5704,3.856734
284.4016,3.854724
284.3999,3.852694
284.2122,3.852716
284.2086,3.848402
284.0419,3.848423
284.0402,3.846392
283.8719,3.844129
283.8702,3.842098
283.6831,3.842121
283.6796,3.837807
283.5135,3.837827
283.5119,3.835797
283.3443,3.833787
283.3425,3.831503
283.1561,3.831526
283.1544,3.829496
282.8202,3.825222
282.8185,3.823192
282.6328,3.823215
282.6312,3.821184
282.4663,3.821205
282.4645,3.818921
282.1113,3.814650
281.9471,3.814670
281.9454,3.812640
281.7814,3.812660
281.7797,3.810630
281.6140,3.808366
281.6124,3.806336
281.4283,3.806359
281.4267,3.804328
281.2632,3.804349
281.2614,3.802065
280.9114,3.798047
280.9096,3.795763
280.7451,3.793753
280.7416,3.789439
280.5774,3.787429
280.5757,3.785399
280.3911,3.783138
280.3895,3.781108
280.2257,3.779098
280.2238,3.776814
279.7130,3.770533
279.5515,3.770553
279.3685,3.768546
279.2074,3.768566
279.0449,3.766556
277.8641,3.766706
277.0593,3.779499
277.0575,3.777215
276.8843,3.783582
276.8811,3.779521
276.7278,3.785886
276.7261,3.783602
276.5714,3.787937
276.5698,3.785907
276.3954,3.789990
276.3938,3.787960
276.2395,3.792294
276.2377,3.790010
276.0836,3.794345
276.0820,3.792314
275.9278,3.796395
275.9263,3.794365
275.5942,3.796438
275.4392,3.798743
275.1067,3.798786
274.9487,3.796522
274.6174,3.796565
274.6159,3.794535
274.4587,3.792525
274.4569,3.790241
274.2820,3.790264
274.2805,3.788234
274.1237,3.786224
274.1219,3.783940
273.9653,3.781930
273.9620,3.777616
273.7878,3.777638
273.7847,3.773578
273.6300,3.773598
273.6267,3.769284
273.4706,3.767274
273.4689,3.764990
273.2937,3.762983
273.2904,3.758668
273.1348,3.756659
273.1332,3.754628
272.9775,3.752365
272.9744,3.748304
272.7997,3.746043
272.7982,3.744013
272.6431,3.742003
272.6398,3.737689
272.4849,3.735679
272.4816,3.731364
272.3077,3.729357
272.3060,3.727073
272.1514,3.725063
272.1482,3.720749
271.9953,3.720769
271.9921,3.716455
271.8188,3.714447
271.8173,3.712417
271.6631,3.710153
271.6600,3.706093
271.5077,3.706113
271.5045,3.701799
271.3334,3.701822
271.3301,3.697508
271.1782,3.697528
271.1734,3.691183
271.0217,3.691204
271.0186,3.687143
270.8481,3.687166
270.8449,3.682852
270.6935,3.682872
270.6903,3.678558
270.5376,3.676548
270.5344,3.672234
270.3818,3.670224
270.3803,3.668194
270.2089,3.665932
270.2059,3.661872
270.0535,3.659608
270.0505,3.655548
269.8983,3.653284
269.8953,3.649224
269.7245,3.646962
269.7214,3.642902
269.5713,3.642922
269.5681,3.638608
269.4167,3.636598
269.4150,3.634314
269.2450,3.632307
269.2433,3.630023
269.0937,3.630043
269.0907,3.625983
268.9412,3.626003
268.9396,3.623719
268.7716,3.623742
268.7687,3.619681
268.6196,3.619702
268.6179,3.617418
268.4675,3.615408
268.4660,3.613377
268.2987,3.613400
268.2970,3.611116
268.1484,3.611136
268.1470,3.609106
267.8318,3.609149
267.8303,3.607119
267.6823,3.607139
267.5328,3.604876
267.3666,3.604899
267.3651,3.602868
267.0702,3.602909
267.0687,3.600879
266.7561,3.600922
266.6076,3.598658
266.4426,3.598681
266.2946,3.596671
265.9838,3.596714
265.9824,3.594684
265.8364,3.594704
265.8347,3.592420
265.6889,3.592441
265.6874,3.590410
265.5417,3.590431
265.5403,3.588400
265.3766,3.588423
265.3749,3.586139
265.2296,3.586160
265.2281,3.584129
265.0830,3.584150
265.0815,3.582119
264.9184,3.582142
264.9167,3.579858
264.7719,3.579878
264.7704,3.577848
264.6243,3.575838
264.6227,3.573554
264.4601,3.573577
264.4587,3.571547
264.3129,3.569537
264.3113,3.567253
264.1671,3.567273
264.1642,3.563213
264.0022,3.563236
264.0006,3.560952
263.8553,3.558942
263.8539,3.556911
263.7086,3.554648
263.7071,3.552618
263.5442,3.550610
263.5412,3.546296
263.3979,3.546316
263.3948,3.542002
263.2502,3.539992
263.2486,3.537708
263.0863,3.535701
263.0832,3.531386
262.9390,3.529376
262.9375,3.527346
262.7932,3.525082
262.7904,3.521022
262.6285,3.518761
262.6256,3.514700
262.4817,3.512437
262.4758,3.504062
262.3322,3.502052
262.1724,3.502075
262.1708,3.499791
262.0276,3.497781
262.0231,3.491436
261.8800,3.489427
261.8784,3.487143
261.7178,3.485135
261.7164,3.483105
261.5734,3.480841
261.5706,3.476781
261.4278,3.474517
261.4264,3.472487
261.2663,3.470479
261.2633,3.466165
261.1210,3.464155
261.1194,3.461871
260.9773,3.459861
260.9759,3.457831
260.8162,3.455570
260.8132,3.451256
260.6714,3.449246
260.6700,3.447215
260.5282,3.444952
260.5268,3.442921
260.3853,3.440912
260.3824,3.436597
260.2250,3.436620
260.2220,3.432306
260.0808,3.430296
260.0794,3.428266
259.9383,3.426002
259.9355,3.421942
259.7770,3.419680
259.7756,3.417650
259.6350,3.415640
259.6320,3.411326
259.4915,3.409316
259.4899,3.407032
259.3322,3.405025
259.3293,3.400710
259.1891,3.398700
259.1861,3.394386
259.0461,3.392376
259.0447,3.390346
258.8874,3.388085
258.8860,3.386055
258.7463,3.384045
258.7434,3.379730
258.6038,3.377721
258.6022,3.375437
258.4456,3.373429
258.4442,3.371399
258.3048,3.369135
258.3034,3.367105
258.1642,3.364841
258.1628,3.362811
258.0067,3.360804
258.0052,3.358520
257.7278,3.354500
257.7263,3.352216
257.4324,3.348198
257.4308,3.345914
256.7074,3.335616
256.7059,3.333332
256.5699,3.333352
256.5685,3.331322
256.4327,3.331342
256.4313,3.329312
256.1402,3.325041
256.1389,3.323011
256.0035,3.323031
256.0019,3.320747
255.8484,3.318740
255.8471,3.316709
255.5742,3.312436
255.5728,3.310406
255.4365,3.308142
255.4352,3.306112
255.1463,3.301841
255.1450,3.299810
255.0093,3.297800
255.0078,3.295516
254.8554,3.293509
254.8541,3.291479
254.7185,3.289215
254.7172,3.287185
254.5820,3.285175
254.5805,3.282891
254.4287,3.280883
254.4258,3.276569
254.2922,3.276590
254.2894,3.272275
254.1546,3.270265
254.1532,3.268235
254.0018,3.265974
254.0005,3.263944
253.8660,3.261934
253.8631,3.257620
253.7288,3.255610
253.7273,3.253326
253.5765,3.251318
253.5752,3.249288
253.4410,3.247024
253.4397,3.244994
253.3058,3.242984
253.3043,3.240700
253.1540,3.238693
253.1512,3.234378
253.0176,3.232368
253.0163,3.230338
252.8827,3.228075
252.8813,3.226044
252.7315,3.224037
252.7301,3.221753
252.5969,3.219743
252.5956,3.217713
252.4624,3.215449
252.4598,3.211389
252.3104,3.209127
252.3090,3.207097
252.1763,3.205087
252.1736,3.200773
252.0410,3.198763
252.0382,3.194449
251.8894,3.192441
251.8879,3.190157
251.7557,3.188147
251.7529,3.183833
251.6208,3.181823
251.6193,3.179539
251.4710,3.177532
251.4682,3.173218
251.3364,3.171208
251.3351,3.169177
251.2033,3.166914
251.2020,3.164884
251.0542,3.162876
251.0527,3.160592
250.7901,3.156572
250.7873,3.152258
250.6562,3.150248
250.5104,3.150271
250.5089,3.147987
250.3794,3.148007
250.3768,3.143947
250.2460,3.141683
250.2447,3.139653
250.0980,3.137645
250.0965,3.135361
249.8385,3.135402
249.8372,3.133372
249.6910,3.131364
249.6895,3.129080
249.5596,3.127070
249.4310,3.127091
249.0262,3.120810
248.8822,3.120833
248.6240,3.116559
248.4804,3.116582
248.3517,3.114572
248.2244,3.114592
248.0801,3.112585
246.8944,3.112775
246.7698,3.114826
246.6442,3.114846
246.5042,3.116899
246.3788,3.116919
246.2549,3.119224
246.1297,3.119244
245.9903,3.121297
245.8667,3.123348
245.8654,3.121317
245.7419,3.123368
245.4799,3.127725
245.3567,3.129776
245.3555,3.127746
245.2184,3.132083
245.2170,3.129799
245.0955,3.134133
245.0943,3.132103
244.9728,3.136184
244.9715,3.134153
244.8348,3.138491
244.8334,3.136207
244.7123,3.140541
244.7111,3.138511
244.5900,3.142592
244.5887,3.140561
244.4525,3.144898
244.4511,3.142614
244.3304,3.146949
244.3291,3.144919
244.2098,3.151284
244.2072,3.146969
244.0725,3.153337
244.0713,3.151306
243.9508,3.155387
243.9496,3.153357
243.8294,3.157691
243.8280,3.155407
243.6938,3.161775
243.6913,3.157714
243.5726,3.164079
243.5712,3.161795
243.4514,3.166130
243.4502,3.164099
243.3164,3.170467
243.3138,3.166152
243.1954,3.172517
243.1942,3.170487
243.0746,3.174568
243.0733,3.172538
242.9400,3.178905
242.9387,3.176875
242.8194,3.180955
242.8182,3.178925
242.7003,3.185290
242.6977,3.180976
242.5661,3.189627
242.5635,3.185313
242.4459,3.191678
242.4447,3.189647
242.3271,3.196012
242.3259,3.193982
242.1934,3.200349
242.1908,3.196035
242.0747,3.204430
242.0723,3.200370
241.9563,3.208765
241.9551,3.206734
241.8381,3.213099
241.8355,3.208785
241.7047,3.217182
241.7023,3.213122
241.5867,3.221517
241.5855,3.219487
241.4688,3.225852
241.4674,3.223568
241.3372,3.232219
241.3346,3.227905
241.2207,3.238584
241.2182,3.234269
241.1030,3.242664
241.1006,3.238604
240.9718,3.249032
240.9694,3.244971
240.8557,3.255397
240.8533,3.251336
240.7385,3.259731
240.7373,3.257701
240.6077,3.266098
240.6052,3.261784
240.4919,3.272463
240.4894,3.268149
240.3763,3.278828
240.3738,3.274514
240.2459,3.285195
240.2435,3.281135
240.1305,3.291560
240.1281,3.287500
240.0152,3.297925
240.0128,3.293864
239.8865,3.306576
239.8828,3.300232
239.7714,3.312941
239.7689,3.308627
239.6565,3.319306
239.6539,3.314991
239.5280,3.327703
239.5243,3.321359
239.4145,3.336098
239.4108,3.329754
239.2999,3.342463
239.2975,3.338403
239.1731,3.353145
239.1682,3.344770
239.0599,3.361540
239.0562,3.355195
238.9470,3.370188
238.9433,3.363844
238.8193,3.378586
238.8144,3.370211
238.7077,3.389265
238.7029,3.380890
238.5950,3.397660
238.5901,3.389285
238.4690,3.408342
238.4641,3.399967
238.3564,3.416737
238.3528,3.410392
238.2453,3.427416
238.2405,3.419041
238.1184,3.435813
238.1147,3.429469
238.0075,3.446492
238.0027,3.438118
237.8967,3.457171
237.8917,3.448543
237.7860,3.467850
237.7799,3.457192
237.6607,3.478278
237.6559,3.469903
237.5539,3.495302
237.5455,3.480582
237.4399,3.499636
237.4386,3.497352
237.3126,3.506004
237.3102,3.501689
237.2060,3.522773
237.1976,3.508054
237.0960,3.533452
237.0912,3.525078
236.9715,3.544134
236.9666,3.535505
236.8629,3.556843
236.8568,3.546184
236.7531,3.567522
236.7482,3.558894
236.6289,3.577950
236.6242,3.569575
236.5206,3.590659
236.5147,3.580254
236.4123,3.603368
236.4064,3.592963
236.2911,3.618364
236.2839,3.605675
236.1817,3.628790
236.1758,3.618385
236.0751,3.643783
236.0679,3.631094
235.9540,3.658525
235.9469,3.645836
235.8476,3.673518
235.8404,3.660829
235.7411,3.688258
235.7339,3.675569
235.6204,3.703000
235.6132,3.690311
235.5143,3.717993
235.5058,3.703020
235.4069,3.730702
235.3998,3.718013
235.2866,3.745444
235.2794,3.732755
235.1807,3.760437
235.1723,3.745465
235.0737,3.773147
235.0677,3.762488
234.9525,3.785859
234.9465,3.775200
234.8457,3.798568
234.8397,3.787909
234.7377,3.808993
234.7330,3.800618
234.6157,3.819675
234.6110,3.811300
234.5092,3.832384
234.5033,3.821725
234.4028,3.845093
234.3970,3.834688
234.2812,3.855775
234.2765,3.847400
234.1750,3.868484
234.1690,3.857825
234.0689,3.881193
234.0629,3.870535
233.9628,3.893903
233.9569,3.883244
233.8439,3.908645
233.8369,3.895956
233.7383,3.921608
233.7324,3.910949
233.6348,3.938377
233.6266,3.923658
233.5151,3.951089
233.5093,3.940684
233.4120,3.968113
233.4038,3.953393
233.3054,3.978792
233.3007,3.970163
233.1907,3.999878
233.1802,3.980845
233.0855,4.012587
233.0796,4.001929
232.9792,4.023267
232.9746,4.014892
232.8613,4.038009
232.8543,4.025320
232.7564,4.050718
232.7507,4.040313
232.6505,4.061397
232.6446,4.050738
232.5318,4.074109
232.5259,4.063450
232.4271,4.086818
232.4213,4.076159
232.3226,4.099527
232.3156,4.086838
232.2043,4.112239
232.1973,4.099550
232.0999,4.124948
232.0930,4.112259
231.9957,4.137657
231.9887,4.124969
231.8765,4.148339
231.8707,4.137680
231.7725,4.161048
231.7667,4.150390
231.6674,4.171727
231.6627,4.163099
231.5485,4.182155
231.5439,4.173780
231.4449,4.195118
231.4391,4.184459
231.3400,4.205543
231.3355,4.197169
231.2215,4.216225
231.2170,4.207850
231.1181,4.228934
231.1112,4.216245
231.0147,4.241644
231.0089,4.230985
230.8966,4.252325
230.8919,4.243697
230.7934,4.265034
230.7877,4.254376
230.6891,4.275460
230.6846,4.267085
230.5726,4.288425
230.5668,4.277766
230.4685,4.298850
230.4628,4.288446
230.3657,4.311560
230.3601,4.301155
230.2630,4.324269
230.2574,4.313864
230.1467,4.336981
230.1399,4.324292
230.0431,4.347660
230.0386,4.339285
229.9407,4.360369
229.9350,4.349710
229.8248,4.373081
229.8191,4.362422
229.7238,4.388074
229.7158,4.373101
229.6217,4.400783
229.6149,4.388094
229.5061,4.413495
229.4993,4.400806
229.4042,4.426204
229.3984,4.415546
229.3034,4.440944
229.2966,4.428255
229.1892,4.455686
229.1824,4.442997
229.0877,4.468649
229.0820,4.457990
228.9872,4.483389
228.9804,4.470700
228.8722,4.496100
228.8665,4.485442
228.7732,4.513124
228.7652,4.498151
228.6730,4.527863
228.6651,4.513144
228.5583,4.540575
228.5516,4.527886
228.4584,4.555568
228.4516,4.542626
228.3585,4.570308
228.3518,4.557619
228.2452,4.585050
228.2385,4.572361
228.1456,4.600043
228.1389,4.587354
##END=
