##TITLE=1-Naphthalenol
##JCAMP-DX=4.24
##DATA TYPE=UV/VIS SPECTRUM
##ORIGIN=INSTITUTE OF ENERGY PROBLEMS OF CHEMICAL PHYSICS, RAS
##OWNER=INEP CP RAS, NIST OSRD
Collection (C) 2007 copyright by the U.S. Secretary of Commerce
on behalf of the United States of America. All rights reserved.
##CAS REGISTRY NO=90-15-3
##MOLFORM=C10H8O
##MP=95
##BP=288; 185(40)
##SOURCE REFERENCE=RAS UV No. 535
##$NIST SQUIB=1946EWI/STE2181-2187
##$NIST SOURCE=TSGMTE
##SPECTROMETER/DATA SYSTEM=Beckman DU
##XUNITS=Wavelength (nm)
##YUNITS=Logarithm epsilon
##XFACTOR=1.000000
##YFACTOR=1.000000
##FIRSTX=220.0000
##LASTX=369.0000
##FIRSTY=4.30001
##MAXX=369
##MINX=220
##MAXY=4.38
##MINY=2.66
##NPOINTS=150
##$REF AUTHOR=Ewing, G.W.; Steck, E.a.
##$REF TITLE=Absorption spectra of heterocyclic compounds. I. Quinolinols and isoquinolinols
##$REF JOURNAL=J. Am. Chem. Soc.
##$REF VOLUME=68
##$REF PAGE=2181-2187
##$REF DATE=1946
##XYPOINTS=(XY..XY)
220.0000,4.300008
221.0000,4.280000
222.0000,4.250000
223.0000,4.210000
224.0000,4.180000
225.0000,4.140000
226.0000,4.110000
227.0000,4.090000
228.0000,4.090000
229.0000,4.090000
230.0000,4.090011
231.0000,4.080000
232.0000,4.090000
233.0000,4.110000
234.0000,4.130000
235.0000,4.170000
236.0000,4.180000
237.0000,4.240000
238.0000,4.260000
239.0000,4.300000
240.0000,4.340008
241.0000,4.370000
242.0000,4.370000
243.0000,4.370000
244.0000,4.380000
245.0000,4.380000
246.0000,4.380000
247.0000,4.380000
248.0000,4.370000
249.0000,4.320000
250.0000,4.289990
251.0000,4.220000
252.0000,4.110000
253.0000,3.990000
254.0000,3.930000
255.0000,3.770000
256.0000,3.560000
257.0000,3.490000
258.0000,3.330000
259.0000,3.150000
260.0000,3.099991
261.0000,3.060000
262.0000,3.000000
263.0000,2.960000
264.0000,2.940000
265.0000,2.910000
266.0000,2.890000
267.0000,2.870000
268.0000,2.850000
269.0000,2.850000
270.0000,2.850003
271.0000,2.870000
272.0000,2.880000
273.0000,2.890000
274.0000,2.910000
275.0000,2.930000
276.0000,2.940000
277.0000,2.960000
278.0000,2.980000
279.0000,3.000000
280.0000,3.029992
281.0000,3.040000
282.0000,3.050000
283.0000,3.090000
284.0000,3.110000
285.0000,3.140000
286.0000,3.160000
287.0000,3.190000
288.0000,3.210000
289.0000,3.240000
290.0000,3.260000
291.0000,3.280000
292.0000,3.300000
293.0000,3.330000
294.0000,3.350000
295.0000,3.360000
296.0000,3.380000
297.0000,3.410000
298.0000,3.420000
299.0000,3.450000
300.0000,3.480007
301.0000,3.500000
302.0000,3.540000
303.0000,3.540000
304.0000,3.560000
305.0000,3.580000
306.0000,3.600000
307.0000,3.620000
308.0000,3.640000
309.0000,3.650000
310.0000,3.670005
311.0000,3.680000
312.0000,3.690000
313.0000,3.700000
314.0000,3.720000
315.0000,3.730000
316.0000,3.740000
317.0000,3.750000
318.0000,3.760000
319.0000,3.770000
320.0000,3.780000
321.0000,3.790000
322.0000,3.790000
323.0000,3.800000
324.0000,3.810000
325.0000,3.820000
326.0000,3.830000
327.0000,3.830000
328.0000,3.840000
329.0000,3.840000
330.0000,3.850003
331.0000,3.850000
332.0000,3.850000
333.0000,3.850000
334.0000,3.850000
335.0000,3.840000
336.0000,3.830000
337.0000,3.810000
338.0000,3.800000
339.0000,3.780000
340.0000,3.749999
341.0000,3.710000
342.0000,3.680000
343.0000,3.640000
344.0000,3.620000
345.0000,3.590000
346.0000,3.550000
347.0000,3.530000
348.0000,3.500000
349.0000,3.460000
350.0000,3.420005
351.0000,3.380000
352.0000,3.350000
353.0000,3.310000
354.0000,3.270000
355.0000,3.240000
356.0000,3.200000
357.0000,3.160000
358.0000,3.100000
359.0000,3.080000
360.0000,3.029992
361.0000,2.990000
362.0000,2.940000
363.0000,2.910000
364.0000,2.870000
365.0000,2.840000
366.0000,2.800000
367.0000,2.750000
368.0000,2.700000
369.0000,2.660000
##END=
