##TITLE=Naphthalene, 1-methyl-
##JCAMP-DX=4.24
##DATA TYPE=UV/VIS SPECTRUM
##ORIGIN=INSTITUTE OF ENERGY PROBLEMS OF CHEMICAL PHYSICS, RAS
##OWNER=INEP CP RAS, NIST OSRD
Collection (C) 2007 copyright by the U.S. Secretary of Commerce
on behalf of the United States of America. All rights reserved.
##CAS REGISTRY NO=90-12-0
##MOLFORM=C11H10
##MP=-30.4
##BP=244.7
##SOURCE REFERENCE=RAS UV No. 580
##$NIST SQUIB=1951ADA/RIC129-133
##$NIST SOURCE=TSGMTE
##SPECTROMETER/DATA SYSTEM=Beckman DU
##XUNITS=Wavelength (nm)
##YUNITS=Logarithm epsilon
##XFACTOR=1.000000
##YFACTOR=1.000000
##FIRSTX=300.3627
##LASTX=324.7324
##FIRSTY=2.80166
##MAXX=324.732
##MINX=300.363
##MAXY=2.80166
##MINY=0.081275
##NPOINTS=206
##$REF AUTHOR=Adams, N.G.; Richardson, D.M.
##$REF TITLE=Aromatic hydrocarbons in some diesel fuel fractions. Ultraviolet spectrometric identification
##$REF JOURNAL=Anal. Chem.
##$REF VOLUME=23
##$REF NUMBER=1
##$REF PAGE=129-133
##$REF DATE=1951
##XYPOINTS=(XY..XY)
300.3627,2.801664
300.4247,2.767128
300.4866,2.732747
300.5484,2.698681
300.5484,2.698681
300.6982,2.645094
300.8481,2.591506
300.9979,2.537918
300.9979,2.537918
301.0794,2.533740
301.1546,2.529715
301.2266,2.526004
301.2266,2.526004
301.2547,2.499402
301.2765,2.473111
301.2952,2.446976
301.2952,2.446976
301.4241,2.410529
301.5466,2.374395
301.6660,2.338415
301.6660,2.338415
301.8743,2.290993
302.0410,2.254064
302.2049,2.219683
302.4050,2.179904
302.6804,2.126782
303.0701,2.052370
303.0701,2.052370
303.1553,2.048192
303.2373,2.044171
303.3129,2.040461
303.3129,2.040461
303.3138,2.034318
303.3147,2.028488
303.3156,2.022816
303.6585,2.005298
303.6872,1.974958
303.7096,1.944615
303.7289,1.914271
303.7289,1.914271
303.8164,1.894566
303.9007,1.875017
303.9787,1.855780
303.9787,1.855780
304.1524,1.802706
304.3092,1.756226
304.4546,1.714142
304.5944,1.674257
304.7342,1.634371
304.8797,1.592288
305.0364,1.545808
305.2101,1.492734
305.2101,1.492734
305.4118,1.442412
305.6107,1.392090
305.8076,1.341765
306.0031,1.291442
306.1979,1.241118
306.1979,1.241118
306.2807,1.228444
306.3572,1.215767
306.4305,1.203090
306.4305,1.203090
306.5736,1.190438
306.7137,1.177785
306.8473,1.165129
306.8473,1.165129
307.0896,1.153248
307.3287,1.141519
307.5615,1.130105
307.5615,1.130105
307.7033,1.126131
307.8420,1.122471
307.9743,1.118965
307.9743,1.118965
308.0168,1.115660
308.0561,1.112669
308.0891,1.109832
308.0891,1.109832
308.2560,1.103752
308.4165,1.097982
308.5738,1.092366
308.5738,1.092366
308.7770,1.078221
308.9960,1.064394
309.1612,1.051646
309.1612,1.051646
309.3183,1.043944
309.4754,1.036238
309.6325,1.028531
309.6325,1.028531
309.6613,1.022399
309.6868,1.016578
309.7061,1.010914
309.7061,1.010914
309.7876,1.006736
309.8627,1.002710
309.9347,0.999000
309.9347,0.999000
310.0428,0.975197
310.1924,0.947649
310.3006,0.922907
310.3006,0.922907
310.3853,0.921733
310.4668,0.920874
310.5420,0.920170
310.5420,0.920170
310.7362,0.896719
310.9589,0.871859
311.1915,0.844185
311.1915,0.844185
311.3910,0.837228
311.5905,0.830428
311.7900,0.823937
311.7900,0.823937
311.9714,0.829104
312.1212,0.835196
312.3677,0.847449
312.3677,0.847449
312.5438,0.863721
312.6665,0.878407
312.8412,0.904088
312.8412,0.904088
312.9394,0.910976
313.0376,0.917548
313.1359,0.923964
313.1359,0.923964
313.1593,0.928913
313.1764,0.933862
313.1904,0.938805
313.1904,0.938805
313.3601,0.958922
313.5085,0.974166
313.7628,0.997605
313.7628,0.997605
313.8470,0.999752
313.9281,1.001902
314.0029,1.004046
314.0029,1.004046
314.0837,1.004076
314.1583,1.004106
314.2297,1.004132
314.2297,1.004132
314.4326,0.974590
314.6355,0.945203
314.8384,0.916127
314.8384,0.916127
315.0824,0.861803
315.2775,0.818688
315.4436,0.782680
315.6007,0.749659
315.7686,0.715519
315.9671,0.676145
316.2162,0.627427
316.5358,0.565257
316.5358,0.565257
317.0622,0.497538
317.3729,0.460326
317.7342,0.421719
317.7342,0.421719
317.8013,0.418914
317.8621,0.416108
317.9197,0.413317
317.9197,0.413317
318.8823,0.332762
319.2548,0.300139
319.3564,0.287511
319.3564,0.287511
319.4379,0.283505
319.5130,0.279827
319.5850,0.276301
319.5850,0.276301
319.6101,0.270166
319.6288,0.264346
319.6443,0.258661
319.6443,0.258661
319.7690,0.250469
319.8873,0.242566
320.0024,0.234796
320.0024,0.234796
320.0457,0.225852
320.0859,0.217221
320.3089,0.176323
320.5235,0.163698
320.7380,0.151094
320.9526,0.138461
320.9526,0.138461
321.4642,0.126586
321.7260,0.121396
321.9622,0.118364
321.9622,0.118364
322.0474,0.114377
322.1293,0.110691
322.2049,0.107176
322.2049,0.107176
322.4603,0.106055
322.7156,0.105272
322.9709,0.104624
322.9709,0.104624
323.2646,0.099853
323.6622,0.095413
324.5046,0.087568
324.5046,0.087568
324.5858,0.085469
324.6607,0.083395
324.7324,0.081275
##END=
