##TITLE=Anthrone
##JCAMP-DX=4.24
##DATA TYPE=UV/VIS SPECTRUM
##ORIGIN=INSTITUTE OF ENERGY PROBLEMS OF CHEMICAL PHYSICS, RAS
##OWNER=INEP CP RAS, NIST OSRD
Collection (C) 2007 copyright by the U.S. Secretary of Commerce
on behalf of the United States of America. All rights reserved.
##CAS REGISTRY NO=90-44-8
##MOLFORM=C14H10O
##MP=155
##SOURCE REFERENCE=RAS UV No. 20223
##$NIST SQUIB=1969BOL/276
##$NIST SOURCE=TYUGLMTE
##SPECTROMETER/DATA SYSTEM=unknown
##XUNITS=Wavelength (nm)
##YUNITS=Logarithm epsilon
##XFACTOR=1.0
##YFACTOR=1.0
##FIRSTX=213.21
##LASTX=356.04
##FIRSTY=4.382
##MAXX=356.04
##MINX=213.21
##MAXY=4.391
##MINY=1.891
##NPOINTS=141
##$REF AUTHOR=Bolshakov, G.F.; et al.
##$REF JOURNAL=Ultraviolet Spectra of Heteroorganic Compounds
##$REF PAGE=276
##$REF DATE=1969
##XYPOINTS=(XY..XY)
213.21,4.382
214.37,4.361
215.52,4.336
216.68,4.315
217.83,4.290
218.99,4.264
219.92,4.241
220.97,4.214
221.96,4.189
223.12,4.163
224.11,4.138
225.10,4.113
226.00,4.086
227.08,4.054
228.05,4.024
229.06,3.999
229.92,3.973
230.88,3.945
231.87,3.915
232.69,3.890
233.85,3.865
235.17,3.844
236.66,3.839
238.14,3.839
239.30,3.860
240.45,3.886
241.44,3.915
242.11,3.949
242.60,3.982
243.26,4.016
243.76,4.050
244.42,4.083
245.08,4.117
245.74,4.151
246.73,4.176
248.05,4.197
249.54,4.205
250.86,4.222
252.09,4.243
252.84,4.273
253.50,4.306
253.99,4.344
254.82,4.378
256.14,4.391
257.63,4.378
258.62,4.353
259.77,4.332
261.09,4.315
262.58,4.302
264.07,4.302
265.55,4.302
267.04,4.294
268.52,4.281
269.85,4.264
271.17,4.252
272.49,4.231
273.64,4.210
274.80,4.184
275.95,4.163
276.95,4.138
277.94,4.113
278.93,4.088
279.92,4.062
280.75,4.038
281.72,4.011
282.68,3.978
283.64,3.949
284.71,3.915
285.70,3.890
286.69,3.865
287.84,3.839
289.00,3.814
290.32,3.793
291.48,3.768
292.80,3.747
294.12,3.726
295.44,3.709
296.81,3.694
298.25,3.684
299.70,3.671
301.05,3.658
302.37,3.642
303.69,3.625
305.02,3.608
306.17,3.587
307.46,3.563
308.65,3.541
309.80,3.515
310.79,3.490
311.79,3.465
312.78,3.435
313.77,3.406
314.73,3.376
315.58,3.347
316.53,3.314
317.23,3.288
318.08,3.259
318.89,3.225
319.55,3.191
320.21,3.158
320.87,3.124
321.53,3.090
322.52,3.044
323.34,3.015
324.01,2.980
324.66,2.947
325.33,2.914
325.99,2.880
326.65,2.846
327.47,2.813
328.13,2.779
328.96,2.745
329.78,2.712
330.44,2.678
331.10,2.644
331.93,2.611
332.76,2.581
333.58,2.548
334.24,2.514
334.90,2.480
335.66,2.450
336.31,2.421
337.21,2.388
338.02,2.358
339.01,2.325
340.02,2.291
340.85,2.262
341.65,2.230
342.66,2.198
343.65,2.169
344.64,2.140
345.80,2.114
346.79,2.089
347.78,2.064
348.94,2.039
350.09,2.013
351.25,1.988
352.40,1.964
353.56,1.938
354.72,1.912
356.04,1.891
##END=
