##TITLE=[1,1'-Biphenyl]-2-amine
##JCAMP-DX=4.24
##DATA TYPE=UV/VIS SPECTRUM
##ORIGIN=INSTITUTE OF ENERGY PROBLEMS OF CHEMICAL PHYSICS, RAS
##OWNER=INEP CP RAS, NIST OSRD
Collection (C) 2007 copyright by the U.S. Secretary of Commerce
on behalf of the United States of America. All rights reserved.
##CAS REGISTRY NO=90-41-5
##MOLFORM=C12H11N
##MP=51
##BP=299
##SOURCE REFERENCE=RAS UV No. 3815
##$NIST SQUIB=1955GRA59-61
##$NIST SOURCE=TSGMTE
##SPECTROMETER/DATA SYSTEM=n.i.g.
##XUNITS=Wavelength (nm)
##YUNITS=Logarithm epsilon
##XFACTOR=1.000000
##YFACTOR=1.000000
##FIRSTX=359.1330
##LASTX=222.8045
##FIRSTY=1.06805
##MAXX=359.133
##MINX=222.804
##MAXY=4.28587
##MINY=1.06805
##NPOINTS=158
##$REF AUTHOR=Grammaticakis, P.
##$REF TITLE=Remarques sur l'absorption des derives du diphenyle dans l'ultraviolet moyen et le visible
##$REF JOURNAL=Compt. Rend.
##$REF VOLUME=241
##$REF PAGE=59-61
##$REF DATE=1955
##XYPOINTS=(XY..XY)
359.1330,1.068048
358.6158,1.105006
358.0530,1.141644
357.4599,1.178030
356.8516,1.214226
356.2430,1.250291
355.6489,1.286290
355.0838,1.322288
354.5620,1.358344
354.0978,1.394522
353.7053,1.430886
353.7053,1.430886
352.9284,1.462605
351.8746,1.518957
350.9636,1.559651
350.9636,1.559651
349.6165,1.650031
348.4127,1.731412
347.3422,1.804302
346.3956,1.869205
345.5638,1.926628
344.8383,1.977079
344.2107,2.021063
343.6730,2.059085
343.2176,2.091653
342.8367,2.119273
342.5230,2.142452
342.2693,2.161694
342.0683,2.177507
341.9131,2.190398
341.7966,2.200871
341.7118,2.209434
341.6518,2.216593
341.6098,2.222854
341.5789,2.228723
341.5521,2.234708
341.5521,2.234708
341.2079,2.244962
340.8455,2.255218
340.4745,2.265476
340.4745,2.265476
339.1054,2.363240
338.0757,2.436878
337.3239,2.490027
336.7910,2.526320
336.4197,2.549393
336.1538,2.562879
335.9377,2.570414
335.7163,2.575632
335.7163,2.575632
335.4681,2.588560
335.2293,2.600553
334.9713,2.612637
334.6661,2.625841
334.2855,2.641191
333.8021,2.659714
333.1884,2.682438
332.4182,2.710390
331.4656,2.744597
330.3065,2.786087
328.9177,2.835886
327.2781,2.895022
325.3686,2.964522
323.1723,3.045413
323.1723,3.045413
322.6343,3.061366
321.6372,3.097066
320.3593,3.144054
318.9761,3.193871
317.6573,3.238057
317.6573,3.238057
316.4017,3.263339
314.9703,3.294947
313.0350,3.336003
310.2872,3.389632
310.2872,3.389632
308.1847,3.421319
306.2703,3.446085
304.3680,3.464314
302.3103,3.476392
299.9394,3.482704
297.1090,3.483635
297.1090,3.483635
295.6999,3.469262
293.0696,3.445905
289.5723,3.409691
289.5723,3.409691
288.1139,3.386113
286.7506,3.361512
285.4517,3.336237
284.1879,3.310639
282.9307,3.285067
281.6527,3.259873
280.3274,3.235405
278.9295,3.212013
277.4348,3.190049
275.8203,3.169862
275.8203,3.169862
273.9890,3.175136
272.8282,3.186133
271.4746,3.209949
271.4746,3.209949
270.1500,3.249384
268.8818,3.288015
267.6779,3.325420
266.5465,3.361174
265.4951,3.394855
264.5314,3.426038
263.6627,3.454300
262.8966,3.479218
262.2405,3.500368
261.7018,3.517326
261.2933,3.540417
261.2933,3.540417
261.2917,3.537033
261.2901,3.533411
261.2883,3.529670
261.2883,3.529670
260.0668,3.564921
258.8034,3.588167
257.5105,3.610314
256.1950,3.631522
254.8636,3.651953
253.5230,3.671763
252.1794,3.691117
250.8388,3.710172
249.5070,3.729088
248.1895,3.748026
246.8916,3.767147
245.6184,3.786610
244.3748,3.806575
244.3748,3.806575
243.2291,3.829520
242.0967,3.852964
240.9794,3.876849
239.8793,3.901118
238.7982,3.925711
237.7379,3.950571
236.7002,3.975640
235.6867,4.000860
234.6991,4.026172
234.6991,4.026172
231.8294,4.091340
229.7138,4.140314
228.2105,4.175409
227.1951,4.198939
226.5540,4.213220
226.1806,4.220567
225.9719,4.223294
225.8310,4.235001
225.8310,4.235001
225.8297,4.231240
225.8284,4.227479
225.8271,4.223717
225.8271,4.223717
225.4702,4.236957
224.6802,4.250144
222.8045,4.285867
##END=
