##TITLE=Xanthone
##JCAMP-DX=4.24
##DATA TYPE=UV/VIS SPECTRUM
##ORIGIN=INSTITUTE OF ENERGY PROBLEMS OF CHEMICAL PHYSICS, RAS
##OWNER=INEP CP RAS, NIST OSRD
Collection (C) 2007 copyright by the U.S. Secretary of Commerce
on behalf of the United States of America. All rights reserved.
##CAS REGISTRY NO=90-47-1
##MOLFORM=C13H8O2
##MP=174
##BP=351; 142(3)
##SOURCE REFERENCE=RAS UV No. 1867
##$NIST SQUIB=1960DAV/FRE191-195
##$NIST SOURCE=TSGMTE
##SPECTROMETER/DATA SYSTEM=Unicam SP 500
##XUNITS=Wavelength (nm)
##YUNITS=Logarithm epsilon
##XFACTOR=1.000000
##YFACTOR=1.000000
##FIRSTX=225.5448
##LASTX=349.2122
##FIRSTY=4.50884
##MAXX=349.212
##MINX=225.545
##MAXY=4.68461
##MINY=2.26946
##NPOINTS=359
##$REF AUTHOR=Davidson, J.M.; French, C.M.
##$REF TITLE=The synthesis and structure of aromatic boron compounds
##$REF JOURNAL=J. Chem. Soc.
##$REF PAGE=191-195
##$REF DATE=1960
##XYPOINTS=(XY..XY)
225.5448,4.508836
226.0561,4.529962
226.0561,4.536723
227.9376,4.600101
228.1012,4.600101
228.2648,4.606862
228.4284,4.606862
228.4284,4.614467
228.7761,4.614467
228.7761,4.621228
228.9397,4.621228
229.1238,4.627988
229.9623,4.642354
230.3099,4.642354
230.4735,4.649114
230.6372,4.649114
230.8212,4.655875
230.9848,4.655875
231.8438,4.663480
232.1710,4.663480
232.3550,4.670240
233.0299,4.670240
234.2161,4.677001
234.3797,4.684606
235.7499,4.684606
236.9361,4.677001
237.2633,4.670240
237.2633,4.677001
237.7746,4.670240
237.9586,4.663480
239.1448,4.635593
239.1448,4.642354
239.4720,4.614467
239.4720,4.621228
240.8422,4.557849
240.8422,4.565454
241.3535,4.529962
241.3535,4.536723
242.3760,4.494470
242.7033,4.480950
242.8669,4.474189
242.8669,4.480950
243.0509,4.459823
243.0509,4.474189
244.2371,4.410810
244.2371,4.417571
244.4007,4.403205
245.7709,4.340671
245.9345,4.326306
245.9345,4.333066
246.0981,4.319545
246.0981,4.326306
246.2822,4.312785
247.1207,4.256167
247.1207,4.270532
247.2843,4.249406
247.2843,4.256167
247.4683,4.241801
247.4683,4.249406
247.6320,4.228280
247.6320,4.235040
247.7956,4.228280
247.9796,4.221520
248.8181,4.158141
248.8181,4.171662
250.1883,4.101523
250.3519,4.094762
250.5155,4.094762
250.6996,4.088002
251.0268,4.088002
251.1904,4.080397
251.3745,4.080397
251.5381,4.073636
251.7017,4.073636
252.0494,4.073636
253.2355,4.109128
253.5832,4.109128
253.7468,4.115889
254.7694,4.143775
255.4442,4.143775
255.6079,4.137015
255.7919,4.137015
255.9555,4.143775
256.1191,4.143775
256.9781,4.171662
257.6530,4.171662
260.3729,4.066876
260.5366,4.066876
260.7206,4.059270
262.0704,4.003497
262.0704,4.010258
262.2340,3.996737
263.2565,3.926598
263.2565,3.940119
264.1155,3.848853
264.2791,3.835333
264.2791,3.842093
264.4427,3.814206
264.4427,3.835333
265.3016,3.744067
265.3016,3.750828
265.4653,3.736462
265.9765,3.687449
266.1401,3.666323
266.1401,3.680689
266.9991,3.589423
266.9991,3.603789
267.1627,3.575058
267.1627,3.582663
267.3467,3.568297
268.1852,3.519284
268.5329,3.504919
269.7191,3.470272
270.7416,3.470272
272.0914,3.462666
272.6027,3.462666
272.9503,3.434780
272.9503,3.449145
273.9524,3.392527
274.3001,3.372246
274.3001,3.379006
275.1590,3.329994
275.4863,3.315628
275.6703,3.308867
275.6703,3.315628
277.0201,3.280981
277.1837,3.280981
277.3677,3.273375
277.5314,3.273375
277.6950,3.280981
278.0426,3.280981
278.8811,3.322388
279.0652,3.329994
279.0652,3.336754
279.5765,3.379006
279.7401,3.385767
279.7401,3.392527
280.4150,3.442385
280.4150,3.449145
280.5786,3.455906
281.2739,3.512524
281.2739,3.526045
281.7852,3.553931
281.9488,3.540411
281.9488,3.547171
282.1124,3.526045
282.1124,3.533650
282.2760,3.491398
282.2760,3.519284
282.4601,3.491398
282.6237,3.483792
282.9713,3.434780
283.1349,3.413653
283.1349,3.428019
283.2985,3.400133
283.2985,3.413653
283.9939,3.336754
283.9939,3.357880
284.1575,3.315628
284.1575,3.336754
284.6688,3.245489
284.6688,3.252249
284.8324,3.224363
284.8324,3.238728
285.1800,3.119577
285.1800,3.160984
285.3436,2.929441
285.3436,2.971693
285.3436,3.028311
285.3436,3.069719
285.5073,2.880428
285.5073,2.894794
286.1821,2.845781
286.3662,2.831415
286.3662,2.838175
286.5298,2.817049
286.5298,2.831415
287.5524,2.775642
287.7160,2.775642
287.9000,2.768036
288.0636,2.768036
288.3909,2.768036
289.5975,2.789163
289.9247,2.789163
290.2723,2.803528
290.4360,2.803528
291.6221,2.852541
291.8062,2.852541
291.9698,2.859302
292.1334,2.859302
292.3174,2.866062
293.1559,2.901554
293.5036,2.915920
293.5036,2.922680
294.5057,2.978453
294.5057,2.992819
294.6898,2.992819
294.8534,2.999580
295.0170,2.999580
296.2236,3.056198
296.3872,3.056198
296.5508,3.062958
296.7144,3.062958
296.7144,3.069719
296.8985,3.069719
297.0621,3.077324
297.2257,3.077324
297.4098,3.084084
297.5734,3.084084
299.1072,3.139858
299.1072,3.147463
299.4344,3.160984
300.4570,3.203236
300.6206,3.209997
300.6206,3.217602
300.8046,3.217602
300.9682,3.224363
300.9682,3.231123
302.1544,3.273375
302.3385,3.280981
302.3385,3.287741
303.6882,3.336754
303.8518,3.336754
304.1995,3.351120
305.3857,3.400133
305.5493,3.400133
305.8969,3.413653
306.5718,3.434780
306.7559,3.442385
306.9195,3.442385
308.2693,3.491398
308.4533,3.491398
308.7805,3.504919
309.9667,3.540411
310.3144,3.553931
311.1528,3.596184
311.1528,3.603789
311.5005,3.617310
311.5005,3.624915
312.3595,3.638436
312.6867,3.631676
312.6867,3.638436
312.8707,3.631676
313.1979,3.631676
314.0569,3.645197
314.2205,3.652802
314.2205,3.659562
314.5682,3.659562
315.2431,3.695054
315.4067,3.701815
315.5703,3.701815
316.9405,3.757588
317.1041,3.765193
317.2677,3.765193
318.2903,3.799840
318.4743,3.806601
318.6379,3.806601
319.6605,3.842093
319.8241,3.848853
320.8466,3.848853
322.1964,3.835333
323.7302,3.835333
325.1004,3.835333
325.9389,3.835333
326.1025,3.827727
327.3092,3.835333
327.8000,3.835333
327.9840,3.842093
328.3113,3.842093
329.8451,3.863219
330.0087,3.869980
330.1928,3.869980
330.1928,3.877585
330.5200,3.877585
331.7061,3.926598
331.8902,3.926598
332.2174,3.940119
333.0763,3.982371
333.4240,3.996737
333.4240,4.003497
333.5876,4.010258
336.3076,4.017863
336.3076,4.031384
336.9825,3.968850
336.9825,3.982371
337.1461,3.961245
337.4938,3.869980
337.4938,3.891106
337.6574,3.856459
337.6574,3.863219
338.0050,3.786320
338.0050,3.814206
338.1687,3.771954
338.1687,3.778714
338.5163,3.680689
338.5163,3.708575
338.6799,3.659562
338.6799,3.673928
339.0276,3.575058
339.0276,3.589423
339.1912,3.553931
339.1912,3.568297
339.7025,3.455906
339.7025,3.483792
340.2138,3.372246
340.2138,3.392527
340.3774,3.343514
340.3774,3.364641
340.7250,3.273375
340.7250,3.294502
340.8886,3.245489
340.8886,3.266615
341.2363,3.203236
341.2363,3.209997
341.3999,3.175350
341.3999,3.196476
341.5635,3.168589
342.0748,3.077324
342.0748,3.090845
342.2384,3.056198
342.2384,3.069719
342.7497,2.978453
342.7497,2.992819
342.9337,2.964933
342.9337,2.978453
343.6086,2.908314
343.6086,2.922680
343.7722,2.894794
343.7722,2.901554
344.2835,2.817049
344.2835,2.831415
344.4471,2.803528
344.4471,2.817049
344.6312,2.782402
344.6312,2.795923
344.9584,2.712263
344.9584,2.740150
345.1425,2.697897
345.1425,2.712263
345.3061,2.691137
345.4697,2.642124
345.6537,2.606632
345.6537,2.634519
346.3286,2.536493
346.4922,2.515367
346.4922,2.529733
346.6558,2.501846
346.6558,2.508606
347.3512,2.438468
347.3512,2.445228
347.5148,2.424102
347.5148,2.431707
348.1897,2.368329
348.3533,2.353963
348.3533,2.360723
348.5373,2.347202
349.0486,2.290584
349.2122,2.269458
349.2122,2.283824
##END=
