##TITLE=(Z,Z)-2,2'-[2,7-naphthalenediyldi-2-hydrazinyl-1-ylidene]bis[propanoic acid], diethyl ester
##JCAMP-DX=4.24
##DATA TYPE=UV/VIS SPECTRUM
##ORIGIN=INSTITUTE OF ENERGY PROBLEMS OF CHEMICAL PHYSICS, RAS
##OWNER=INEP CP RAS, NIST OSRD
Collection (C) 2007 copyright by the U.S. Secretary of Commerce
on behalf of the United States of America. All rights reserved.
##CAS REGISTRY NO=90713-30-7
##MOLFORM=C20H24N4O4
##MP=141-142
##SOURCE REFERENCE=RAS UV No. 23003
##$NIST SQUIB=1984SAM/352
##$NIST SOURCE=TYUGLMTE
##SPECTROMETER/DATA SYSTEM=Specord
##XUNITS=Wavelength (nm)
##YUNITS=Logarithm epsilon
##XFACTOR=1.0
##YFACTOR=1.0
##FIRSTX=200.845
##LASTX=443.035
##FIRSTY=4.296
##MAXX=443.035
##MINX=200.845
##MAXY=4.563
##MINY=3.381
##NPOINTS=166
##$REF AUTHOR=Samsoniya, Sh.A.; et al.
##$REF JOURNAL=Khim. Geterosikl. Soedin.
##$REF PAGE=352
##$REF DATE=1984
##XYPOINTS=(XY..XY)
200.845,4.296
201.267,4.296
201.689,4.301
201.980,4.300
203.480,4.309
204.980,4.314
206.480,4.317
207.980,4.319
209.480,4.320
210.980,4.321
212.480,4.321
213.980,4.321
215.480,4.319
216.980,4.316
218.480,4.310
219.980,4.301
221.480,4.290
222.980,4.276
224.480,4.260
225.980,4.243
227.480,4.224
228.980,4.207
230.480,4.192
231.980,4.181
233.480,4.175
234.980,4.175
236.480,4.180
237.980,4.190
239.433,4.200
240.933,4.211
242.433,4.221
243.933,4.231
245.433,4.241
246.933,4.251
248.433,4.262
249.933,4.271
251.433,4.280
252.933,4.288
254.433,4.294
255.933,4.298
257.433,4.299
258.933,4.297
260.433,4.292
261.933,4.283
263.433,4.270
264.933,4.253
266.433,4.233
267.933,4.210
269.433,4.184
270.933,4.157
272.347,4.134
273.847,4.108
275.347,4.083
276.847,4.059
278.347,4.037
279.847,4.016
281.347,3.996
282.847,3.979
284.347,3.964
285.847,3.952
287.347,3.942
288.847,3.935
290.347,3.932
291.847,3.931
293.347,3.934
294.847,3.939
296.347,3.948
297.847,3.959
299.347,3.972
300.847,3.988
302.347,4.005
303.847,4.022
305.347,4.040
306.773,4.060
308.273,4.072
309.773,4.087
311.273,4.104
312.773,4.121
314.273,4.137
315.773,4.152
317.273,4.165
318.773,4.176
320.273,4.186
321.773,4.195
323.273,4.204
324.773,4.212
326.273,4.221
327.773,4.230
329.273,4.240
330.773,4.251
332.273,4.263
333.773,4.275
335.273,4.288
336.773,4.302
338.273,4.316
339.773,4.331
341.273,4.345
342.714,4.358
344.214,4.373
345.714,4.387
347.214,4.399
348.714,4.412
350.214,4.426
351.714,4.440
353.214,4.454
354.714,4.467
356.214,4.480
357.714,4.491
359.214,4.501
360.714,4.509
362.214,4.517
363.714,4.525
364.968,4.532
366.468,4.541
367.968,4.548
369.468,4.554
370.968,4.559
372.468,4.562
373.968,4.563
375.468,4.562
376.968,4.558
378.468,4.551
379.968,4.542
381.468,4.530
382.968,4.515
384.468,4.498
385.968,4.479
387.468,4.457
388.968,4.435
390.468,4.411
391.968,4.386
393.468,4.361
394.968,4.336
395.300,4.330
396.800,4.308
398.300,4.283
399.800,4.256
401.300,4.227
402.800,4.197
404.300,4.166
405.800,4.136
407.300,4.105
408.800,4.075
410.300,4.045
411.800,4.016
413.300,3.986
414.800,3.956
416.300,3.927
417.800,3.897
419.300,3.867
420.800,3.836
422.300,3.805
423.800,3.773
425.300,3.740
426.535,3.714
428.035,3.676
429.535,3.639
431.035,3.604
432.535,3.571
434.035,3.541
435.535,3.514
437.035,3.489
438.535,3.465
440.035,3.441
441.535,3.414
443.035,3.381
##END=
