##TITLE=(E,E)-2,2'-[2,7-naphthalenediyldi-2-hydrrazinyl-1-ylidene]bis[propanoic acid], diethyl ester
##JCAMP-DX=4.24
##DATA TYPE=UV/VIS SPECTRUM
##ORIGIN=INSTITUTE OF ENERGY PROBLEMS OF CHEMICAL PHYSICS, RAS
##OWNER=INEP CP RAS, NIST OSRD
Collection (C) 2007 copyright by the U.S. Secretary of Commerce
on behalf of the United States of America. All rights reserved.
##CAS REGISTRY NO=90713-35-2
##MOLFORM=C20H24N4O4
##MP=186-187
##SOURCE REFERENCE=RAS UV No. 23005
##$NIST SQUIB=1984SAM/352
##$NIST SOURCE=TYUGLMTE
##SPECTROMETER/DATA SYSTEM=Specord
##XUNITS=Wavelength (nm)
##YUNITS=Logarithm epsilon
##XFACTOR=1.0
##YFACTOR=1.0
##FIRSTX=201.35
##LASTX=419.383
##FIRSTY=4.31
##MAXX=419.383
##MINX=201.35
##MAXY=4.723
##MINY=3.319
##NPOINTS=150
##$REF AUTHOR=Samsoniya, Sh.A.; et al.
##$REF JOURNAL=Khim. Geterosikl. Soedin.
##$REF PAGE=352
##$REF DATE=1984
##XYPOINTS=(XY..XY)
201.350,4.310
202.850,4.322
204.350,4.340
205.850,4.358
207.350,4.376
208.850,4.391
210.350,4.401
211.850,4.408
213.350,4.409
214.850,4.405
216.350,4.397
217.850,4.386
219.350,4.372
220.850,4.357
222.350,4.341
223.850,4.326
225.350,4.313
226.850,4.302
228.350,4.295
229.850,4.291
231.350,4.291
232.850,4.294
234.445,4.306
235.945,4.315
237.445,4.324
238.945,4.334
240.445,4.346
241.945,4.358
243.445,4.368
244.945,4.375
246.445,4.379
247.945,4.377
249.445,4.372
250.945,4.362
252.445,4.351
253.945,4.338
253.950,4.339
255.450,4.326
256.950,4.320
258.450,4.315
259.950,4.310
261.450,4.302
262.950,4.290
264.450,4.274
265.950,4.255
267.450,4.233
268.950,4.210
270.450,4.187
271.950,4.165
273.450,4.146
274.950,4.130
276.450,4.119
277.950,4.114
279.450,4.113
280.950,4.118
282.450,4.127
283.950,4.140
285.450,4.156
286.950,4.174
288.450,4.192
288.922,4.199
290.422,4.221
291.922,4.241
293.422,4.261
294.922,4.280
296.422,4.300
297.922,4.320
299.422,4.339
300.922,4.359
302.422,4.378
303.922,4.396
305.422,4.412
306.922,4.428
308.422,4.441
309.922,4.454
311.422,4.464
312.922,4.474
314.422,4.482
315.922,4.490
317.422,4.499
318.922,4.508
320.422,4.518
321.922,4.529
323.422,4.543
324.922,4.558
326.422,4.574
327.922,4.590
329.422,4.605
329.446,4.607
330.946,4.621
332.446,4.637
333.946,4.654
335.446,4.669
336.946,4.682
338.446,4.693
339.946,4.702
341.446,4.709
342.946,4.714
344.446,4.718
345.946,4.721
347.446,4.722
348.946,4.723
350.446,4.722
351.946,4.721
353.446,4.717
354.946,4.712
356.446,4.704
357.946,4.692
359.446,4.677
360.946,4.658
362.446,4.635
363.946,4.609
365.446,4.581
365.505,4.579
367.005,4.553
368.505,4.524
370.005,4.494
371.505,4.463
373.005,4.430
374.505,4.397
376.005,4.364
377.505,4.330
379.005,4.296
380.505,4.262
382.005,4.227
383.505,4.192
385.005,4.157
386.505,4.122
388.005,4.087
389.505,4.051
391.005,4.015
392.505,3.980
394.005,3.944
395.383,3.913
396.883,3.876
398.383,3.839
399.883,3.802
401.383,3.764
402.883,3.728
404.383,3.691
405.883,3.655
407.383,3.619
408.883,3.582
410.383,3.545
411.883,3.507
413.383,3.469
414.883,3.430
416.383,3.391
417.883,3.354
419.383,3.319
##END=
