##TITLE=4,4'-Dichlorobenzophenone
##JCAMP-DX=4.24
##DATA TYPE=UV/VIS SPECTRUM
##ORIGIN=INSTITUTE OF ENERGY PROBLEMS OF CHEMICAL PHYSICS, RAS
##OWNER=INEP CP RAS, NIST OSRD
Collection (C) 2007 copyright by the U.S. Secretary of Commerce
on behalf of the United States of America. All rights reserved.
##CAS REGISTRY NO=90-98-2
##MOLFORM=C13H8Cl2O
##MP=147.5
##BP=353
##SOURCE REFERENCE=RAS UV No. 642
##$NIST SQUIB=1952GRU/MAR702-708
##$NIST SOURCE=TSGMTE
##SPECTROMETER/DATA SYSTEM=Beckman DU
##XUNITS=Wavelength (nm)
##YUNITS=Logarithm epsilon
##XFACTOR=1.000000
##YFACTOR=1.000000
##FIRSTX=220.6645
##LASTX=269.6815
##FIRSTY=4.70466
##MAXX=269.682
##MINX=220.665
##MAXY=5.02245
##MINY=4.33908
##NPOINTS=921
##$REF AUTHOR=Grummitt, O.; Marsh, D.; Stearns, J.A.
##$REF TITLE=Analysis and properties of bis-(p-chlorophenyl)-methylcarbinol
##$REF JOURNAL=Anal. Chem.
##$REF VOLUME=24
##$REF NUMBER=4
##$REF PAGE=702-708
##$REF DATE=1952
##XYPOINTS=(XY..XY)
220.6645,4.704656
220.6662,4.708654
220.7373,4.701907
220.7378,4.703198
220.8089,4.696529
220.8107,4.700602
220.8904,4.692407
220.8915,4.695043
220.9626,4.688246
220.9638,4.691073
221.0349,4.684045
221.0360,4.686899
221.1077,4.681162
221.1083,4.682685
221.1891,4.676890
221.1903,4.679792
221.2614,4.672750
221.2625,4.675508
221.3342,4.669790
221.3354,4.672740
221.4157,4.665405
221.4168,4.668384
221.4884,4.662395
221.4891,4.663985
221.5601,4.656501
221.5618,4.660965
221.6428,4.655051
221.6433,4.656489
221.7150,4.650514
221.7162,4.653597
221.7878,4.647399
221.7889,4.650503
221.8600,4.642781
221.8612,4.645919
221.9426,4.641284
221.9432,4.642769
222.0149,4.636601
222.0160,4.639783
222.0871,4.631866
222.0883,4.635084
222.1692,4.628804
222.1697,4.630331
222.2420,4.625528
222.2425,4.627067
222.3142,4.620670
222.3154,4.623971
222.3963,4.617527
222.3974,4.620657
222.4691,4.614165
222.4696,4.615745
222.5418,4.610776
222.5425,4.612567
222.6239,4.607560
222.6245,4.609164
222.6967,4.604119
222.6973,4.605736
222.7689,4.599015
222.7701,4.602484
222.8424,4.597361
222.8429,4.599003
222.9244,4.593836
222.9250,4.595698
222.9966,4.588609
222.9978,4.592162
223.0695,4.585226
223.0706,4.588596
223.1515,4.581601
223.1527,4.585211
223.2243,4.578162
223.2249,4.579879
223.2971,4.574480
223.2983,4.578149
223.3798,4.572727
223.3803,4.574465
223.4525,4.568998
223.4531,4.570750
223.5248,4.563461
223.5259,4.567225
223.6074,4.561663
223.6080,4.563446
223.6802,4.557837
223.6807,4.559635
223.7530,4.554204
223.7536,4.556018
223.9085,4.548459
223.9090,4.550296
223.9812,4.544514
223.9818,4.546368
224.0540,4.540533
224.0552,4.544500
224.1361,4.536750
224.1372,4.540517
224.2095,4.534603
224.2101,4.536736
224.2823,4.530769
224.2829,4.532683
224.3650,4.528831
224.3655,4.530753
224.5111,4.522739
224.5117,4.524688
224.5839,4.518552
224.5851,4.522724
224.6666,4.516559
224.6671,4.518536
224.8128,4.510291
224.8133,4.512297
224.8954,4.508259
224.8960,4.510274
224.9682,4.503929
224.9687,4.505965
225.0416,4.501869
225.0421,4.503914
225.1236,4.497473
225.1242,4.499539
225.1970,4.495382
225.1976,4.497458
225.2698,4.490922
225.2704,4.493019
225.3524,4.488797
225.3530,4.490904
225.4258,4.486398
225.4264,4.488781
225.5720,4.479945
225.5726,4.482096
225.6546,4.477495
225.6552,4.479927
225.7280,4.475304
225.7286,4.477478
225.8834,4.468405
225.8840,4.470614
226.2590,4.454254
226.2596,4.456535
226.3422,4.454234
226.4151,4.449618
226.4156,4.451923
226.4884,4.446991
226.4890,4.449600
226.8732,4.432110
226.8738,4.434809
226.9466,4.429678
226.9472,4.432092
227.0206,4.429660
227.1760,4.421989
227.1766,4.424446
227.2494,4.419499
227.2500,4.421970
227.3321,4.416993
227.3326,4.419478
227.4060,4.416974
227.5522,4.409077
227.5528,4.411608
227.6348,4.406190
227.6354,4.409055
227.7087,4.406171
227.8648,4.400989
227.9381,4.398050
227.9388,4.400970
228.0115,4.395419
228.0121,4.398031
228.0942,4.392770
228.0947,4.395397
228.1681,4.392750
228.3149,4.387073
228.3981,4.387051
228.7009,4.375809
228.7748,4.375788
228.8575,4.373016
228.9308,4.369881
228.9314,4.372995
229.0048,4.369860
229.1608,4.364224
229.2348,4.364202
229.3081,4.361003
229.3913,4.360979
229.5381,4.355228
229.6953,4.355182
229.7687,4.352277
229.9259,4.352231
229.9992,4.348942
230.1564,4.348896
230.2298,4.345948
230.6181,4.345833
230.6915,4.342864
231.1537,4.342726
231.2270,4.339364
231.3010,4.339341
232.1515,4.339084
232.2261,4.342404
232.3833,4.342357
232.4578,4.345285
232.9200,4.345147
232.9206,4.348078
233.2996,4.347965
233.3834,4.351215
233.6146,4.351147
233.6891,4.354017
233.7630,4.353995
233.8468,4.356843
233.9947,4.356800
233.9953,4.359653
234.3003,4.359565
234.3842,4.362730
234.4581,4.362709
234.4587,4.365524
234.6159,4.365479
234.7649,4.371361
234.8389,4.371340
234.9227,4.374076
234.9966,4.374056
235.0711,4.376778
235.1543,4.376755
235.2289,4.379800
235.3029,4.379780
235.3866,4.382464
235.3872,4.385154
235.5351,4.385114
235.7680,4.393354
235.7685,4.395978
235.9257,4.395936
236.0003,4.398850
236.0742,4.398831
236.2325,4.403957
236.3065,4.403937
236.3071,4.406817
236.3903,4.406796
236.3908,4.409340
236.4648,4.409321
236.6231,4.414638
236.6237,4.417137
236.6977,4.417119
236.6982,4.419603
236.7722,4.419584
237.0050,4.427202
237.0056,4.429629
237.0795,4.429611
237.0802,4.432326
237.1634,4.432306
237.1639,4.434705
237.2379,4.434687
237.3124,4.437056
237.3130,4.439725
237.3962,4.439705
237.3968,4.442064
237.4707,4.442046
237.4713,4.444393
237.6204,4.449302
237.6209,4.451610
237.7041,4.451590
237.7047,4.453886
237.7787,4.453869
237.7793,4.456437
237.8538,4.458690
237.8543,4.460948
237.9376,4.460929
237.9382,4.463456
238.0121,4.463439
238.0127,4.465673
238.0872,4.467879
238.0878,4.470366
238.2461,4.474717
238.2473,4.479330
238.3212,4.479313
238.3218,4.481467
238.4801,4.485975
238.4807,4.488096
238.6298,4.492538
238.6303,4.494628
238.7135,4.494610
238.7147,4.499017
238.7887,4.499002
238.7892,4.501060
238.8632,4.501045
238.8637,4.503094
239.0221,4.507384
239.0226,4.509403
239.0972,4.511398
239.0978,4.513649
239.1810,4.513632
239.1815,4.515622
239.2561,4.517589
239.2567,4.519808
239.3306,4.519793
239.3312,4.521755
239.4144,4.521739
239.4149,4.523693
239.4895,4.525866
239.4901,4.527801
239.5640,4.527787
239.5646,4.529714
239.6391,4.531618
239.6397,4.533766
239.7980,4.537529
239.7986,4.539648
239.8726,4.539634
239.8731,4.541509
239.9569,4.543360
239.9575,4.545451
240.0315,4.545437
240.0320,4.547288
240.1066,4.549116
240.1072,4.551180
240.2655,4.554796
240.2660,4.556607
240.3406,4.558621
240.3411,4.560416
240.4243,4.560401
240.4255,4.564192
240.4995,4.564178
240.5000,4.565951
240.5746,4.567703
240.5752,4.569680
240.7334,4.573145
240.7341,4.575098
240.8080,4.575085
240.8086,4.576813
240.8831,4.578522
240.8843,4.582158
240.9675,4.582144
240.9680,4.583844
241.0420,4.583832
241.0426,4.585526
241.1171,4.587411
241.1182,4.590765
241.2014,4.590751
241.2021,4.592626
241.2760,4.592614
241.2766,4.594274
241.3511,4.595915
241.3517,4.597563
241.4262,4.599397
241.4268,4.601032
241.5100,4.601018
241.5105,4.602646
241.5851,4.604459
241.5862,4.607684
241.6602,4.607672
241.6608,4.609476
241.7440,4.609462
241.7446,4.611060
241.8191,4.612639
241.8197,4.614422
241.9780,4.617550
241.9785,4.619117
242.0531,4.620863
242.0537,4.622419
242.1282,4.623957
242.1288,4.625695
242.2120,4.625682
242.2126,4.627220
242.2871,4.628742
242.2877,4.630461
242.3622,4.631971
242.3628,4.633488
242.4374,4.635177
242.4379,4.636682
242.5211,4.636669
242.5217,4.638170
242.5962,4.639654
242.5968,4.641330
242.6713,4.642803
242.6719,4.644282
242.7551,4.644270
242.7563,4.647397
242.8302,4.647386
242.8308,4.648850
242.9054,4.650480
242.9059,4.651933
242.9897,4.653370
242.9903,4.654994
243.0648,4.656421
243.0654,4.657855
243.1393,4.657844
243.1399,4.659273
243.2237,4.660863
243.2243,4.662283
243.2988,4.663687
243.2994,4.665272
243.3739,4.666667
243.3745,4.668067
243.4484,4.668057
243.4491,4.669627
243.5328,4.671006
243.5334,4.672392
243.6079,4.673764
243.6085,4.675314
243.6830,4.676676
243.6836,4.678045
243.7674,4.679568
243.7680,4.680927
243.8419,4.680917
243.8431,4.683792
243.9176,4.685128
243.9182,4.686470
244.0014,4.686459
244.0020,4.687964
244.0765,4.689287
244.0771,4.690617
244.1516,4.691932
244.1522,4.693418
244.2360,4.694724
244.2365,4.696037
244.3111,4.697500
244.3116,4.698804
244.3862,4.700095
244.3868,4.701554
244.4613,4.702836
244.4625,4.705570
244.5457,4.705559
244.5468,4.708117
244.6207,4.708107
244.6213,4.709380
244.6959,4.710799
244.6964,4.712064
244.7802,4.713315
244.7808,4.714730
244.8553,4.715974
244.8565,4.718627
244.9305,4.718617
244.9310,4.719860
245.0148,4.721089
245.0160,4.723711
245.0899,4.723701
245.0910,4.726154
245.1650,4.726145
245.1656,4.727519
245.2401,4.728727
245.2413,4.731303
245.3245,4.731293
245.3256,4.733704
245.4002,4.735045
245.4008,4.736242
245.4747,4.736233
245.4753,4.737426
245.5590,4.738606
245.5602,4.741125
245.6347,4.742296
245.6353,4.743619
245.7093,4.743611
245.7104,4.745954
245.7942,4.747257
245.7948,4.748420
245.8693,4.749572
245.8699,4.750874
245.9444,4.752019
245.9456,4.754318
246.0288,4.754308
246.0299,4.756737
246.1039,4.756729
246.1051,4.759144
246.1790,4.759136
246.1801,4.761397
246.2541,4.761389
246.2547,4.762656
246.3385,4.763769
246.3397,4.766146
246.4136,4.766138
246.4147,4.768363
246.4892,4.769463
246.4899,4.770707
246.5736,4.771800
246.5742,4.772900
246.6488,4.774125
246.6493,4.775219
246.7238,4.776302
246.7250,4.778611
246.8082,4.778602
246.8093,4.780765
246.8833,4.780757
246.8845,4.783042
246.9590,4.784106
246.9596,4.785308
247.0428,4.785299
247.0439,4.787429
247.1185,4.788614
247.1191,4.789672
247.1936,4.790720
247.1947,4.792954
247.2687,4.792946
247.2698,4.795038
247.3536,4.796202
247.3542,4.797242
247.4287,4.798271
247.4293,4.799435
247.5038,4.800459
247.5050,4.802644
247.5882,4.802636
247.5893,4.804682
247.6633,4.804674
247.6645,4.806838
247.7390,4.807845
247.7395,4.808857
247.8227,4.808849
247.8245,4.811997
247.8984,4.811989
247.8996,4.814117
247.9741,4.815107
247.9753,4.817220
248.0493,4.817212
248.0498,4.818203
248.1337,4.819306
248.1348,4.821276
248.2093,4.822250
248.2099,4.823351
248.2839,4.823344
248.2850,4.825295
248.3688,4.826381
248.3699,4.828318
248.4445,4.829397
248.4450,4.830361
248.5190,4.830353
248.5201,4.832273
248.6039,4.833342
248.6050,4.835249
248.6790,4.835242
248.6802,4.837259
248.7547,4.838197
248.7559,4.840201
248.8391,4.840193
248.8403,4.842187
248.9142,4.842180
248.9159,4.844980
248.9898,4.844973
248.9910,4.846946
249.0650,4.846939
249.0662,4.848902
249.1499,4.849815
249.1511,4.851766
249.2251,4.851759
249.2262,4.853587
249.3007,4.854605
249.3013,4.855514
249.3851,4.856414
249.3862,4.858335
249.4602,4.858328
249.4613,4.860129
249.5353,4.860122
249.5364,4.862027
249.6202,4.862913
249.6214,4.864806
249.6953,4.864799
249.6964,4.866573
249.7710,4.867561
249.7721,4.869324
249.8553,4.869317
249.8565,4.871182
249.9310,4.872050
249.9317,4.873032
250.0062,4.873897
250.0096,4.879303
250.1668,4.879290
250.2413,4.880142
250.2419,4.880999
250.3158,4.880993
250.3170,4.882808
250.4008,4.883653
250.4019,4.885458
250.4759,4.885451
250.4776,4.888092
250.5516,4.888086
250.5527,4.889767
250.6359,4.889760
250.6371,4.891540
250.7110,4.891533
250.7122,4.893306
250.7867,4.894131
250.7873,4.894961
250.8711,4.895886
250.8722,4.897538
250.9462,4.897531
250.9474,4.899280
251.0213,4.899273
251.0224,4.900912
251.0964,4.900906
251.0981,4.903455
251.1813,4.903448
251.1825,4.905172
251.2565,4.905166
251.2577,4.906884
251.3316,4.906878
251.3333,4.909291
251.4165,4.909284
251.4171,4.910186
251.4911,4.910180
251.4922,4.911778
251.5668,4.912669
251.5673,4.913464
251.6511,4.914251
251.6522,4.915934
251.7262,4.915928
251.7274,4.917603
251.8013,4.917597
251.8024,4.919169
251.8764,4.919163
251.8776,4.920826
251.9608,4.920820
251.9619,4.922379
252.0365,4.923248
252.0370,4.924025
252.1116,4.924794
252.1122,4.925664
252.1959,4.926429
252.1965,4.927200
252.2711,4.928059
252.2722,4.929593
252.3461,4.929587
252.3473,4.931211
252.4311,4.931967
252.4316,4.932728
252.5056,4.932722
252.5068,4.934334
252.5807,4.934328
252.5819,4.935935
252.6657,4.936682
252.6662,4.937435
252.7407,4.938181
252.7414,4.939024
252.8153,4.939019
252.8164,4.940514
252.8904,4.940509
252.8916,4.942092
252.9748,4.942086
252.9759,4.943664
253.0499,4.943659
253.0510,4.945139
253.1250,4.945133
253.1262,4.946700
253.2094,4.946694
253.2099,4.947429
253.2844,4.948158
253.2856,4.949714
253.3596,4.949708
253.3607,4.951259
253.4439,4.951253
253.4445,4.951981
253.5190,4.952702
253.5202,4.954242
253.5941,4.954236
253.5947,4.954959
253.6779,4.954953
253.6791,4.956485
253.7536,4.957199
253.7542,4.957916
253.8281,4.957911
253.8293,4.959433
253.9033,4.959427
253.9038,4.960141
253.9876,4.960938
253.9882,4.961649
254.0627,4.962355
254.0633,4.963153
254.1378,4.963855
254.1384,4.964562
254.2216,4.964556
254.2222,4.965350
254.2967,4.966050
254.2973,4.966753
254.3712,4.966748
254.3724,4.968239
254.4556,4.968233
254.4562,4.968933
254.5307,4.969626
254.5313,4.970411
254.6058,4.971102
254.6064,4.971797
254.6803,4.971792
254.6810,4.972573
254.7642,4.972567
254.7653,4.973952
254.8392,4.973947
254.8404,4.975413
254.9144,4.975408
254.9149,4.976097
254.9987,4.976778
254.9993,4.977550
255.0733,4.977545
255.0744,4.978914
255.1483,4.978909
255.1490,4.979677
255.2322,4.979671
255.2333,4.981034
255.3072,4.981029
255.3079,4.981793
255.3824,4.982466
255.3829,4.983144
255.4661,4.983138
255.4673,4.984574
255.5413,4.984569
255.5418,4.985243
255.6909,4.986662
255.6915,4.987332
255.7747,4.987327
255.7752,4.987997
255.9243,4.989407
255.9249,4.990073
256.0087,4.990816
256.0093,4.991481
256.2421,4.993535
256.2427,4.994195
256.3172,4.994850
256.3178,4.995590
256.3918,4.995585
256.3923,4.996243
256.4755,4.996237
256.4767,4.997630
256.5507,4.997625
256.5512,4.998279
256.7003,4.999575
256.7009,5.000308
256.7841,5.000302
256.7846,5.000952
257.0175,5.002962
257.0180,5.003608
257.0920,5.003604
257.0926,5.004329
257.2509,5.005606
257.2515,5.006329
257.3255,5.006324
257.3260,5.006965
257.5589,5.008948
257.5595,5.009585
257.6340,5.010217
257.6346,5.010931
257.7085,5.010927
257.7091,5.011561
257.7923,5.011556
257.7929,5.012189
257.8668,5.012184
257.8674,5.012896
257.9420,5.013523
257.9425,5.014153
258.0257,5.014148
258.0263,5.014857
258.1003,5.014852
258.1009,5.015481
258.1748,5.015476
258.2586,5.016098
258.3325,5.016094
258.4070,5.016716
258.4810,5.016711
258.6393,5.018030
258.7133,5.018026
258.7971,5.018645
258.9450,5.018635
258.9456,5.019336
259.1028,5.019326
259.1773,5.019944
259.2605,5.019939
259.3350,5.020555
259.4090,5.020551
259.4835,5.021244
259.7147,5.021230
259.7984,5.021844
259.9463,5.021835
260.0301,5.022448
261.2504,5.022372
261.3331,5.021748
261.4810,5.021738
261.5636,5.021113
261.9427,5.021089
262.0252,5.020386
262.1732,5.020377
262.2466,5.019750
262.3292,5.019123
262.3298,5.019745
262.4765,5.018412
262.4771,5.019113
262.5597,5.018406
262.6331,5.017777
262.7065,5.017147
262.7071,5.017773
262.7897,5.017142
262.9365,5.015801
263.0191,5.015167
263.0197,5.015795
263.0925,5.014533
263.0931,5.015162
263.1665,5.014528
263.4692,5.011825
263.5518,5.011185
263.5524,5.011819
263.6253,5.010546
263.6258,5.011181
263.6992,5.010541
263.8546,5.008540
263.8552,5.009178
263.9280,5.007817
263.9286,5.008536
264.0112,5.007811
264.0840,5.006526
264.0846,5.007167
264.3862,5.003126
264.3868,5.003852
264.4596,5.002474
264.4602,5.003121
264.5422,5.001821
264.5428,5.002469
264.6150,5.000436
264.6156,5.001086
264.6878,4.999047
264.6884,4.999780
264.7705,4.998388
264.7710,4.999041
264.8439,4.997729
264.8444,4.998383
264.9900,4.995670
264.9906,4.996327
265.1455,4.993599
265.1460,4.994259
265.2183,4.992188
265.2189,4.992933
265.3009,4.991519
265.3015,4.992182
265.4471,4.989429
265.4477,4.990179
265.6020,4.986658
265.6031,4.988083
265.6754,4.985981
265.6759,4.986653
265.7574,4.984544
265.7579,4.985219
265.8302,4.983103
265.8308,4.983864
265.9030,4.981742
265.9041,4.983098
265.9758,4.980292
265.9770,4.981737
266.0584,4.979605
266.0590,4.980286
266.1312,4.978147
266.1319,4.978917
266.2041,4.976770
266.2046,4.977457
266.2867,4.975991
266.2873,4.976765
266.3595,4.974608
266.3601,4.975297
266.4317,4.972440
266.4328,4.973825
266.5138,4.970958
266.5149,4.972434
266.5866,4.969558
266.5877,4.970953
266.6599,4.968767
266.6606,4.969553
266.7420,4.967359
266.7426,4.968060
266.8148,4.965860
266.8160,4.967354
266.8877,4.964444
266.8882,4.965150
266.9604,4.962934
266.9610,4.963643
267.0425,4.961419
267.0431,4.962219
267.1153,4.959988
267.1159,4.960702
267.1881,4.958463
267.1887,4.959179
267.2701,4.956932
267.2707,4.957740
267.3430,4.955487
267.3441,4.956927
267.4158,4.953946
267.4164,4.954759
267.4978,4.952489
267.4990,4.953939
267.5706,4.950938
267.5718,4.952484
267.6434,4.949381
267.6446,4.950932
267.7163,4.947909
267.7168,4.948643
267.7983,4.946341
267.7988,4.947077
267.8711,4.944859
267.8717,4.945598
267.9439,4.943280
267.9445,4.944021
268.0254,4.940949
268.0266,4.942531
268.0988,4.940197
268.0993,4.940944
268.1710,4.937850
268.1721,4.939350
268.2530,4.936245
268.2542,4.937844
268.3259,4.934728
268.3270,4.936239
268.3987,4.933112
268.3998,4.934723
268.4807,4.931489
268.4813,4.932345
268.5535,4.929956
268.5546,4.931483
268.6258,4.927553
268.6269,4.929089
268.6985,4.925909
268.6997,4.927547
268.7806,4.924356
268.7817,4.925903
268.8534,4.922700
268.8546,4.924350
268.9262,4.921038
268.9274,4.922694
269.0077,4.918584
269.0088,4.920250
269.0805,4.917005
269.0816,4.918578
269.1533,4.915321
269.1545,4.916999
269.2354,4.913729
269.2365,4.915314
269.3082,4.912032
269.3087,4.912829
269.3804,4.909528
269.3816,4.911228
269.4624,4.907814
269.4636,4.909521
269.5347,4.905386
269.5358,4.907002
269.6815,4.903650
##END=
