##TITLE=Methanone, (4-bromophenyl)phenyl-
##JCAMP-DX=4.24
##DATA TYPE=UV/VIS SPECTRUM
##ORIGIN=INSTITUTE OF ENERGY PROBLEMS OF CHEMICAL PHYSICS, RAS
##OWNER=INEP CP RAS, NIST OSRD
Collection (C) 2007 copyright by the U.S. Secretary of Commerce
on behalf of the United States of America. All rights reserved.
##CAS REGISTRY NO=90-90-4
##MOLFORM=C13H9BrO
##MP=80-82.5
##SOURCE REFERENCE=RAS UV No. 19117
##$NIST SQUIB=1968LAN91
##$NIST SOURCE=TYUGLMTE
##SPECTROMETER/DATA SYSTEM=Unicam SP 700
##XUNITS=Wavelength (nm)
##YUNITS=Logarithm epsilon
##XFACTOR=1.0
##YFACTOR=1.0
##FIRSTX=209.9
##LASTX=381.38
##FIRSTY=4.425
##MAXX=381.38
##MINX=209.9
##MAXY=4.428
##MINY=1.64
##NPOINTS=157
##$REF AUTHOR=Lang (editor), L.
##$REF JOURNAL=Absorption Spectra in the Ultraviolet and Visible Region
##$REF VOLUME=10
##$REF PAGE=91
##$REF DATE=1968
##XYPOINTS=(XY..XY)
209.90,4.425
210.07,4.425
210.23,4.428
210.40,4.428
210.57,4.428
210.74,4.428
210.91,4.428
211.07,4.428
211.24,4.428
211.41,4.428
211.58,4.428
212.25,4.418
213.42,4.404
214.60,4.384
215.77,4.360
216.95,4.319
218.12,4.278
219.30,4.227
220.47,4.173
221.64,4.115
222.82,4.061
223.99,4.006
225.17,3.938
226.34,3.907
227.52,3.887
228.69,3.887
229.87,3.901
231.04,3.914
232.21,3.931
233.39,3.952
234.56,3.972
235.74,3.999
236.91,4.027
238.09,4.050
239.26,4.078
240.39,4.103
241.63,4.127
242.79,4.146
243.96,4.163
245.12,4.179
246.31,4.193
247.48,4.204
248.66,4.214
249.83,4.224
251.01,4.227
252.18,4.221
253.36,4.193
254.53,4.166
255.70,4.129
256.88,4.081
258.05,4.030
259.23,3.979
260.40,3.918
261.58,3.850
262.75,3.785
263.93,3.720
265.10,3.662
266.28,3.604
267.45,3.557
268.62,3.506
269.80,3.468
270.97,3.424
272.15,3.397
273.32,3.376
274.50,3.366
275.67,3.356
276.88,3.347
278.02,3.339
279.19,3.332
280.37,3.325
281.54,3.322
282.72,3.319
283.89,3.308
285.07,3.295
286.24,3.284
287.42,3.271
288.59,3.250
289.77,3.227
290.94,3.206
292.11,3.176
293.29,3.142
294.46,3.104
295.64,3.056
296.81,3.009
297.99,2.968
299.06,2.916
300.34,2.849
301.51,2.757
302.68,2.668
303.86,2.570
305.03,2.478
306.21,2.382
307.38,2.291
308.56,2.195
309.73,2.114
310.91,2.032
312.08,1.971
312.51,1.960
313.26,1.950
314.56,1.956
315.71,1.964
316.81,1.976
317.95,1.988
319.06,1.996
320.26,2.007
321.48,2.018
322.65,2.028
323.82,2.038
325.00,2.049
326.17,2.056
327.35,2.066
328.52,2.073
329.70,2.083
330.87,2.090
332.03,2.095
333.23,2.098
334.23,2.100
335.38,2.101
336.64,2.102
338.24,2.101
339.19,2.101
340.34,2.100
341.44,2.096
342.62,2.093
343.79,2.090
344.97,2.086
346.10,2.081
347.32,2.076
348.49,2.069
349.70,2.060
350.90,2.052
352.01,2.042
353.11,2.035
354.36,2.025
355.56,2.015
356.71,2.005
357.89,1.994
359.06,1.984
360.23,1.971
361.42,1.957
362.58,1.943
363.76,1.930
364.93,1.916
366.11,1.899
367.28,1.882
368.46,1.862
369.63,1.845
370.81,1.828
371.98,1.807
373.15,1.790
374.33,1.770
375.50,1.749
376.68,1.726
377.85,1.705
379.03,1.685
380.20,1.664
381.38,1.640
##END=
