##TITLE=5-(2,4-cyclopentadien-1-ylidene)-1,3-cyclopentadiene
##JCAMP-DX=4.24
##DATA TYPE=UV/VIS SPECTRUM
##ORIGIN=INSTITUTE OF ENERGY PROBLEMS OF CHEMICAL PHYSICS, RAS
##OWNER=INEP CP RAS, NIST OSRD
Collection (C) 2007 copyright by the U.S. Secretary of Commerce
on behalf of the United States of America. All rights reserved.
##CAS REGISTRY NO=91-12-3
##MOLFORM=C10H8
##MP=stable only in solution
##SOURCE REFERENCE=RAS UV No. 22233
##$NIST SQUIB=1977SAU/1382
##$NIST SOURCE=TYUGLMTE
##SPECTROMETER/DATA SYSTEM=Zeiss RPQ 20A/C
##XUNITS=Wavelength (nm)
##YUNITS=Logarithm epsilon
##XFACTOR=1.0
##YFACTOR=1.0
##FIRSTX=222.565
##LASTX=638.528
##FIRSTY=3.093
##MAXX=638.528
##MINX=222.565
##MAXY=4.668
##MINY=1.032
##NPOINTS=424
##$REF AUTHOR=Sauter, H.; et al.
##$REF JOURNAL=Chem. Ber.
##$REF VOLUME=110
##$REF PAGE=1382
##$REF DATE=1977
##XYPOINTS=(XY..XY)
222.565,3.093
223.565,3.085
224.565,3.077
225.565,3.070
226.565,3.064
227.565,3.058
228.565,3.053
229.565,3.048
230.565,3.044
231.565,3.040
232.565,3.036
233.565,3.033
234.565,3.030
235.565,3.028
236.565,3.025
237.565,3.024
238.565,3.022
239.565,3.021
240.565,3.020
241.565,3.019
242.565,3.019
243.565,3.020
244.565,3.020
245.565,3.022
246.565,3.024
247.565,3.028
248.565,3.032
249.565,3.038
250.565,3.045
251.565,3.054
252.565,3.066
253.565,3.080
254.565,3.096
255.565,3.116
256.565,3.140
257.565,3.168
258.565,3.200
258.735,3.208
259.735,3.248
260.735,3.287
261.735,3.331
262.735,3.382
263.735,3.434
264.735,3.478
265.735,3.508
266.735,3.523
267.735,3.533
267.812,3.537
268.812,3.563
269.812,3.605
270.812,3.656
271.812,3.710
272.812,3.760
273.812,3.805
274.655,3.836
275.655,3.866
276.655,3.893
277.655,3.915
278.655,3.929
279.655,3.936
280.655,3.936
281.777,3.926
282.777,3.923
283.777,3.918
284.777,3.939
285.777,4.002
286.777,4.100
287.777,4.209
288.201,4.246
288.922,4.280
289.922,4.301
290.854,4.311
292.111,4.298
293.111,4.265
294.111,4.247
295.111,4.254
296.111,4.286
297.111,4.343
297.139,4.346
298.139,4.412
299.139,4.484
300.139,4.541
301.139,4.571
302.139,4.569
303.139,4.538
304.139,4.486
305.139,4.434
305.797,4.399
306.797,4.361
307.797,4.319
308.797,4.288
309.797,4.277
310.797,4.294
311.797,4.346
311.856,4.344
312.856,4.443
313.856,4.571
314.856,4.657
315.856,4.668
316.856,4.609
317.856,4.522
318.514,4.475
319.514,4.424
320.514,4.343
321.514,4.240
322.514,4.122
323.514,3.995
324.514,3.865
325.514,3.735
326.514,3.610
327.514,3.492
328.514,3.383
329.514,3.284
330.514,3.196
331.514,3.120
332.514,3.054
333.514,2.999
333.863,2.976
334.863,2.942
335.863,2.911
336.863,2.882
337.863,2.855
338.863,2.831
339.863,2.808
340.863,2.786
341.863,2.766
342.863,2.748
343.863,2.730
344.863,2.714
345.863,2.698
346.863,2.684
347.863,2.670
348.863,2.657
349.863,2.645
350.863,2.633
351.863,2.622
352.863,2.611
353.863,2.601
354.863,2.591
355.863,2.581
356.863,2.572
357.863,2.563
358.863,2.555
359.863,2.547
360.863,2.539
361.863,2.531
362.863,2.524
363.863,2.517
364.863,2.510
365.863,2.504
366.863,2.497
367.863,2.491
368.863,2.485
369.863,2.480
370.863,2.474
371.863,2.469
372.863,2.464
373.863,2.459
374.863,2.455
375.863,2.450
376.863,2.446
377.863,2.442
378.863,2.438
379.863,2.435
380.863,2.431
381.863,2.428
382.863,2.425
383.863,2.422
384.863,2.420
385.863,2.417
386.863,2.415
387.863,2.413
388.863,2.411
389.863,2.409
390.863,2.407
391.863,2.406
392.863,2.404
393.863,2.403
394.863,2.402
395.863,2.401
396.863,2.400
397.863,2.400
398.863,2.399
399.863,2.399
400.863,2.399
401.863,2.399
402.863,2.400
403.863,2.400
404.863,2.401
405.863,2.402
406.863,2.403
407.863,2.405
408.571,2.404
409.571,2.407
410.571,2.410
411.571,2.413
412.571,2.415
413.571,2.417
414.571,2.419
415.571,2.421
416.571,2.422
417.571,2.423
418.571,2.424
419.571,2.424
420.571,2.425
421.571,2.425
422.571,2.424
423.571,2.424
424.571,2.423
425.571,2.422
426.571,2.421
427.571,2.419
428.571,2.418
429.571,2.416
430.571,2.413
431.571,2.410
432.571,2.407
433.571,2.404
434.571,2.401
435.571,2.397
436.571,2.393
437.571,2.388
438.571,2.383
439.571,2.378
440.571,2.373
441.571,2.368
442.571,2.362
443.571,2.356
444.571,2.350
445.571,2.344
446.571,2.338
447.571,2.331
448.571,2.325
449.571,2.318
450.571,2.312
451.571,2.305
452.571,2.299
453.571,2.292
454.571,2.286
455.571,2.280
456.571,2.273
457.571,2.267
458.571,2.261
459.387,2.256
460.387,2.250
461.387,2.245
462.387,2.239
463.387,2.233
464.387,2.227
465.387,2.221
466.387,2.215
467.387,2.208
468.387,2.202
469.387,2.196
470.387,2.189
471.387,2.183
472.387,2.176
473.387,2.170
474.387,2.163
475.387,2.157
476.387,2.150
477.387,2.144
478.387,2.137
479.387,2.131
480.387,2.124
481.387,2.117
482.387,2.111
483.387,2.104
484.387,2.097
485.387,2.091
486.387,2.084
487.387,2.078
488.387,2.071
489.387,2.064
490.387,2.058
491.387,2.051
492.387,2.045
493.387,2.038
494.387,2.031
495.387,2.025
496.387,2.018
497.387,2.012
498.387,2.005
499.387,1.999
500.387,1.992
501.387,1.985
502.387,1.979
503.387,1.972
504.387,1.966
505.387,1.959
506.387,1.952
507.387,1.946
508.387,1.939
509.387,1.932
510.387,1.926
511.387,1.919
512.387,1.913
513.387,1.906
514.387,1.899
515.387,1.893
516.387,1.886
517.387,1.879
518.387,1.873
519.387,1.866
520.387,1.859
521.387,1.852
522.387,1.846
523.387,1.839
524.387,1.832
525.387,1.825
526.387,1.819
527.387,1.812
528.387,1.805
529.387,1.798
530.387,1.792
531.387,1.785
532.387,1.778
533.387,1.771
534.387,1.765
535.387,1.758
536.387,1.751
537.387,1.744
538.387,1.737
539.387,1.731
540.387,1.724
541.387,1.717
542.387,1.710
543.387,1.704
544.387,1.697
545.387,1.690
546.387,1.683
547.387,1.677
548.387,1.670
549.387,1.663
550.387,1.657
551.387,1.650
552.387,1.643
553.387,1.637
554.387,1.630
555.387,1.623
556.387,1.617
557.387,1.610
558.387,1.604
559.387,1.597
560.387,1.590
561.387,1.584
562.387,1.577
563.387,1.571
564.387,1.564
565.387,1.558
566.387,1.551
567.387,1.545
568.387,1.538
569.387,1.532
570.387,1.525
571.387,1.519
572.387,1.512
573.387,1.506
574.387,1.500
575.387,1.493
576.387,1.487
577.387,1.480
578.387,1.474
579.387,1.467
580.387,1.461
581.387,1.454
582.387,1.448
583.387,1.441
584.387,1.435
585.387,1.428
586.387,1.422
587.387,1.415
588.387,1.408
589.387,1.402
590.387,1.395
591.387,1.388
592.387,1.381
593.387,1.375
594.387,1.368
595.387,1.361
596.387,1.354
597.387,1.347
598.387,1.340
599.387,1.333
600.387,1.325
601.387,1.318
602.387,1.311
603.387,1.304
604.387,1.296
605.387,1.289
606.387,1.281
607.387,1.274
608.387,1.266
609.387,1.258
610.387,1.250
611.387,1.243
612.387,1.235
613.387,1.227
614.387,1.219
615.387,1.211
616.387,1.203
617.387,1.194
618.387,1.186
619.387,1.178
620.387,1.170
621.387,1.162
622.387,1.153
623.387,1.145
624.387,1.137
625.387,1.129
626.387,1.121
627.387,1.112
628.387,1.104
629.387,1.097
630.387,1.089
631.387,1.081
632.387,1.073
633.387,1.066
634.387,1.059
635.387,1.052
636.387,1.045
637.387,1.038
638.387,1.032
638.528,1.036
##END=
