##TITLE=Naphthalene
##JCAMP-DX=4.24
##DATA TYPE=UV/VIS SPECTRUM
##ORIGIN=INSTITUTE OF ENERGY PROBLEMS OF CHEMICAL PHYSICS, RAS
##OWNER=INEP CP RAS, NIST OSRD
Collection (C) 2007 copyright by the U.S. Secretary of Commerce
on behalf of the United States of America. All rights reserved.
##CAS REGISTRY NO=91-20-3
##MOLFORM=C10H8
##MP=80.2
##BP=217.9
##SOURCE REFERENCE=RAS UV No. 1174
##$NIST SQUIB=1957FER/REE1117-1123
##$NIST SOURCE=TSGMTE
##SPECTROMETER/DATA SYSTEM=Beckman DU
##XUNITS=Wavelength (nm)
##YUNITS=Logarithm epsilon
##XFACTOR=1.000000
##YFACTOR=1.000000
##FIRSTX=284.8426
##LASTX=245.0799
##FIRSTY=2.37999
##MAXX=284.843
##MINX=245.08
##MAXY=3.60199
##MINY=2.37999
##NPOINTS=500
##$REF AUTHOR=Ferguson, J.; Reeves, L.W.; Schneider, W.G.
##$REF TITLE=Vapor absorption spectra and oscillator strengths of naphthalene, anthracene, and pyrene
##$REF JOURNAL=Can. J. Chem.
##$REF VOLUME=35
##$REF PAGE=1117-1123
##$REF DATE=1957
##XYPOINTS=(XY..XY)
284.8426,2.379993
284.6036,2.400997
284.3294,2.422698
284.0707,2.448913
284.0707,2.448913
283.9535,2.470820
283.8350,2.491912
283.7139,2.512476
283.7139,2.512476
283.5113,2.571522
283.3090,2.623668
283.1070,2.670530
283.1070,2.670530
282.9297,2.696851
282.7526,2.721944
282.5758,2.745799
282.5758,2.745799
282.2901,2.769604
282.0806,2.789188
281.7676,2.820590
281.7676,2.820590
281.6050,2.867070
281.4844,2.899224
281.3841,2.925501
281.2823,2.952166
281.1575,2.984053
280.9881,3.024524
280.9881,3.024524
280.9085,3.050806
280.8287,3.075587
280.7484,3.099029
280.6672,3.121272
280.5849,3.142430
280.5849,3.142430
280.5051,3.173072
280.4307,3.199820
280.3614,3.223340
280.2970,3.244156
280.2371,3.262675
280.1815,3.279234
280.1298,3.294109
280.0818,3.307531
280.0371,3.319700
279.9955,3.330787
279.9566,3.340943
279.9202,3.350301
279.8860,3.358983
279.8536,3.367098
279.8229,3.374746
279.7934,3.382019
279.7649,3.389005
279.7371,3.395782
279.7097,3.402427
279.6825,3.409012
279.6550,3.415602
279.6272,3.422261
279.5985,3.429047
279.5688,3.436016
279.5377,3.443219
279.5050,3.450703
279.4704,3.458512
279.4336,3.466683
279.3943,3.475252
279.3943,3.475252
279.3263,3.485657
279.2581,3.495817
279.1894,3.505746
279.1198,3.515452
279.0492,3.524947
279.0492,3.524947
278.9939,3.525174
278.9361,3.525445
278.8769,3.525739
278.8769,3.525739
278.8529,3.524352
278.8277,3.522961
278.7997,3.521565
278.7997,3.521565
278.7652,3.513815
278.7326,3.506381
278.7018,3.499239
278.6726,3.492365
278.6447,3.485732
278.6180,3.479307
278.5923,3.473058
278.5674,3.466950
278.5431,3.460945
278.5191,3.455003
278.4954,3.449081
278.4716,3.443134
278.4476,3.437113
278.4232,3.430970
278.3982,3.424650
278.3725,3.418097
278.3457,3.411251
278.3178,3.404049
278.2885,3.396422
278.2576,3.388295
278.2249,3.379589
278.1903,3.370214
278.1535,3.360076
278.1143,3.349063
278.0726,3.337056
278.0282,3.323915
277.9808,3.309480
277.9303,3.293569
277.8765,3.275960
277.8192,3.256393
277.7581,3.234550
277.6932,3.210039
277.6242,3.182364
277.6242,3.182364
277.6007,3.177256
277.5771,3.171987
277.5536,3.166602
277.5536,3.166602
277.5225,3.165404
277.4887,3.164100
277.4537,3.162742
277.4537,3.162742
277.3654,3.163662
277.2758,3.164631
277.1837,3.165697
277.1837,3.165697
277.1131,3.169989
277.0413,3.174288
276.9669,3.178642
276.9669,3.178642
276.8481,3.190579
276.7268,3.202243
276.6044,3.213692
276.6044,3.213692
276.4758,3.230795
276.3459,3.247251
276.2137,3.263106
276.2137,3.263106
276.1497,3.279282
276.0857,3.294914
276.0217,3.310075
276.0217,3.310075
275.9345,3.322424
275.8473,3.334434
275.7603,3.346122
275.6732,3.357505
275.5863,3.368602
275.4993,3.379427
275.4125,3.389992
275.3257,3.400313
275.2389,3.410400
275.1522,3.420265
275.1522,3.420265
275.0985,3.420396
275.0422,3.420555
274.9847,3.420769
274.9847,3.420769
274.9557,3.420135
274.9253,3.419471
274.8924,3.418750
274.8924,3.418750
274.8264,3.394973
274.7719,3.374391
274.7273,3.356956
274.6909,3.342498
274.6612,3.330729
274.6364,3.321252
274.6149,3.313584
274.5951,3.307175
274.5754,3.301421
274.5541,3.295680
274.5296,3.289275
274.5296,3.289275
274.4461,3.279304
274.3677,3.270459
274.2681,3.260177
274.1207,3.245627
273.8993,3.223504
273.5780,3.189500
273.5780,3.189500
273.5152,3.184475
273.4524,3.179294
273.3896,3.174000
273.3896,3.174000
273.2583,3.173769
273.1258,3.173489
272.9909,3.173110
272.9909,3.173110
272.9210,3.175783
272.8486,3.178488
272.7749,3.181273
272.7749,3.181273
272.6824,3.187574
272.5874,3.193832
272.4913,3.200093
272.4913,3.200093
272.3844,3.215947
272.2776,3.231241
272.1706,3.246015
272.0634,3.260304
271.9559,3.274137
271.8480,3.287543
271.7397,3.300547
271.7397,3.300547
271.4661,3.325454
271.2907,3.340506
271.1772,3.349484
271.0896,3.355529
270.9922,3.361498
270.9922,3.361498
270.9176,3.361648
270.8407,3.361830
270.7626,3.362075
270.7626,3.362075
270.6782,3.360358
270.6362,3.359118
270.6004,3.357292
270.6004,3.357292
270.4812,3.356514
270.4031,3.356514
270.2989,3.357292
270.2989,3.357292
270.1761,3.366092
270.0521,3.374718
269.9258,3.383175
269.9258,3.383175
269.8647,3.390667
269.8036,3.398062
269.7425,3.405390
269.7425,3.405390
269.6198,3.429036
269.5067,3.449785
269.4025,3.468054
269.3069,3.484177
269.2194,3.498428
269.1394,3.511033
269.0667,3.522184
269.0007,3.532045
268.9410,3.540757
268.8872,3.548444
268.8387,3.555217
268.7952,3.561174
268.7562,3.566405
268.7213,3.570992
268.6900,3.575013
268.6619,3.578538
268.6365,3.581635
268.6135,3.584368
268.5923,3.586800
268.5726,3.588991
268.5539,3.590998
268.5358,3.592880
268.5178,3.594691
268.4995,3.596487
268.4804,3.598321
268.4602,3.600247
268.4602,3.600247
268.4437,3.600688
268.4272,3.601166
268.4107,3.601661
268.4107,3.601661
268.3596,3.601747
268.3061,3.601852
268.2514,3.601993
268.2514,3.601993
268.2072,3.601326
268.1619,3.600639
268.1141,3.599914
268.1141,3.599914
268.0371,3.593052
267.9598,3.586081
267.8823,3.578996
267.8045,3.571792
267.7265,3.564468
267.6484,3.557018
267.5702,3.549438
267.4919,3.541723
267.4137,3.533869
267.4137,3.533869
267.3537,3.526002
267.2936,3.517990
267.2335,3.509827
267.1733,3.501508
267.1129,3.493026
267.0524,3.484375
266.9915,3.475549
266.9304,3.466539
266.8690,3.457339
266.8690,3.457339
266.7360,3.444588
266.6417,3.436824
266.5054,3.427516
266.5054,3.427516
266.4564,3.425491
266.4062,3.423401
266.3537,3.421273
266.3537,3.421273
266.1386,3.420583
266.0224,3.420452
265.9050,3.420769
265.9050,3.420769
265.7772,3.431877
265.6502,3.443274
265.5262,3.454544
265.4074,3.465310
265.2961,3.475233
265.1943,3.484001
265.1043,3.491324
265.0283,3.496918
265.0283,3.496918
264.9945,3.497899
264.9584,3.498925
264.9211,3.499971
264.9211,3.499971
264.8713,3.499656
264.8192,3.499341
264.7659,3.499026
264.7659,3.499026
264.6649,3.491158
264.5639,3.483146
264.4628,3.474983
264.3617,3.466663
264.2606,3.458181
264.1594,3.449531
264.0582,3.440703
263.9570,3.431694
263.8558,3.422493
263.7546,3.413093
263.6534,3.403485
263.5523,3.393659
263.4513,3.383607
263.3503,3.373315
263.3503,3.373315
263.3011,3.371622
263.2496,3.369889
263.1969,3.368087
263.1969,3.368087
263.0859,3.367660
262.9750,3.367233
262.8642,3.366806
262.8642,3.366806
262.7483,3.367561
262.6324,3.368377
262.5166,3.369223
262.5166,3.369223
262.4430,3.371203
262.3694,3.373175
262.2959,3.375137
262.2959,3.375137
262.1676,3.382030
262.0779,3.387456
261.9498,3.396027
261.9498,3.396027
261.8021,3.414191
261.6929,3.428860
261.6046,3.438775
261.6046,3.438775
261.5404,3.440860
261.4739,3.442987
261.4063,3.445131
261.4063,3.445131
261.2959,3.444725
261.2283,3.444107
261.1458,3.442743
261.1458,3.442743
260.9616,3.436285
260.8619,3.433250
260.7612,3.431097
260.7612,3.431097
260.6624,3.431097
260.5626,3.431097
260.4605,3.431097
260.4605,3.431097
260.2233,3.434883
260.0841,3.437372
259.9232,3.440703
259.9232,3.440703
259.8096,3.446676
259.6950,3.452567
259.5781,3.458379
259.5781,3.458379
259.4509,3.469007
259.3232,3.479412
259.1947,3.489593
259.0649,3.499552
259.0649,3.499552
258.9968,3.503003
258.9265,3.506429
258.8550,3.509827
258.8550,3.509827
258.7892,3.510404
258.7335,3.510616
258.6404,3.510646
258.6404,3.510646
258.5790,3.509413
258.5165,3.508152
258.4517,3.506842
258.4517,3.506842
258.3839,3.502556
258.3139,3.498180
258.2428,3.493736
258.1563,3.484810
257.9714,3.468436
257.8591,3.458567
257.7735,3.451756
257.6689,3.444177
257.6689,3.444177
257.4357,3.431302
257.2680,3.422904
257.0220,3.411864
257.0220,3.411864
256.9428,3.409841
256.8660,3.407866
256.7902,3.405911
256.7902,3.405911
256.5943,3.405689
256.3998,3.405525
256.2078,3.405390
256.2078,3.405390
256.1028,3.407044
255.9990,3.408634
255.8975,3.410190
255.8975,3.410190
255.6715,3.409789
255.5578,3.409387
255.4585,3.408639
255.4585,3.408639
255.2338,3.403817
255.1011,3.400409
254.9465,3.395493
254.9465,3.395493
254.6047,3.377045
254.3659,3.363754
254.1978,3.354367
254.0680,3.347367
253.9446,3.341059
253.7958,3.333633
253.7958,3.333633
253.6730,3.329308
253.5503,3.324975
253.4277,3.320668
253.4277,3.320668
253.3395,3.318920
253.2513,3.317165
253.1632,3.315403
253.1632,3.315403
252.9873,3.315403
252.8115,3.315403
252.6361,3.315403
252.6361,3.315403
252.4318,3.318920
252.2290,3.322408
252.0286,3.325869
252.0286,3.325869
251.8799,3.325869
251.7334,3.325869
251.5882,3.325869
251.5882,3.325869
251.2093,3.321003
251.0013,3.317680
250.8513,3.315403
250.8513,3.315403
250.6463,3.314499
250.4439,3.314166
250.0709,3.314118
250.0709,3.314118
249.7866,3.316027
249.6435,3.317396
249.5184,3.319397
249.5184,3.319397
249.4000,3.319321
249.3029,3.318785
249.1436,3.317325
249.1436,3.317325
249.0254,3.313963
248.9084,3.310610
248.7935,3.307304
248.7935,3.307304
248.6863,3.302707
248.5813,3.298099
248.4774,3.293515
248.4774,3.293515
248.0949,3.270650
247.8834,3.256472
247.7773,3.250058
247.7773,3.250058
247.6170,3.237572
247.4792,3.226327
247.3517,3.215490
247.2221,3.204130
247.0782,3.191215
246.9079,3.175577
246.6991,3.155844
246.4397,3.130311
246.4397,3.130311
246.1891,3.106870
245.9971,3.088149
245.8398,3.072517
245.6931,3.057950
245.5333,3.042093
245.3367,3.022218
245.0799,2.995008
##END=
