##TITLE=Quinoline
##JCAMP-DX=4.24
##DATA TYPE=UV/VIS SPECTRUM
##ORIGIN=INSTITUTE OF ENERGY PROBLEMS OF CHEMICAL PHYSICS, RAS
##OWNER=INEP CP RAS, NIST OSRD
Collection (C) 2007 copyright by the U.S. Secretary of Commerce
on behalf of the United States of America. All rights reserved.
##CAS REGISTRY NO=91-22-5
##MOLFORM=C9H7N
##MP=-14.78
##BP=237.1
##SOURCE REFERENCE=RAS UV No. 1171
##$NIST SQUIB=1957ZAN/SCH2253-2265
##$NIST SOURCE=TSGMTE
##SPECTROMETER/DATA SYSTEM=n.i.g.
##XUNITS=Wavelength (nm)
##YUNITS=Logarithm epsilon
##XFACTOR=1.000000
##YFACTOR=1.000000
##FIRSTX=324.5264
##LASTX=200.2211
##FIRSTY=0.220605
##MAXX=324.526
##MINX=200.221
##MAXY=4.70508
##MINY=0.220605
##NPOINTS=460
##$REF AUTHOR=Zanker, V.; Schmid, W.
##$REF TITLE=Die tieftemperaturspektren der basen und kationen des pyridins, chinolins, acridins, 2.3-benzacridins und vorhersage der bandenlagen fur das 2.3;6.7-dibenzacridin
##$REF JOURNAL=Chem. Ber.
##$REF VOLUME=90
##$REF PAGE=2253-2265
##$REF DATE=1957
##XYPOINTS=(XY..XY)
324.5264,0.220605
324.5049,0.233428
324.1546,0.237971
323.4211,0.678637
323.0740,0.682659
321.7887,1.461383
321.6268,1.559878
321.0097,1.705476
320.6744,1.705394
320.6677,1.709498
319.9992,1.709334
319.3061,1.700438
318.2725,1.263449
317.6411,1.451636
317.3128,1.451553
317.2644,1.481819
314.9701,2.927955
314.2776,3.368618
313.9088,3.373143
313.2481,3.796364
312.9217,3.800899
312.9017,3.813724
312.5768,3.817746
311.5854,3.817489
311.3089,3.766097
311.2300,3.817397
310.9999,3.761911
310.7843,3.466251
310.6208,3.367674
310.5753,3.192148
310.4763,3.462065
310.3131,3.363488
310.2543,3.171022
310.2285,3.187951
309.3431,3.127674
309.3236,3.140499
309.0122,3.140417
309.0060,3.144521
308.6883,3.149056
308.6627,3.165985
308.3070,3.170509
308.2489,3.208984
307.9336,3.213006
307.4325,3.341173
307.0796,3.345697
306.9967,3.401101
306.6839,3.405123
306.5881,3.469247
306.2754,3.473782
306.2632,3.481990
305.6024,3.490536
305.5963,3.494640
305.2924,3.494558
305.2855,3.499175
304.9823,3.499093
301.4264,3.575098
301.1307,3.575016
301.1248,3.579120
300.7929,3.579028
300.7862,3.583645
300.4918,3.583563
300.4617,3.604596
300.1613,3.609131
300.0696,3.673255
299.7342,3.677267
299.7283,3.681371
299.4360,3.681289
299.4294,3.685905
298.8101,3.685731
298.2904,3.642475
298.2418,3.676846
298.0189,3.603908
297.9705,3.638279
297.7956,3.557144
297.7357,3.599722
297.5373,3.535516
297.5135,3.552444
296.6568,3.522434
296.3347,3.522342
296.0489,3.522260
295.7580,3.526282
295.4733,3.526200
295.4669,3.530816
295.1417,3.534828
295.1360,3.538932
294.8526,3.538850
294.8462,3.543467
294.5633,3.543385
290.6995,3.588949
290.6933,3.593566
290.4183,3.593484
290.1384,3.597506
290.1329,3.601610
289.8248,3.601517
289.8186,3.606134
289.2724,3.605970
289.2670,3.610074
288.9607,3.609982
288.9552,3.614086
288.6774,3.618621
288.6720,3.622725
288.4008,3.622642
288.3893,3.631363
288.0794,3.635375
288.0510,3.656921
287.7756,3.660943
287.7702,3.665047
287.5007,3.664965
287.4947,3.669582
287.1921,3.669489
286.3884,3.643583
286.3717,3.656408
285.8717,3.630594
285.8664,3.634698
285.3184,3.621698
283.1475,3.621021
282.8488,3.625033
282.3285,3.624869
282.3227,3.629486
282.0309,3.629393
281.7669,3.633415
281.2184,3.633241
280.9662,3.629055
280.1649,3.628798
279.9152,3.624099
275.9834,3.622816
275.7405,3.618630
274.9687,3.618374
274.6969,3.614177
274.4513,3.614095
273.4636,3.596315
273.1899,3.596223
272.7142,3.587850
272.2004,3.587676
271.9647,3.582977
271.4537,3.582802
271.2187,3.578616
270.9494,3.578524
270.4821,3.569639
270.2142,3.569547
269.9814,3.565361
269.4825,3.561082
269.4778,3.565186
269.2462,3.561000
268.7847,3.552115
268.5202,3.552023
268.2903,3.547837
267.7930,3.547662
267.5648,3.542963
265.4250,3.516544
265.1958,3.516462
264.9429,3.512265
264.7144,3.512183
264.2399,3.503288
261.4690,3.463787
260.8165,3.450716
260.5674,3.450623
259.6765,3.433356
257.4579,3.394030
257.2244,3.385216
257.2201,3.389320
257.0091,3.385134
256.5618,3.376239
256.3476,3.376157
255.9021,3.367774
255.6937,3.363075
255.6889,3.367692
255.4852,3.358889
255.4809,3.362993
255.2505,3.354693
255.2462,3.358797
255.0432,3.349994
255.0384,3.354611
254.8315,3.349912
254.1895,3.332726
254.1853,3.336830
253.9530,3.332634
253.7520,3.323831
253.7473,3.328448
253.5424,3.323749
252.9028,3.310668
252.6988,3.306482
252.6946,3.310586
252.4697,3.301772
252.2664,3.297586
252.2622,3.301690
252.0634,3.293400
252.0593,3.297504
251.8308,3.293308
251.1997,3.280226
250.9990,3.275527
250.9944,3.280144
250.7980,3.271341
250.7939,3.275445
249.9471,3.254063
249.7483,3.249364
249.7437,3.253981
249.3173,3.249190
249.1191,3.245004
248.9171,3.244922
248.3005,3.231840
248.0788,3.227644
248.0748,3.231748
247.8785,3.227562
247.6830,3.222863
247.4624,3.218667
247.4584,3.222771
247.2631,3.218585
247.0681,3.214399
246.6463,3.214224
246.0409,3.201143
245.8439,3.201061
245.4346,3.192165
245.0428,3.192001
244.6362,3.183106
243.8347,3.182767
243.6208,3.178571
243.4315,3.174385
243.4277,3.178489
243.2387,3.174303
240.2642,3.173020
240.2605,3.177124
239.8616,3.176949
239.6706,3.180971
239.4836,3.180889
239.2694,3.185414
239.0831,3.185332
239.0794,3.189436
238.8933,3.189354
238.6807,3.193365
238.6765,3.197982
238.4911,3.197900
238.4874,3.202004
238.3023,3.201922
238.2986,3.206026
238.0907,3.205934
238.0865,3.210551
237.9020,3.210468
237.8983,3.214572
237.7141,3.214490
237.5035,3.218502
237.4921,3.231327
237.3044,3.235862
237.3007,3.239966
237.1174,3.239884
237.1137,3.243988
236.9079,3.243895
236.9001,3.252616
235.7255,3.294682
235.7101,3.312124
235.5257,3.316145
235.5067,3.337691
235.3226,3.341713
235.2887,3.380188
235.0820,3.384712
235.0635,3.405745
234.8460,3.448755
234.7750,3.529808
234.5916,3.534343
234.5320,3.602571
234.3270,3.606583
234.2412,3.705078
233.8099,3.790584
233.7689,3.837780
233.5653,3.841791
233.5022,3.914637
233.3212,3.918659
233.2547,3.995608
233.0736,4.000143
233.0148,4.068371
232.8120,4.072896
232.7789,4.111371
232.7423,4.153949
232.5625,4.157971
232.4630,4.273908
232.2836,4.277930
232.2287,4.342055
232.0496,4.346076
231.9834,4.423539
231.7829,4.427550
231.7282,4.491675
231.5499,4.495697
231.4735,4.585471
231.2991,4.585389
231.2442,4.650026
231.0450,4.654038
231.0341,4.666863
230.8569,4.670885
230.8387,4.692431
230.6652,4.692348
230.6579,4.701069
230.4704,4.692256
230.4596,4.705081
230.3118,4.675245
230.3010,4.688070
230.1607,4.649513
230.1430,4.670546
229.9991,4.610946
229.9706,4.644804
229.8523,4.580597
229.8307,4.606247
229.7091,4.546145
229.6837,4.576411
229.5481,4.507578
229.5193,4.541948
229.4048,4.473638
229.3800,4.503391
229.2443,4.460731
229.2374,4.468939
229.0698,4.439093
229.0518,4.460638
228.9097,4.426186
228.9024,4.434907
228.3423,4.468508
228.3317,4.481333
228.1581,4.485867
228.1336,4.515621
227.9396,4.519633
227.9185,4.545283
227.7456,4.549818
227.7177,4.583675
227.5451,4.588210
227.5240,4.613860
227.3311,4.617871
227.3168,4.635313
227.1453,4.639335
227.1348,4.652160
226.7782,4.651986
226.2734,4.630183
226.2664,4.638904
226.1101,4.625997
226.1068,4.630101
225.9541,4.613090
225.9437,4.625915
225.6116,4.600091
225.6083,4.604195
225.4493,4.595905
223.2398,4.590180
223.2361,4.594797
222.9022,4.581284
222.7405,4.581202
222.5653,4.572902
222.5621,4.577006
222.4077,4.568203
222.4041,4.572820
222.2499,4.564017
222.0759,4.555204
222.0691,4.563925
221.5882,4.538018
221.5850,4.542122
220.7946,4.507844
220.7882,4.516052
220.6161,4.507751
220.4644,4.498948
220.4612,4.503052
220.3093,4.494762
220.3062,4.498866
220.1549,4.490063
220.1513,4.494680
219.3487,4.463982
219.3452,4.468599
217.4456,4.411657
217.4390,4.420378
217.2916,4.411575
217.1253,4.402761
217.1218,4.407378
216.8247,4.394389
216.5032,4.389598
216.4998,4.394215
216.3537,4.385412
216.3507,4.389516
216.1854,4.381216
216.1823,4.385320
216.0332,4.381133
215.5721,4.363435
215.5687,4.368052
215.4238,4.359249
215.2569,4.355053
215.2539,4.359157
214.5049,4.328982
214.5019,4.333086
214.3585,4.324283
214.3552,4.328900
214.1933,4.320087
214.1903,4.324191
213.7395,4.302901
213.7366,4.307005
213.5942,4.298202
213.4487,4.294016
213.4457,4.298120
212.9981,4.276831
212.9951,4.280935
212.8382,4.268018
212.8353,4.272122
212.6908,4.267936
212.3844,4.259040
212.2375,4.258958
211.7921,4.241773
211.7891,4.245877
211.6490,4.237587
211.4882,4.232877
211.4849,4.237494
211.3426,4.232795
211.0397,4.224413
210.4430,4.224074
210.3021,4.219375
210.1401,4.219283
209.9993,4.215097
209.1053,4.214584
208.9601,4.218606
208.0750,4.218093
207.9309,4.222627
207.7725,4.222535
207.7697,4.226639
207.6292,4.226557
207.3253,4.235103
207.1854,4.235021
207.1826,4.239125
207.0428,4.239043
206.8831,4.243055
206.6046,4.242891
206.4452,4.247415
206.1679,4.247251
206.1652,4.251355
205.8714,4.251181
205.8686,4.255285
205.7307,4.255202
205.5726,4.259727
205.4350,4.259645
205.2949,4.263667
205.0036,4.263492
204.8640,4.267514
204.7274,4.267432
204.5767,4.263236
203.4609,4.258455
203.4582,4.262559
203.3123,4.253745
203.3093,4.258362
203.1777,4.253663
202.7668,4.240582
202.6329,4.240500
202.0797,4.219118
202.0771,4.223222
201.8227,4.205616
201.8197,4.210233
201.6818,4.192699
201.6762,4.201420
201.0215,4.166628
201.0186,4.171245
200.8762,4.162432
200.7475,4.158246
200.7448,4.162350
200.6192,4.153547
200.6163,4.158164
200.4745,4.149351
200.4718,4.153454
200.3492,4.140548
200.3462,4.145164
200.2293,4.123537
200.2211,4.136361
##END=
