##TITLE=5-(dimethylamino)-6-oxo-6H-antra[9,1-bc]furan-2-carboxylic acid, methyl ester
##JCAMP-DX=4.24
##DATA TYPE=UV/VIS SPECTRUM
##ORIGIN=INSTITUTE OF ENERGY PROBLEMS OF CHEMICAL PHYSICS, RAS
##OWNER=INEP CP RAS, NIST OSRD
Collection (C) 2007 copyright by the U.S. Secretary of Commerce
on behalf of the United States of America. All rights reserved.
##CAS REGISTRY NO=91323-87-4
##MOLFORM=C19H15NO4
##MP=218-218.5
##SOURCE REFERENCE=RAS UV No. 22696
##$NIST SQUIB=1984GOR/ALI818
##$NIST SOURCE=TYUGLMTE
##SPECTROMETER/DATA SYSTEM=Specord UV-Vis
##XUNITS=Wavelength (nm)
##YUNITS=Logarithm epsilon
##XFACTOR=1.0
##YFACTOR=1.0
##FIRSTX=224.335
##LASTX=575.674
##FIRSTY=4.472
##MAXX=575.674
##MINX=224.335
##MAXY=4.555
##MINY=2.688
##NPOINTS=354
##$REF AUTHOR=Gorelik, M.V.; Alimova, R.A.
##$REF JOURNAL=Zhur. Organ. Khim.
##$REF VOLUME=20
##$REF PAGE=818
##$REF DATE=1984
##XYPOINTS=(XY..XY)
224.335,4.472
225.335,4.475
226.335,4.472
227.335,4.463
228.335,4.451
229.335,4.436
230.335,4.419
231.335,4.402
232.335,4.385
233.335,4.368
234.335,4.352
235.335,4.337
236.335,4.324
237.335,4.311
238.335,4.300
239.335,4.291
240.335,4.282
241.335,4.275
242.335,4.269
243.335,4.264
244.335,4.260
245.335,4.256
246.335,4.254
247.335,4.252
248.335,4.251
249.335,4.251
250.335,4.252
251.335,4.254
252.335,4.256
253.335,4.260
254.335,4.265
255.335,4.271
256.335,4.278
257.335,4.286
258.335,4.296
259.335,4.307
260.335,4.319
261.335,4.332
262.335,4.345
263.335,4.358
263.495,4.360
264.495,4.370
265.495,4.384
266.495,4.401
267.495,4.420
268.495,4.440
269.495,4.460
270.495,4.480
271.495,4.498
272.495,4.515
273.495,4.530
274.495,4.542
275.495,4.551
276.495,4.555
277.495,4.555
278.495,4.548
279.495,4.535
280.495,4.513
281.495,4.482
282.248,4.441
283.248,4.404
284.248,4.362
285.248,4.318
286.248,4.273
287.248,4.230
288.248,4.190
289.248,4.153
290.248,4.120
291.248,4.092
292.248,4.068
293.248,4.048
294.248,4.032
295.248,4.020
296.248,4.011
297.248,4.005
298.248,4.001
299.248,3.998
300.248,3.996
301.248,3.995
302.248,3.994
303.248,3.992
304.248,3.990
305.248,3.987
306.248,3.983
307.248,3.978
308.248,3.972
309.248,3.965
310.248,3.956
310.928,3.950
311.928,3.941
312.928,3.931
313.928,3.921
314.928,3.912
315.928,3.903
316.928,3.894
317.928,3.886
318.928,3.879
319.928,3.873
320.928,3.867
321.928,3.861
322.928,3.856
323.928,3.851
324.928,3.846
325.928,3.841
326.928,3.835
327.928,3.829
328.928,3.823
329.928,3.817
330.928,3.811
331.928,3.805
332.928,3.800
333.928,3.796
335.359,3.793
336.359,3.794
337.359,3.796
338.359,3.799
339.359,3.805
340.359,3.812
341.359,3.821
342.359,3.831
343.359,3.843
344.359,3.856
345.359,3.871
346.359,3.886
347.359,3.903
348.359,3.920
349.359,3.937
350.359,3.954
351.359,3.972
352.359,3.989
353.359,4.006
354.359,4.021
355.359,4.036
356.359,4.050
357.359,4.063
358.359,4.074
359.359,4.084
360.359,4.092
361.359,4.099
362.359,4.103
363.359,4.107
364.359,4.108
365.359,4.109
366.359,4.108
367.359,4.106
368.359,4.104
369.359,4.102
369.945,4.102
370.945,4.100
371.945,4.097
372.945,4.094
373.945,4.092
374.945,4.091
375.945,4.091
376.945,4.093
377.945,4.097
378.945,4.102
379.945,4.109
380.945,4.116
381.945,4.124
382.945,4.132
383.945,4.139
384.945,4.146
385.945,4.152
386.945,4.156
387.945,4.158
388.945,4.158
389.945,4.155
390.945,4.150
391.945,4.142
392.945,4.132
393.945,4.119
394.945,4.103
395.945,4.086
396.945,4.066
397.945,4.044
398.945,4.021
399.945,3.998
400.945,3.973
401.945,3.949
402.945,3.925
403.945,3.901
404.945,3.878
406.599,3.855
407.599,3.822
408.599,3.789
409.599,3.756
410.599,3.723
411.599,3.690
412.599,3.657
413.599,3.624
414.599,3.591
415.599,3.558
416.599,3.525
417.599,3.492
418.863,3.428
419.863,3.401
420.863,3.376
421.863,3.355
422.863,3.337
423.863,3.321
424.863,3.307
425.863,3.296
426.863,3.288
427.863,3.281
428.863,3.276
429.863,3.273
430.863,3.271
431.863,3.271
432.863,3.273
433.863,3.275
434.863,3.279
435.863,3.284
436.863,3.290
437.863,3.297
438.863,3.305
439.863,3.313
440.863,3.322
441.863,3.332
442.863,3.343
443.863,3.354
444.863,3.366
445.863,3.378
446.863,3.391
447.863,3.404
448.863,3.418
449.863,3.432
450.471,3.437
451.471,3.458
452.471,3.477
453.471,3.495
454.471,3.513
455.471,3.529
456.471,3.545
457.471,3.561
458.471,3.576
459.471,3.591
460.471,3.606
461.471,3.620
462.471,3.634
463.471,3.648
464.471,3.662
465.471,3.676
466.471,3.690
467.471,3.704
468.471,3.717
469.471,3.730
470.471,3.743
471.471,3.756
472.471,3.769
473.471,3.782
474.471,3.794
475.471,3.806
476.471,3.818
477.471,3.829
478.471,3.840
479.471,3.851
480.471,3.862
481.471,3.872
482.471,3.883
483.471,3.893
484.471,3.903
485.471,3.912
486.471,3.922
487.471,3.932
488.471,3.942
489.471,3.951
490.471,3.961
491.471,3.971
492.471,3.981
493.471,3.992
494.471,4.002
495.471,4.013
496.471,4.024
497.471,4.036
498.471,4.048
499.471,4.060
500.471,4.073
501.471,4.086
502.471,4.099
503.471,4.112
504.471,4.125
505.471,4.138
506.471,4.151
507.471,4.164
508.471,4.175
509.471,4.186
510.471,4.195
511.471,4.203
512.471,4.209
513.471,4.211
514.471,4.211
515.471,4.207
515.555,4.214
516.555,4.195
517.555,4.178
518.555,4.163
519.555,4.149
520.555,4.136
521.555,4.125
522.555,4.117
523.555,4.110
524.555,4.105
525.555,4.102
526.555,4.100
527.555,4.101
528.555,4.103
529.555,4.107
530.555,4.111
531.555,4.117
532.555,4.124
533.555,4.131
534.555,4.138
535.555,4.145
536.555,4.151
537.555,4.155
538.514,4.167
539.514,4.171
540.514,4.171
541.514,4.167
542.514,4.161
543.514,4.153
544.514,4.144
545.514,4.135
546.514,4.125
547.514,4.115
548.514,4.104
549.514,4.094
550.514,4.083
551.514,4.071
552.514,4.058
553.514,4.043
554.514,4.027
555.514,4.008
556.514,3.987
557.514,3.962
558.514,3.933
559.514,3.899
560.514,3.861
561.514,3.818
562.514,3.769
563.514,3.714
564.514,3.653
565.514,3.586
566.514,3.513
567.514,3.434
568.514,3.350
569.514,3.261
570.514,3.168
571.514,3.072
572.514,2.974
573.514,2.875
574.514,2.776
575.674,2.688
##END=
