##TITLE=Naphthalene, 2-methyl-
##JCAMP-DX=4.24
##DATA TYPE=UV/VIS SPECTRUM
##ORIGIN=INSTITUTE OF ENERGY PROBLEMS OF CHEMICAL PHYSICS, RAS
##OWNER=INEP CP RAS, NIST OSRD
Collection (C) 2007 copyright by the U.S. Secretary of Commerce
on behalf of the United States of America. All rights reserved.
##CAS REGISTRY NO=91-57-6
##MOLFORM=C11H10
##MP=34.4
##BP=241.1
##SOURCE REFERENCE=RAS UV No. 579
##$NIST SQUIB=1951ADA/RIC129-133
##$NIST SOURCE=TSGMTE
##SPECTROMETER/DATA SYSTEM=Beckman DU
##XUNITS=Wavelength (nm)
##YUNITS=Logarithm epsilon
##XFACTOR=1.000000
##YFACTOR=1.000000
##FIRSTX=300.5799
##LASTX=324.1026
##FIRSTY=2.27126
##MAXX=324.103
##MINX=300.58
##MAXY=3.16109
##MINY=0.289611
##NPOINTS=320
##$REF AUTHOR=Adams, N.G.; Richardson, D.M.
##$REF TITLE=Aromatic hydrocarbons in some diesel fuel fractions. Ultraviolet spectrometric identification
##$REF JOURNAL=Anal. Chem.
##$REF VOLUME=23
##$REF NUMBER=1
##$REF PAGE=129-133
##$REF DATE=1951
##XYPOINTS=(XY..XY)
300.5799,2.271262
300.6041,2.270051
300.6220,2.269155
300.6367,2.268417
300.6367,2.268417
300.8055,2.244523
301.1351,2.204823
301.7014,2.135406
301.7014,2.135406
301.8428,2.122629
301.9811,2.110010
302.1131,2.097707
302.1131,2.097707
302.1699,2.095573
302.2266,2.093440
302.2834,2.091306
302.2834,2.091306
302.4396,2.091306
302.5957,2.091306
302.7519,2.091306
302.7519,2.091306
302.9180,2.109088
303.0779,2.126870
303.2346,2.144653
303.2346,2.144653
303.3754,2.189105
303.5143,2.233538
303.6516,2.277931
303.7877,2.322265
303.9230,2.366519
304.0579,2.410676
304.0579,2.410676
304.2225,2.491289
304.3145,2.531121
304.4128,2.564315
304.4128,2.564315
304.4897,2.610591
304.5634,2.656743
304.6340,2.702621
304.7020,2.748076
304.7675,2.792957
304.8308,2.837116
304.8923,2.880403
304.9521,2.922668
305.0105,2.963762
305.0679,3.003535
305.1244,3.041837
305.1805,3.078520
305.2362,3.113432
305.2362,3.113432
305.3172,3.129581
305.3918,3.145414
305.4633,3.161088
305.4633,3.161088
305.6053,3.161088
305.7472,3.161088
305.8892,3.161088
305.8892,3.161088
305.9376,3.156742
306.0112,3.142911
306.1731,3.107742
306.1731,3.107742
306.2578,3.072177
306.3393,3.036612
306.4145,2.871593
306.4145,2.871593
306.4145,2.914481
306.4145,2.957685
306.4145,3.001048
306.4145,3.001048
306.4454,2.838722
306.4765,2.801907
306.5077,2.761894
306.5390,2.719433
306.5707,2.675268
306.6026,2.630149
306.6349,2.584821
306.6677,2.540031
306.7010,2.496528
306.7348,2.455057
306.7694,2.416366
306.7694,2.416366
306.8865,2.361541
307.0036,2.306916
307.1207,2.252425
307.2378,2.197999
307.2378,2.197999
307.5124,2.114934
307.6779,2.066944
307.8008,2.035758
307.9476,2.003105
307.9476,2.003105
308.0317,1.993174
308.0906,1.980081
308.1748,1.952604
308.1748,1.952604
308.3735,1.920806
308.5722,1.889325
308.7710,1.858002
308.7710,1.858002
308.9271,1.839008
309.0833,1.820330
309.2395,1.801810
309.2395,1.801810
309.3062,1.799702
309.3667,1.797753
309.4240,1.796120
309.4240,1.796120
309.6043,1.796120
309.7784,1.796120
309.9492,1.796120
309.9492,1.796120
310.0381,1.802363
310.1301,1.806236
310.3041,1.811057
310.3041,1.811057
310.4393,1.818275
310.5902,1.828971
310.8862,1.852312
310.8862,1.852312
311.1270,1.884109
311.3646,1.915590
311.5960,1.946913
311.5960,1.946913
311.6954,1.953105
311.7947,1.958979
311.8941,1.964696
311.8941,1.964696
311.9787,1.963484
312.0602,1.962588
312.1354,1.961850
312.1354,1.961850
312.1922,1.955659
312.2490,1.949785
312.3058,1.944068
312.3058,1.944068
312.4840,1.914484
312.6055,1.889957
312.7742,1.849467
312.7742,1.849467
312.9189,1.796495
313.0629,1.749191
313.2056,1.704687
313.3462,1.660115
313.4840,1.612607
313.4840,1.612607
313.6402,1.575119
313.7964,1.537947
313.9525,1.500933
313.9525,1.500933
314.1187,1.472560
314.3826,1.418581
314.7759,1.340892
314.7759,1.340892
315.0739,1.290248
315.3746,1.234826
315.6569,1.181109
315.8997,1.135587
316.0819,1.104743
316.0819,1.104743
316.1629,1.098554
316.2375,1.092679
316.3090,1.086961
316.3090,1.086961
316.4326,1.086961
316.5498,1.086961
316.6639,1.086961
316.6639,1.086961
316.7486,1.089096
316.8301,1.091231
316.9053,1.093362
316.9053,1.093362
316.9473,1.101187
316.9862,1.109011
317.0188,1.116837
317.0188,1.116837
317.1195,1.165408
317.2174,1.213844
317.3132,1.262178
317.4077,1.310445
317.5015,1.358675
317.5015,1.358675
317.5892,1.410772
317.6661,1.456545
317.7339,1.497087
317.7941,1.533490
317.8485,1.566847
317.8988,1.598250
317.9465,1.628792
317.9934,1.659565
318.0412,1.691662
318.0914,1.726176
318.1458,1.764199
318.2061,1.806823
318.2738,1.855142
318.3507,1.910247
318.4384,1.973231
318.4384,1.973231
318.4712,2.022946
318.5038,2.073566
318.5361,2.124832
318.5681,2.176486
318.5996,2.228267
318.6307,2.279918
318.6613,2.331179
318.6913,2.381792
318.7207,2.431497
318.7494,2.480036
318.7774,2.527150
318.8045,2.572579
318.8309,2.616065
318.8563,2.657350
318.8808,2.696174
318.9042,2.732277
318.9266,2.765403
318.9479,2.795290
318.9679,2.821680
318.9868,2.844315
319.0043,2.862936
319.0205,2.877283
319.0205,2.877283
319.0872,2.892194
319.1477,2.906947
319.2050,2.921383
319.2050,2.921383
319.2897,2.925625
319.3712,2.929708
319.4463,2.933475
319.4463,2.933475
319.6025,2.932263
319.7587,2.931367
319.9148,2.930630
319.9148,2.930630
319.9721,2.924097
320.1083,2.894960
320.4401,2.818246
320.4401,2.818246
320.4613,2.770945
320.4821,2.723644
320.5022,2.676343
320.5210,2.629042
320.5383,2.581741
320.5536,2.534440
320.5536,2.534440
320.5962,2.496768
320.6388,2.459254
320.6814,2.422056
320.6814,2.422056
320.6968,2.374258
320.7096,2.326459
320.7202,2.278660
320.7295,2.230861
320.7382,2.183062
320.7382,2.183062
320.8228,2.178821
320.9043,2.174737
320.9795,2.170970
320.9795,2.170970
320.9950,2.125385
321.0077,2.079937
321.0184,2.034590
321.0277,1.989312
321.0363,1.944068
321.0363,1.944068
321.0847,1.888766
321.1331,1.834145
321.1813,1.780255
321.2292,1.727141
321.2768,1.674853
321.3239,1.623438
321.3705,1.572945
321.4165,1.523420
321.4618,1.474912
321.5064,1.427467
321.5500,1.381135
321.5927,1.335963
321.6343,1.291999
321.6748,1.249289
321.7141,1.207882
321.7521,1.167828
321.7887,1.129171
321.8237,1.091962
321.8573,1.056245
321.8891,1.022069
321.9192,0.989485
321.9475,0.958540
321.9739,0.929276
321.9982,0.901752
322.0205,0.876004
322.0405,0.852083
322.0583,0.830043
322.0738,0.809923
322.0868,0.791775
322.0868,0.791775
322.1874,0.744410
322.2853,0.697081
322.3812,0.649812
322.4757,0.602657
322.5695,0.555626
322.5695,0.555626
322.6504,0.535737
322.7251,0.516006
322.7966,0.496584
322.7966,0.496584
322.8392,0.492355
322.8818,0.488269
322.9244,0.484499
322.9244,0.484499
322.9664,0.468849
323.0053,0.453196
323.0379,0.437560
323.0379,0.437560
323.1226,0.422623
323.2041,0.407680
323.2793,0.392750
323.2793,0.392750
323.5590,0.358106
323.8324,0.323768
324.1026,0.289611
324.1026,0.289611
##END=
