##TITLE=2-Naphthalenamine
##JCAMP-DX=4.24
##DATA TYPE=UV/VIS SPECTRUM
##ORIGIN=INSTITUTE OF ENERGY PROBLEMS OF CHEMICAL PHYSICS, RAS
##OWNER=INEP CP RAS, NIST OSRD
Collection (C) 2007 copyright by the U.S. Secretary of Commerce
on behalf of the United States of America. All rights reserved.
##CAS REGISTRY NO=91-59-8
##MOLFORM=C10H9N
##MP=113
##BP=366
##SOURCE REFERENCE=RAS UV No. 6569
##$NIST SQUIB=1972TAN/KOB2351-2366
##$NIST SOURCE=TSGMTE
##SPECTROMETER/DATA SYSTEM=n.i.g.
##XUNITS=Wavelength (nm)
##YUNITS=Logarithm epsilon
##XFACTOR=1.000000
##YFACTOR=1.000000
##FIRSTX=220.5540
##LASTX=358.3803
##FIRSTY=4.35372
##MAXX=358.38
##MINX=220.554
##MAXY=4.74708
##MINY=2.9831
##NPOINTS=275
##$REF AUTHOR=Tanizaki, Y.; Kobayashi, M.; Hoshi, T.
##$REF TITLE=An improvement in parameters of nitrogen and assignment of electronic spectra of aminoquinolines by dichroism analysis
##$REF JOURNAL=Spectrochim. Acta, Part A
##$REF VOLUME=28
##$REF PAGE=2351-2366
##$REF DATE=1972
##XYPOINTS=(XY..XY)
220.5540,4.353725
220.8990,4.358809
221.3052,4.367461
222.1208,4.386556
222.1208,4.386556
222.2916,4.396071
222.5655,4.406829
222.9969,4.414264
222.9969,4.414264
223.1930,4.423066
223.4087,4.431579
223.7022,4.443179
224.1317,4.460851
224.7557,4.486914
224.7557,4.486914
225.0729,4.495802
225.5064,4.510819
225.8236,4.519236
225.8236,4.519236
226.5317,4.544200
227.0807,4.562267
227.4932,4.575111
227.7920,4.584041
227.9996,4.590148
228.1387,4.594399
228.2321,4.597693
228.3023,4.600890
228.3023,4.600890
228.6033,4.607870
229.1023,4.622013
229.6012,4.635709
229.9023,4.642156
229.9023,4.642156
230.3944,4.655804
230.8159,4.667009
231.1773,4.676239
231.4890,4.683905
231.7613,4.690368
232.0047,4.695963
232.2294,4.700999
232.4459,4.705771
232.6646,4.710559
232.8958,4.715632
233.1500,4.721244
233.4375,4.727636
233.4375,4.727636
234.2325,4.734824
235.0836,4.740750
236.1941,4.747083
236.1941,4.747083
236.5382,4.747073
236.8822,4.747063
237.2263,4.747053
237.2263,4.747053
238.1739,4.740777
238.7706,4.733137
239.1543,4.724854
239.4633,4.716700
239.4633,4.716700
239.6063,4.710664
239.7493,4.704541
239.8924,4.698328
240.0356,4.692023
240.1789,4.685622
240.3223,4.679124
240.4658,4.672524
240.6094,4.665821
240.7532,4.659010
240.8971,4.652089
241.0411,4.645054
241.1853,4.637901
241.3297,4.630627
241.4742,4.623227
241.6189,4.615697
241.7637,4.608032
241.9088,4.600228
242.0541,4.592280
242.1996,4.584182
242.3453,4.575928
242.4913,4.567514
242.6374,4.558932
242.7839,4.550176
242.9305,4.541239
243.0775,4.532113
243.2247,4.522791
243.3722,4.513263
243.5200,4.503521
243.6680,4.493555
243.8164,4.483354
243.9651,4.472908
244.1141,4.462204
244.2635,4.451230
244.4132,4.439971
244.5632,4.428412
244.7136,4.416539
244.8643,4.404332
245.0155,4.391772
245.1670,4.378840
245.1670,4.378840
245.2069,4.369623
245.3213,4.353998
245.4882,4.333663
245.6859,4.310500
245.8925,4.286778
246.0863,4.265302
246.2454,4.249420
246.3480,4.242774
246.3480,4.242774
246.5045,4.222836
246.6627,4.201998
246.8247,4.180156
246.9921,4.157190
247.1668,4.132958
247.3506,4.107294
247.5453,4.079997
247.7528,4.050827
247.9748,4.019487
248.2131,3.985611
248.4696,3.948734
248.7461,3.908256
248.7461,3.908256
248.9088,3.901770
249.2126,3.878395
249.9179,3.811823
249.9179,3.811823
250.1922,3.800930
252.4616,4.246447
253.4082,4.225048
254.1513,4.209714
255.3278,4.187273
255.3278,4.187273
257.0339,4.178728
259.0126,4.176221
261.1009,4.167090
261.1009,4.167090
261.5766,4.167037
262.0559,4.166985
262.5426,4.166931
262.5426,4.166931
263.6107,4.183105
264.5822,4.201346
265.4590,4.220628
266.2429,4.240070
266.9359,4.258929
267.5397,4.276586
268.0563,4.292514
268.0563,4.292514
268.3091,4.295681
268.5691,4.298745
268.8327,4.301748
268.8327,4.301748
269.9051,4.295819
270.7587,4.281930
271.6819,4.265813
272.9629,4.253941
272.9629,4.253941
273.1609,4.255303
273.3626,4.256661
273.5716,4.258014
273.5716,4.258014
274.4149,4.275559
275.1548,4.292926
275.8523,4.309828
276.5686,4.326023
277.3649,4.341305
277.3649,4.341305
277.9497,4.352107
278.5814,4.367445
279.3585,4.379680
280.3792,4.381923
280.3792,4.381923
280.5953,4.356252
280.7828,4.333709
280.9463,4.314114
281.0906,4.297141
281.2205,4.282318
281.3405,4.269042
281.4553,4.256601
281.5698,4.244180
281.6885,4.230864
281.8162,4.215618
281.9575,4.197245
281.9575,4.197245
282.1634,4.190885
282.3993,4.179037
282.8671,4.150378
282.8671,4.150378
283.8667,4.131562
284.9276,4.126783
286.0109,4.146237
286.0109,4.146237
286.6873,4.145831
287.3709,4.145310
288.0582,4.144732
288.0582,4.144732
289.1225,4.168995
289.8395,4.196040
290.5558,4.220268
290.5558,4.220268
290.7530,4.220249
290.9538,4.220229
291.1619,4.220209
291.1619,4.220209
291.5183,4.202125
291.7049,4.186003
291.8819,4.157310
291.8819,4.157310
292.0026,4.148060
292.2113,4.124500
292.4784,4.089342
292.7749,4.045387
293.0713,3.996478
293.3384,3.948580
293.5471,3.910670
293.6678,3.894213
293.6678,3.894213
293.8819,3.839484
294.1036,3.790839
294.3876,3.724406
294.7888,3.595645
294.7888,3.595645
295.1054,3.571369
295.4928,3.529869
296.1328,3.459936
296.1328,3.459936
297.2761,3.408985
298.2640,3.366528
302.5500,3.335776
306.3312,3.359947
306.3312,3.359947
307.5556,3.408471
309.4281,3.452298
310.6837,3.477211
310.6837,3.477211
312.0719,3.515595
313.4617,3.551834
314.8529,3.586041
316.2455,3.618324
317.6394,3.648787
319.0345,3.677525
320.4306,3.704628
321.8278,3.730179
323.2259,3.754252
324.6249,3.776916
326.0245,3.798230
327.4249,3.818251
328.8258,3.837026
330.2271,3.854598
330.2271,3.854598
331.4641,3.876121
332.9318,3.888040
334.5507,3.892767
336.2412,3.892192
337.9239,3.887966
339.5192,3.881679
340.9476,3.874964
340.9476,3.874964
341.1929,3.871059
342.0757,3.868261
344.3527,3.864168
344.3527,3.864168
345.0129,3.851861
346.1234,3.834386
347.4036,3.809837
347.4036,3.809837
348.9436,3.784352
350.6538,3.733304
352.0480,3.680184
352.0480,3.680184
354.1602,3.548292
355.6240,3.423277
356.6086,3.310397
357.2833,3.209995
357.8175,3.111293
358.3803,2.983097
##END=
