##TITLE=2-Naphthalenethiol
##JCAMP-DX=4.24
##DATA TYPE=UV/VIS SPECTRUM
##ORIGIN=INSTITUTE OF ENERGY PROBLEMS OF CHEMICAL PHYSICS, RAS
##OWNER=INEP CP RAS, NIST OSRD
Collection (C) 2007 copyright by the U.S. Secretary of Commerce
on behalf of the United States of America. All rights reserved.
##CAS REGISTRY NO=91-60-1
##MOLFORM=C10H8S
##MP=81
##BP=288
##SOURCE REFERENCE=RAS UV No. 1181
##$NIST SQUIB=1957WIL/OFF1259-1264
##$NIST SOURCE=TSGMTE
##SPECTROMETER/DATA SYSTEM=n.i.g.
##XUNITS=Wavelength (nm)
##YUNITS=Logarithm epsilon
##XFACTOR=1.000000
##YFACTOR=1.000000
##FIRSTX=224.2038
##LASTX=339.1313
##FIRSTY=2.32619
##MAXX=339.131
##MINX=224.204
##MAXY=2.38568
##MINY=0.234467
##NPOINTS=216
##$REF AUTHOR=Williams, A.L.; Offenhauer, R.D.
##$REF TITLE=Acidic components of catalytically cracked distillate fuel oil
##$REF JOURNAL=Ind. Eng. Chem.
##$REF VOLUME=49
##$REF NUMBER=8
##$REF PAGE=1259-1264
##$REF DATE=1957
##XYPOINTS=(XY..XY)
224.2038,2.326187
225.4998,2.320933
225.9978,2.321016
227.1291,2.318827
228.2088,2.308667
229.3576,2.295193
229.3576,2.295193
229.3579,2.293108
229.3582,2.290847
229.3586,2.288500
229.4534,2.288515
229.5162,2.288526
229.5843,2.288537
229.6550,2.288549
230.7361,2.275735
232.1858,2.278645
233.4583,2.286511
234.8826,2.301229
234.8826,2.301229
235.0930,2.312814
235.3518,2.317581
235.7688,2.322638
236.9049,2.337789
238.1842,2.358475
239.3799,2.374424
240.7872,2.385682
242.9695,2.382894
243.8237,2.339171
244.8444,2.309999
246.2336,2.283427
246.2336,2.283427
246.7580,2.260137
247.1274,2.233847
247.4316,2.202909
247.8298,2.156908
248.2986,2.114855
248.7674,2.072803
249.2362,2.030751
249.7385,2.002879
249.9945,1.974062
250.4009,1.943520
250.7839,1.911311
250.7839,1.911311
251.2559,1.892126
251.6573,1.869166
251.9327,1.842597
253.1249,1.799878
253.3766,1.788327
253.7205,1.776265
254.1143,1.765787
254.1143,1.765787
254.8344,1.729099
255.2461,1.710385
255.7023,1.693603
256.7975,1.665829
256.9142,1.663646
257.0660,1.655607
257.3832,1.634821
257.3832,1.634821
258.1449,1.613189
259.0380,1.594117
260.0122,1.579347
261.3440,1.555156
262.1874,1.545043
263.0309,1.534844
263.8744,1.524470
264.0170,1.522525
264.4795,1.522602
264.9419,1.522679
265.4044,1.522756
266.9790,1.539554
268.0420,1.550478
269.1514,1.567885
270.0309,1.589278
270.0309,1.589278
270.6514,1.587297
271.2771,1.585139
271.9055,1.582896
273.1886,1.566966
273.6990,1.563390
274.2095,1.559640
274.7200,1.555802
274.8744,1.553859
275.6420,1.554875
276.4224,1.557820
277.2445,1.564095
278.1195,1.580778
279.2969,1.598955
280.6550,1.606923
281.8765,1.594395
283.8529,1.542356
284.6766,1.517002
285.5114,1.489112
286.4379,1.464038
287.2235,1.444480
287.4883,1.438458
287.7318,1.434620
288.1625,1.429675
288.3169,1.428125
289.6274,1.437486
291.0143,1.446598
292.3585,1.441789
293.2518,1.415951
293.9558,1.378051
294.6687,1.333588
295.1918,1.289883
295.8398,1.238804
296.3789,1.204879
296.8592,1.162932
297.2686,1.118833
297.5953,1.078450
297.5953,1.078450
297.6552,1.077281
297.7177,1.076109
297.7855,1.074937
297.7855,1.074937
297.8347,1.066270
297.8865,1.057514
297.9437,1.048586
298.6373,1.009323
298.7516,1.006149
298.8296,0.998508
298.9382,0.979844
298.9382,0.979844
299.4966,0.949839
299.9628,0.919031
300.3876,0.883224
300.3876,0.883224
300.4707,0.882832
300.5538,0.882348
300.6369,0.881693
300.6369,0.881693
300.6855,0.873710
300.7342,0.865548
300.7829,0.857302
301.7273,0.806275
302.3483,0.764445
302.8653,0.733390
303.4152,0.710972
304.1351,0.695087
305.1619,0.683605
306.6328,0.674402
306.6328,0.674402
307.2757,0.660315
307.9213,0.646149
308.5721,0.631809
308.5721,0.631809
309.4765,0.622680
309.8214,0.618446
309.9027,0.615487
310.0571,0.613937
310.1875,0.613958
310.3180,0.613979
310.4484,0.614000
311.3382,0.611001
312.3048,0.611670
313.2295,0.610415
314.2442,0.606371
314.3986,0.604820
315.1367,0.608719
315.4929,0.611330
315.7726,0.614887
316.6595,0.631576
317.2200,0.642366
317.8086,0.659384
318.5269,0.672827
318.5269,0.672827
318.7922,0.689877
319.0852,0.698179
319.5649,0.709228
319.5649,0.709228
319.9061,0.727395
319.9067,0.723053
319.9074,0.718618
319.9081,0.714011
320.5801,0.707664
321.3702,0.696173
321.9313,0.665131
321.9313,0.665131
322.2209,0.655359
322.5164,0.641573
323.0294,0.617671
323.0294,0.617671
323.4512,0.610575
323.6302,0.606424
323.7196,0.601636
323.7196,0.601636
324.2106,0.592843
324.7148,0.584569
325.2063,0.572360
325.4082,0.570415
325.4555,0.571604
325.5027,0.572802
325.5500,0.573985
326.8445,0.560815
327.2012,0.557218
327.5606,0.553434
327.9253,0.549579
327.9253,0.549579
328.7012,0.530136
329.4261,0.516892
330.4451,0.510625
330.6469,0.509081
331.7051,0.538435
332.5313,0.565399
333.1635,0.596311
333.6396,0.637540
334.2270,0.673859
334.4863,0.684423
334.7456,0.694798
335.0050,0.705094
335.0050,0.705094
335.8234,0.709609
337.6180,0.509404
338.4094,0.382395
339.1313,0.234467
##END=
