##TITLE=3,3'-Dichlorobenzidine
##JCAMP-DX=4.24
##DATA TYPE=UV/VIS SPECTRUM
##ORIGIN=INSTITUTE OF ENERGY PROBLEMS OF CHEMICAL PHYSICS, RAS
##OWNER=INEP CP RAS, NIST OSRD
Collection (C) 2007 copyright by the U.S. Secretary of Commerce
on behalf of the United States of America. All rights reserved.
##CAS REGISTRY NO=91-94-1
##MOLFORM=C12H10Cl2N2
##SOURCE REFERENCE=RAS UV No. 1043
##$NIST SQUIB=1953BIL/WYM5312-5314
##$NIST SOURCE=TSGMTE
##SPECTROMETER/DATA SYSTEM=n.i.g.
##XUNITS=Wavelength (nm)
##YUNITS=Logarithm epsilon
##XFACTOR=1.000000
##YFACTOR=1.000000
##FIRSTX=218.2127
##LASTX=302.3543
##FIRSTY=4.49672
##MAXX=302.354
##MINX=218.213
##MAXY=4.49672
##MINY=3.60265
##NPOINTS=173
##$REF AUTHOR=Bilbo, A.J.; Wyman, G.M.
##$REF TITLE=Steric hindrance to coplanarity in o-fluorobenzidines
##$REF JOURNAL=J. Am. Chem. Soc.
##$REF VOLUME=75
##$REF PAGE=5312-5314
##$REF DATE=1953
##XYPOINTS=(XY..XY)
218.2127,4.496722
218.4122,4.490706
218.6102,4.484603
218.7041,4.495521
218.8069,4.478413
218.8560,4.488201
219.0023,4.472131
219.0079,4.480755
219.1967,4.465756
219.3901,4.459285
219.4176,4.465175
219.5559,4.460932
219.5828,4.452715
219.6944,4.456601
219.7749,4.446044
219.8329,4.452202
219.9665,4.439267
220.0327,4.450108
220.1005,4.446059
220.1578,4.432382
220.1723,4.441972
220.2518,4.437847
220.3489,4.425385
220.4384,4.434470
220.4412,4.433698
220.4439,4.432925
220.4467,4.432151
220.5401,4.418273
220.7313,4.411043
220.9229,4.403689
221.1149,4.396209
221.2809,4.402588
221.2836,4.401757
221.2864,4.400925
221.2891,4.400091
221.3075,4.388597
221.4757,4.396406
221.4797,4.395198
221.4837,4.393959
221.4879,4.392663
221.5009,4.380849
221.6951,4.372961
221.6962,4.387569
221.7614,4.383756
221.8304,4.379910
221.8904,4.364927
221.9072,4.376032
222.0869,4.356741
222.0981,4.370735
222.1047,4.368561
222.1114,4.366376
222.1181,4.364179
222.2848,4.348399
222.4842,4.339894
222.6852,4.331220
222.7375,4.343589
222.8880,4.322370
222.9453,4.333132
223.0928,4.313337
223.1533,4.322390
223.2997,4.304113
223.3613,4.311354
223.5088,4.294690
223.5693,4.300016
223.7204,4.285060
223.7773,4.288367
223.9345,4.275213
224.1514,4.265139
224.3711,4.254829
224.4128,4.256992
224.5938,4.244269
224.6812,4.241341
224.8197,4.233450
224.9575,4.225066
225.0489,4.222356
225.2378,4.208077
225.2816,4.210975
225.5179,4.199290
225.7580,4.187286
226.0020,4.174945
226.2501,4.162247
226.5024,4.149170
226.7591,4.135693
227.0204,4.121789
227.2863,4.107430
227.5570,4.092587
227.8327,4.077224
228.2477,4.045089
228.9110,4.006394
229.4232,3.976476
229.6352,3.958952
231.3142,3.909150
232.3856,3.875850
233.1193,3.852879
233.7482,3.828663
235.9916,3.751967
237.4245,3.710878
238.4750,3.681839
240.0434,3.640172
242.0503,3.608568
242.5236,3.614149
243.0047,3.619667
243.4897,3.625119
243.4897,3.625119
243.7371,3.619414
243.9848,3.613309
244.0522,3.617757
244.1604,3.620712
244.2325,3.606951
244.2765,3.623495
244.3967,3.625950
244.3967,3.625950
244.4007,3.618590
244.4049,3.610776
244.4093,3.602654
244.5968,3.610985
245.4888,3.616927
246.3885,3.622796
247.2921,3.628590
249.8245,3.655421
251.0334,3.676270
252.2901,3.703102
253.4256,3.733195
254.2709,3.764297
256.0461,3.813622
256.7425,3.841093
257.4469,3.866752
258.1553,3.890895
259.6289,3.947834
260.4066,3.973109
261.1920,3.996995
261.9813,4.019638
263.7200,4.071994
264.2402,4.085587
264.7645,4.098661
265.2967,4.111305
266.5746,4.148548
267.2210,4.165014
267.8943,4.170487
267.9516,4.181428
267.9826,4.170248
268.0750,4.169919
268.1753,4.169547
268.7526,4.195098
270.3230,4.227877
271.6140,4.256023
272.1980,4.267207
272.5757,4.272166
273.7707,4.296539
274.1518,4.304019
274.9016,4.315615
276.2112,4.336045
277.4243,4.351067
278.2420,4.360054
279.0497,4.368424
279.9278,4.376080
280.9569,4.382930
282.3676,4.394661
283.6416,4.397036
285.0264,4.401059
286.6864,4.402747
288.3303,4.401693
289.5802,4.397582
290.6757,4.393219
292.5558,4.384782
294.4024,4.374704
295.4704,4.368121
296.5423,4.361408
297.6222,4.354532
299.5623,4.341555
300.4928,4.333449
301.4235,4.325156
302.3543,4.316638
##END=
