##TITLE=Piperazine, 1-phenyl-
##JCAMP-DX=4.24
##DATA TYPE=UV/VIS SPECTRUM
##ORIGIN=INSTITUTE OF ENERGY PROBLEMS OF CHEMICAL PHYSICS, RAS
##OWNER=INEP CP RAS, NIST OSRD
Collection (C) 2007 copyright by the U.S. Secretary of Commerce
on behalf of the United States of America. All rights reserved.
##CAS REGISTRY NO=92-54-6
##MOLFORM=C10H14N2
##BP=156-157/ 10 mm
##SOURCE REFERENCE=RAS UV No. 16980
##$NIST SQUIB=1986DAR/1099
##$NIST SOURCE=TYUGLMTE
##SPECTROMETER/DATA SYSTEM=unknown
##XUNITS=Wavelength (nm)
##YUNITS=Logarithm epsilon
##XFACTOR=1.0
##YFACTOR=1.0
##FIRSTX=229.63
##LASTX=271.73
##FIRSTY=1.901
##MAXX=271.73
##MINX=229.63
##MAXY=2.402
##MINY=0.757
##NPOINTS=139
##$REF AUTHOR=Darry-Henaut, A.; et al.
##$REF JOURNAL=Spectroscopic Letters
##$REF VOLUME=19
##$REF PAGE=1099
##$REF DATE=1986
##XYPOINTS=(XY..XY)
229.63,1.901
230.14,1.918
230.64,1.936
231.07,1.954
231.57,1.971
232.08,1.987
232.58,2.003
233.01,2.018
233.51,2.033
234.02,2.045
234.53,2.059
234.95,2.073
235.45,2.086
235.88,2.098
236.30,2.110
236.80,2.122
237.22,2.136
237.73,2.145
238.15,2.158
238.66,2.167
239.08,2.179
239.59,2.189
240.01,2.201
240.52,2.210
241.02,2.220
241.53,2.229
242.03,2.237
242.54,2.245
243.13,2.252
243.72,2.260
244.31,2.267
244.82,2.275
245.16,2.285
245.49,2.294
245.75,2.303
246.00,2.313
246.14,2.317
246.37,2.324
246.69,2.334
246.92,2.340
247.05,2.343
247.18,2.345
247.43,2.346
247.69,2.343
247.94,2.339
248.18,2.335
248.43,2.331
248.70,2.327
248.95,2.320
249.21,2.313
249.46,2.311
249.71,2.313
249.97,2.317
250.23,2.321
250.51,2.328
250.72,2.335
251.03,2.344
251.23,2.351
251.48,2.360
251.74,2.370
251.99,2.380
252.24,2.389
252.50,2.395
252.75,2.400
253.00,2.402
253.26,2.401
253.51,2.393
253.76,2.381
254.01,2.370
254.16,2.362
254.34,2.354
254.69,2.338
255.03,2.323
255.28,2.311
255.53,2.296
255.79,2.289
256.04,2.290
256.23,2.297
256.47,2.309
256.77,2.331
257.05,2.351
257.30,2.359
257.56,2.359
257.81,2.353
258.09,2.344
258.30,2.337
258.56,2.327
258.82,2.317
259.08,2.305
259.33,2.295
259.58,2.284
259.84,2.272
260.09,2.256
260.34,2.237
260.60,2.219
260.85,2.192
261.10,2.169
261.35,2.144
261.61,2.096
261.86,2.059
262.11,2.039
262.37,2.041
262.62,2.055
262.87,2.100
263.13,2.139
263.38,2.156
263.63,2.173
263.89,2.175
264.14,2.173
264.39,2.155
264.64,2.119
264.90,2.086
265.15,2.053
265.40,2.014
265.66,1.959
265.91,1.912
266.16,1.863
266.42,1.801
266.67,1.740
266.92,1.680
267.18,1.630
267.43,1.569
267.68,1.511
267.94,1.460
268.19,1.402
268.47,1.348
268.70,1.300
268.94,1.253
269.20,1.204
269.42,1.166
269.67,1.125
269.96,1.075
270.21,1.035
270.44,0.989
270.68,0.944
270.97,0.890
271.21,0.841
271.48,0.794
271.73,0.757
##END=
