##TITLE=Thioacetic acid, o-ethyl ester
##JCAMP-DX=4.24
##DATA TYPE=UV/VIS SPECTRUM
##ORIGIN=INSTITUTE OF ENERGY PROBLEMS OF CHEMICAL PHYSICS, RAS
##OWNER=INEP CP RAS, NIST OSRD
Collection (C) 2007 copyright by the U.S. Secretary of Commerce
on behalf of the United States of America. All rights reserved.
##CAS REGISTRY NO=926-67-0
##MOLFORM=C4H8OS
##BP=109-110
##SOURCE REFERENCE=RAS UV No. 19965
##$NIST SQUIB=1966JANb14/1
##$NIST SOURCE=TYUGLMTE
##SPECTROMETER/DATA SYSTEM=Beckman DU
##XUNITS=Wavelength (nm)
##YUNITS=Logarithm epsilon
##XFACTOR=1.0
##YFACTOR=1.0
##FIRSTX=228.44
##LASTX=414.29
##FIRSTY=3.657
##MAXX=414.29
##MINX=228.44
##MAXY=3.919
##MINY=0.139
##NPOINTS=203
##$REF AUTHOR=Janssen, M.J.
##$REF JOURNAL=UV atlas of organic compouds
##$REF VOLUME=1
##$REF PAGE=B14/1
##$REF DATE=1966
##XYPOINTS=(XY..XY)
228.44,3.657
229.00,3.674
229.34,3.691
229.79,3.709
230.24,3.726
230.70,3.743
231.27,3.760
231.73,3.777
232.31,3.792
232.89,3.809
233.48,3.824
234.18,3.839
234.89,3.854
235.60,3.867
236.44,3.880
237.28,3.891
238.13,3.901
239.11,3.910
240.22,3.914
241.34,3.919
242.47,3.916
243.48,3.910
244.50,3.899
245.53,3.889
246.44,3.878
247.23,3.865
247.91,3.853
248.53,3.838
249.03,3.827
249.62,3.814
250.21,3.797
250.83,3.780
251.50,3.762
252.04,3.745
252.59,3.724
253.14,3.702
253.69,3.681
254.24,3.657
254.80,3.627
255.36,3.604
255.92,3.578
256.48,3.548
257.05,3.520
257.61,3.492
258.19,3.462
258.76,3.430
259.33,3.402
259.91,3.368
260.49,3.329
261.08,3.293
261.67,3.254
262.25,3.218
262.85,3.179
263.44,3.139
264.04,3.096
264.64,3.059
265.24,3.021
265.85,2.971
266.45,2.929
267.06,2.869
267.68,2.821
268.29,2.772
268.91,2.712
269.54,2.656
270.16,2.605
270.79,2.549
271.42,2.481
272.05,2.416
272.69,2.346
273.33,2.271
273.97,2.211
274.62,2.119
275.27,2.048
275.92,1.966
276.58,1.894
277.23,1.821
277.90,1.748
278.56,1.675
279.23,1.606
279.90,1.542
280.57,1.456
281.25,1.388
281.93,1.317
282.62,1.244
283.30,1.178
283.99,1.101
284.69,1.039
285.38,0.968
286.09,0.886
286.79,0.822
287.50,0.730
288.21,0.657
288.92,0.593
289.64,0.522
290.36,0.466
291.09,0.415
291.82,0.366
292.55,0.331
293.29,0.291
294.59,0.239
295.15,0.222
295.90,0.205
297.03,0.190
298.74,0.186
300.28,0.192
301.64,0.205
302.82,0.220
304.00,0.235
305.00,0.250
306.00,0.267
307.01,0.282
307.82,0.299
308.84,0.316
309.66,0.334
310.49,0.351
311.53,0.368
312.15,0.385
312.99,0.402
313.83,0.419
314.47,0.436
315.32,0.454
316.18,0.471
316.82,0.488
317.68,0.505
318.34,0.524
318.99,0.541
319.65,0.559
320.53,0.576
321.19,0.595
321.85,0.612
322.75,0.629
323.42,0.646
324.32,0.664
325.22,0.681
325.91,0.700
326.82,0.717
327.51,0.736
328.43,0.754
329.13,0.771
330.30,0.788
331.00,0.805
331.94,0.822
332.65,0.839
333.61,0.856
334.57,0.874
335.29,0.891
336.26,0.908
337.23,0.925
337.96,0.942
339.19,0.959
339.93,0.976
341.18,0.994
341.93,1.013
343.19,1.030
344.20,1.047
345.22,1.064
346.51,1.081
347.54,1.099
348.84,1.116
350.15,1.133
351.47,1.148
352.80,1.163
354.15,1.178
355.77,1.193
357.41,1.208
359.33,1.221
361.28,1.231
363.26,1.242
365.54,1.251
368.14,1.257
370.77,1.259
373.45,1.253
375.86,1.242
377.99,1.229
379.64,1.216
381.21,1.200
382.60,1.184
383.43,1.174
384.15,1.164
384.76,1.157
385.41,1.148
386.12,1.139
386.78,1.131
388.07,1.114
389.36,1.090
390.67,1.066
391.98,1.036
393.31,1.006
394.64,0.974
395.98,0.936
397.33,0.901
398.69,0.863
400.06,0.822
401.36,0.780
402.84,0.724
404.22,0.666
405.63,0.606
407.05,0.541
408.48,0.475
409.91,0.394
411.36,0.310
412.82,0.226
414.29,0.139
##END=
