##TITLE=[1,1'-Biphenyl]-4-amine
##JCAMP-DX=4.24
##DATA TYPE=UV/VIS SPECTRUM
##ORIGIN=INSTITUTE OF ENERGY PROBLEMS OF CHEMICAL PHYSICS, RAS
##OWNER=INEP CP RAS, NIST OSRD
Collection (C) 2007 copyright by the U.S. Secretary of Commerce
on behalf of the United States of America. All rights reserved.
##CAS REGISTRY NO=92-67-1
##MOLFORM=C12H11N
##MP=53.5
##BP=302
##SOURCE REFERENCE=RAS UV No. 3816
##$NIST SQUIB=1955GRA59-61
##$NIST SOURCE=TSGMTE
##SPECTROMETER/DATA SYSTEM=n.i.g.
##XUNITS=Wavelength (nm)
##YUNITS=Logarithm epsilon
##XFACTOR=1.000000
##YFACTOR=1.000000
##FIRSTX=350.2045
##LASTX=219.1102
##FIRSTY=1.08521
##MAXX=350.205
##MINX=219.11
##MAXY=4.22166
##MINY=1.08521
##NPOINTS=176
##$REF AUTHOR=Grammaticakis, P.
##$REF TITLE=Remarques sur l'absorption des derives du diphenyle dans l'ultraviolet moyen et le visible
##$REF JOURNAL=Compt. Rend.
##$REF VOLUME=241
##$REF PAGE=59-61
##$REF DATE=1955
##XYPOINTS=(XY..XY)
350.2045,1.085205
349.3698,1.137063
348.2291,1.228952
348.2291,1.228952
347.6736,1.257602
346.8918,1.315284
346.1134,1.372965
345.5647,1.401614
345.5647,1.401614
344.5152,1.480388
343.6275,1.546581
342.8850,1.601528
342.2719,1.646562
341.7732,1.683018
341.3741,1.712231
341.0599,1.735536
340.8167,1.754265
340.6302,1.769754
340.4865,1.783336
340.3718,1.796346
340.2725,1.810120
340.2725,1.810120
338.9230,1.906398
337.7172,1.993062
336.6447,2.070621
335.6958,2.139588
334.8612,2.200471
334.1321,2.253782
333.5000,2.300033
332.9565,2.339733
332.4937,2.373393
332.1039,2.401524
331.7794,2.424637
331.5128,2.443242
331.2966,2.457850
331.1237,2.468973
330.9867,2.477120
330.8786,2.482802
330.7922,2.486531
330.7205,2.488817
330.6769,2.514884
330.6563,2.490170
330.5927,2.491101
330.5927,2.491101
330.5797,2.534763
329.8304,2.552220
329.8304,2.552220
329.6353,2.569719
329.4534,2.585885
329.2770,2.601219
329.0989,2.616221
328.9116,2.631391
328.7076,2.647229
328.4796,2.664236
328.2202,2.682913
327.9223,2.703759
327.5788,2.727275
327.1824,2.753960
326.7263,2.784317
326.2036,2.818845
325.6078,2.858044
324.9323,2.902415
324.1710,2.952457
323.3178,3.008672
322.3671,3.071559
321.3136,3.141620
320.1524,3.219354
320.1524,3.219354
319.8886,3.219387
319.6253,3.219420
319.3624,3.219452
319.3624,3.219452
318.9876,3.219499
318.9820,3.210379
318.9764,3.201140
318.9706,3.191663
318.6391,3.251704
317.9076,3.283765
317.1675,3.315643
316.4185,3.347346
315.6605,3.378882
314.8930,3.410259
314.1159,3.441484
313.3289,3.472566
312.5318,3.503514
311.7243,3.534333
310.9061,3.565034
310.0772,3.595623
309.2372,3.626110
308.3860,3.656500
307.5234,3.686804
306.6492,3.717028
305.7633,3.747181
304.8654,3.777270
303.9556,3.807305
303.0335,3.837291
302.0992,3.867238
301.1525,3.897154
300.1932,3.927046
300.1932,3.927046
298.9516,3.958700
297.7170,3.988268
296.4791,4.015836
295.2274,4.041489
293.9523,4.065312
292.6440,4.087390
291.2935,4.107809
289.8921,4.126653
288.4314,4.144009
286.9035,4.159961
285.3011,4.174596
283.6173,4.187997
281.8456,4.200250
279.9805,4.211442
278.0168,4.221656
278.0168,4.221656
275.7561,4.220076
273.8792,4.215805
272.2017,4.208380
270.5499,4.197342
268.7581,4.182228
266.6699,4.162575
266.6699,4.162575
265.1820,4.140781
263.7176,4.118771
262.2740,4.096329
260.8485,4.073241
259.4385,4.049291
258.0415,4.024264
256.6551,3.997946
256.6551,3.997946
254.9917,3.953544
253.8087,3.921928
252.9114,3.898437
252.1134,3.878407
251.2334,3.857175
250.0956,3.830079
250.0956,3.830079
250.0216,3.825769
249.9353,3.821296
249.8144,3.815900
249.6368,3.808819
249.3803,3.799293
249.0234,3.786562
248.5447,3.769865
247.9237,3.748440
247.1407,3.721528
246.1770,3.688369
245.0155,3.648200
243.6406,3.600262
242.0387,3.543793
240.1984,3.478034
238.1106,3.402225
238.1106,3.402225
236.6457,3.375274
235.4371,3.365101
234.3145,3.369942
233.1148,3.388038
231.6814,3.417627
231.6814,3.417627
230.7377,3.444552
229.8000,3.471478
228.8686,3.498403
227.9436,3.525329
227.0251,3.552256
226.1134,3.579182
225.2085,3.606109
224.3106,3.633035
224.3106,3.633035
223.5527,3.663052
222.7998,3.693060
222.0520,3.723049
221.3092,3.753010
220.5713,3.782934
219.8384,3.812810
219.1102,3.842631
##END=
