##TITLE=7-chloro-3-(1-propenyl)-2H-1,2,4-benzothiadiazine, 1,1-dioxide
##JCAMP-DX=4.24
##DATA TYPE=UV/VIS SPECTRUM
##ORIGIN=INSTITUTE OF ENERGY PROBLEMS OF CHEMICAL PHYSICS, RAS
##OWNER=INEP CP RAS, NIST OSRD
Collection (C) 2007 copyright by the U.S. Secretary of Commerce
on behalf of the United States of America. All rights reserved.
##CAS REGISTRY NO=92628-99-4
##MOLFORM=C10H9ClN2O2S
##MP=282-283
##SOURCE REFERENCE=RAS UV No. 23040
##$NIST SQUIB=1984FED/907
##$NIST SOURCE=TYUGLMTE
##SPECTROMETER/DATA SYSTEM=Specord UV-Vis
##XUNITS=Wavelength (nm)
##YUNITS=Logarithm epsilon
##XFACTOR=1.0
##YFACTOR=1.0
##FIRSTX=202.951
##LASTX=337.279
##FIRSTY=4.169
##MAXX=337.279
##MINX=202.951
##MAXY=4.219
##MINY=3.346
##NPOINTS=92
##$REF AUTHOR=Fedenko, V.S.; et al.
##$REF JOURNAL=Khim. Geterosikl. Soedin.
##$REF PAGE=907
##$REF DATE=1984
##XYPOINTS=(XY..XY)
202.951,4.169
204.451,4.172
205.951,4.177
207.451,4.183
208.951,4.190
210.451,4.198
211.951,4.204
213.451,4.211
214.951,4.215
216.451,4.218
217.951,4.219
219.451,4.216
220.951,4.208
222.451,4.193
222.926,4.184
224.426,4.160
225.926,4.141
227.426,4.129
228.926,4.124
230.426,4.125
232.064,4.131
233.475,4.137
234.924,4.145
236.455,4.152
237.955,4.160
239.455,4.167
240.955,4.171
242.455,4.170
243.955,4.164
245.455,4.155
246.955,4.143
248.455,4.128
249.955,4.111
251.455,4.091
252.955,4.068
254.455,4.041
255.955,4.012
257.508,3.977
259.008,3.944
260.508,3.909
262.008,3.871
263.508,3.834
265.008,3.799
266.508,3.768
268.008,3.744
269.508,3.727
271.008,3.719
272.508,3.720
274.008,3.729
275.508,3.745
277.008,3.764
278.508,3.782
280.008,3.794
280.862,3.804
281.725,3.815
283.279,3.834
284.779,3.848
286.279,3.861
287.779,3.872
289.279,3.883
290.779,3.891
292.279,3.898
293.779,3.904
295.279,3.906
296.779,3.907
298.279,3.905
299.779,3.901
301.279,3.894
302.779,3.884
304.279,3.872
305.779,3.858
307.279,3.841
308.779,3.821
310.279,3.800
311.779,3.777
313.279,3.752
314.779,3.726
316.279,3.700
317.779,3.672
319.279,3.645
320.779,3.617
322.279,3.590
323.779,3.563
325.279,3.537
326.779,3.513
328.279,3.489
329.779,3.466
331.279,3.443
332.779,3.421
334.279,3.398
335.779,3.373
337.279,3.346
##END=
