##TITLE=2,5-Diphenyloxazolex
##JCAMP-DX=4.24
##DATA TYPE=UV/VIS SPECTRUM
##ORIGIN=INSTITUTE OF ENERGY PROBLEMS OF CHEMICAL PHYSICS, RAS
##OWNER=INEP CP RAS, NIST OSRD
Collection (C) 2007 copyright by the U.S. Secretary of Commerce
on behalf of the United States of America. All rights reserved.
##CAS REGISTRY NO=92-71-7
##MOLFORM=C15H11NO
##MP=74
##BP=360
##SOURCE REFERENCE=RAS UV No. 377
##$NIST SQUIB=1960DRE/ENG492-497
##$NIST SOURCE=TSGMTE
##SPECTROMETER/DATA SYSTEM=n.i.g.
##XUNITS=Wavelength (nm)
##YUNITS=Logarithm epsilon
##XFACTOR=1.000000
##YFACTOR=1.000000
##FIRSTX=256.5431
##LASTX=345.5761
##FIRSTY=3.89594
##MAXX=345.576
##MINX=256.543
##MAXY=4.37766
##MINY=3.06568
##NPOINTS=457
##$REF AUTHOR=Drefahl, G.; Engelmann, U.
##$REF TITLE=Untersuchungen uber stilbene, XXIX. Steilbenyl-oxazole
##$REF JOURNAL=Chem. Ber.
##$REF VOLUME=93
##$REF PAGE=492-497
##$REF DATE=1960
##XYPOINTS=(XY..XY)
256.5431,3.895944
256.8091,3.895869
257.0833,3.898834
257.3826,3.898751
257.6559,3.901378
258.2211,3.901220
258.4944,3.903848
258.7604,3.903774
259.0679,3.906729
259.3339,3.906655
259.6072,3.909283
260.1725,3.909125
260.7191,3.914380
261.2843,3.914222
261.2925,3.917261
261.5585,3.917187
261.8651,3.919805
262.3971,3.919656
262.4044,3.922358
262.9696,3.922200
262.9779,3.925240
263.2439,3.925165
263.5504,3.927784
263.8164,3.927709
263.8237,3.930411
264.6632,3.933218
264.6705,3.935920
264.9365,3.935846
265.2098,3.938473
265.5091,3.938390
265.5173,3.941429
265.7833,3.941355
266.0566,3.943982
266.3559,3.943899
266.3632,3.946601
266.6292,3.946526
267.2100,3.952110
267.4760,3.952035
267.4833,3.954737
267.7493,3.954663
268.0226,3.957290
268.3218,3.957207
268.3301,3.960246
268.5961,3.960172
269.1759,3.965418
269.4419,3.965343
269.4502,3.968383
269.7161,3.968308
269.7235,3.971010
270.2887,3.970852
270.2960,3.973554
270.5620,3.973480
270.5693,3.976182
270.8436,3.979147
271.1428,3.979063
271.1501,3.981765
271.6821,3.981616
272.2629,3.987200
272.2702,3.989901
272.5362,3.989827
272.5435,3.992529
272.8428,3.992445
273.3903,3.998038
273.3976,4.000740
273.7051,4.003696
273.9711,4.003621
273.9784,4.006323
274.2444,4.006249
274.2517,4.008951
274.5177,4.008876
274.5250,4.011578
274.8325,4.014534
274.8398,4.017236
275.1058,4.017162
275.1131,4.019863
275.3791,4.019789
275.3874,4.022829
275.6866,4.022745
275.6939,4.025447
275.9599,4.025372
275.9672,4.028074
276.2332,4.028000
276.2415,4.031039
277.0956,4.039250
277.1029,4.041952
277.4021,4.041868
277.4094,4.044570
278.2303,4.052790
278.2376,4.055492
279.0917,4.063703
279.0999,4.066742
279.3992,4.066659
279.4065,4.069361
279.6798,4.071988
279.6880,4.075028
279.9540,4.074953
279.9614,4.077655
280.2606,4.077572
280.2752,4.082975
280.5495,4.085940
280.5568,4.088642
280.8228,4.088568
280.8301,4.091270
281.0961,4.091195
281.1043,4.094235
281.4109,4.096853
281.4182,4.099555
281.6842,4.099480
281.6924,4.102520
281.9584,4.102446
281.9657,4.105147
282.2723,4.107766
282.2796,4.110467
282.5538,4.113433
282.5611,4.116134
282.8271,4.116060
282.8345,4.118762
283.1419,4.121718
283.1492,4.124420
283.6968,4.130012
283.7114,4.135416
284.0107,4.135332
284.0189,4.138372
284.2922,4.140999
284.2995,4.143701
284.5655,4.143627
284.5811,4.149368
284.8471,4.149294
284.8617,4.154697
285.1609,4.154614
285.1692,4.157653
285.4425,4.160281
285.4580,4.166022
285.7313,4.168649
285.7387,4.171351
286.0379,4.171268
286.0535,4.177009
286.3194,4.176935
286.3341,4.182338
286.6001,4.182264
286.6083,4.185303
286.9149,4.187922
286.9377,4.196365
287.2110,4.198992
287.2266,4.204733
287.8074,4.210317
288.0734,4.210242
288.0807,4.212944
288.3540,4.215572
288.3696,4.221313
288.6429,4.223941
288.6502,4.226642
288.9577,4.229598
289.2236,4.229524
289.4970,4.232151
289.5198,4.240594
289.8191,4.240511
289.8264,4.243213
290.3739,4.248805
290.6732,4.248722
290.6878,4.254125
290.9538,4.254051
290.9693,4.259792
291.2353,4.259718
291.2427,4.262420
291.5419,4.262336
291.5501,4.265376
291.8161,4.265301
291.8234,4.268003
292.3710,4.273596
292.3783,4.276298
292.6775,4.276214
292.6849,4.278916
292.9509,4.278841
292.9582,4.281543
293.2242,4.281469
293.2324,4.284508
293.5390,4.287127
293.8050,4.287052
293.8123,4.289754
294.0783,4.289680
294.0865,4.292719
294.3857,4.292636
294.3931,4.295338
294.9406,4.300930
295.2066,4.300856
295.2139,4.303558
295.7947,4.309141
296.0607,4.309067
296.0680,4.311769
296.3673,4.311685
296.3746,4.314387
296.6406,4.314312
296.6479,4.317014
296.9139,4.316940
296.9221,4.319979
297.2213,4.319896
297.2287,4.322598
297.4947,4.322523
297.5020,4.325225
298.0672,4.325067
298.0754,4.328107
298.3414,4.328032
298.3488,4.330734
299.2029,4.338945
299.4689,4.338871
299.7422,4.341498
300.0414,4.341414
300.0487,4.344116
300.3147,4.344042
300.3230,4.347081
300.5889,4.347007
300.5963,4.349709
301.1615,4.349551
301.7423,4.355134
302.2743,4.354986
302.2816,4.357688
302.5476,4.357613
302.8542,4.360231
303.1201,4.360157
303.3944,4.363122
304.2256,4.362890
304.2329,4.365592
305.3302,4.365285
305.9109,4.370869
306.7422,4.370636
307.0155,4.373264
307.8467,4.373032
308.1533,4.375650
310.3477,4.375037
310.6211,4.377664
312.0102,4.374572
312.0175,4.377274
313.1074,4.374266
313.6580,4.368704
314.4893,4.368472
314.7470,4.365358
315.0057,4.362582
315.0130,4.365284
316.0956,4.359574
316.1030,4.362275
316.6609,4.359416
316.9113,4.353600
316.9186,4.356302
317.2106,4.353516
317.4692,4.350740
317.7270,4.347627
317.7352,4.350666
318.2922,4.347469
318.5509,4.344692
318.8096,4.341916
318.8169,4.344618
319.3666,4.338719
319.3748,4.341758
319.6253,4.335943
319.9245,4.335859
320.4337,4.327267
320.4419,4.330307
321.2347,4.315890
321.2420,4.318592
321.7771,4.307289
321.7844,4.309991
322.0284,4.301811
322.0431,4.307215
322.5708,4.293210
322.5781,4.295912
322.8213,4.287395
322.8368,4.293136
323.0799,4.284619
323.0873,4.287320
323.3563,4.276092
323.3710,4.281496
323.6141,4.272978
323.6223,4.276018
323.8581,4.264798
323.8728,4.270202
324.1491,4.261675
324.1574,4.264715
324.4005,4.256197
324.4151,4.261601
324.6510,4.250382
324.6583,4.253084
324.9347,4.244557
324.9502,4.250298
325.1860,4.239079
325.1933,4.241781
325.4365,4.233263
325.4520,4.239005
325.6878,4.227785
325.7025,4.233189
325.9715,4.221961
325.9788,4.224662
326.2302,4.219184
326.2375,4.221886
326.4733,4.210667
326.4880,4.216071
326.7570,4.204842
326.7726,4.210583
327.0084,4.199364
327.0230,4.204768
327.2661,4.196250
327.2744,4.199290
327.5508,4.190763
327.5654,4.196167
327.8012,4.184948
327.8085,4.187649
328.0517,4.179132
328.0672,4.184873
328.3103,4.176356
328.3176,4.179058
328.5867,4.167829
328.6023,4.173570
328.8381,4.162351
328.8527,4.167755
329.0885,4.156536
329.0958,4.159237
329.3722,4.150711
329.3804,4.153750
329.6236,4.145233
329.6309,4.147935
329.8740,4.139417
329.8813,4.142119
330.1577,4.133592
330.1660,4.136632
330.4091,4.128114
330.4237,4.133518
330.6595,4.122299
330.6751,4.128040
330.9441,4.116811
330.9588,4.122215
331.2019,4.113698
331.2101,4.116737
331.4533,4.108220
331.4679,4.113623
331.7037,4.102404
331.7193,4.108145
331.9956,4.099619
332.0030,4.102321
332.2388,4.091101
332.2534,4.096505
332.4974,4.088325
332.5048,4.091027
332.7811,4.082500
332.7885,4.085202
333.0316,4.076685
333.0398,4.079724
333.2830,4.071207
333.2976,4.076610
333.5667,4.065382
333.5822,4.071123
334.0685,4.054088
334.0840,4.059830
334.3522,4.048263
334.3604,4.051303
334.6035,4.042786
334.6108,4.045487
334.8540,4.036970
334.8695,4.042711
335.1044,4.031154
335.1200,4.036896
335.3817,4.022965
335.4037,4.031071
335.6395,4.019851
335.6477,4.022891
335.8908,4.014374
335.9055,4.019777
336.1517,4.000106
336.1818,4.011250
336.4021,3.994290
336.4177,4.000031
336.6462,3.986110
336.6608,3.991514
336.9143,3.974544
336.9372,3.982987
337.1574,3.966027
337.1803,3.974470
337.3932,3.954807
337.4161,3.963250
337.6623,3.943579
337.6852,3.952022
337.9054,3.935061
337.9283,3.943505
338.1413,3.923842
338.1641,3.932285
338.3688,3.909584
338.3999,3.921066
338.6379,3.898355
338.6608,3.906798
338.8664,3.884434
338.8966,3.895579
339.0940,3.870175
339.1242,3.881320
339.3704,3.861649
339.3859,3.867390
339.5760,3.839285
339.6290,3.858872
339.8109,3.827728
339.8338,3.836171
340.0498,3.805354
340.1028,3.824942
340.2774,3.791095
340.3084,3.802578
340.5214,3.782916
340.5360,3.788319
340.7490,3.768657
340.7792,3.779802
341.0180,3.757429
341.0409,3.765872
341.2456,3.743170
341.2758,3.754315
341.4814,3.731951
341.5043,3.740394
341.7423,3.717683
341.7734,3.729165
341.9708,3.703762
342.0009,3.714907
342.1910,3.686801
342.2294,3.700986
342.4674,3.678274
342.4830,3.684016
342.6804,3.658612
342.7261,3.675498
342.9006,3.641652
342.9390,3.655836
343.1541,3.624682
343.1926,3.638866
343.3525,3.599616
343.4128,3.621906
343.5425,3.571510
343.6102,3.596502
343.7244,3.540366
343.8003,3.568397
343.8791,3.486922
344.0163,3.537580
344.1305,3.481444
344.1378,3.484145
344.3050,3.447597
344.3883,3.478330
344.4909,3.405636
344.5970,3.444812
344.6581,3.369087
344.7486,3.402522
344.7494,3.304507
344.8509,3.133124
344.9158,3.365973
344.9188,3.256467
345.0329,3.200331
345.0404,3.301384
345.1242,3.135751
345.1773,3.155339
345.1774,3.253691
345.2761,3.191813
345.2916,3.197554
345.3174,3.096491
345.3329,3.102233
345.5002,3.065684
345.5761,3.093715
##END=
