##TITLE=Benzidine
##JCAMP-DX=4.24
##DATA TYPE=UV/VIS SPECTRUM
##ORIGIN=INSTITUTE OF ENERGY PROBLEMS OF CHEMICAL PHYSICS, RAS
##OWNER=INEP CP RAS, NIST OSRD
Collection (C) 2007 copyright by the U.S. Secretary of Commerce
on behalf of the United States of America. All rights reserved.
##CAS REGISTRY NO=92-87-5
##MOLFORM=C12H12N2
##MP=120
##BP=401
##SOURCE REFERENCE=RAS UV No. 638
##$NIST SQUIB=1951CAR/NEL1002-1007
##$NIST SOURCE=TSGMTE
##SPECTROMETER/DATA SYSTEM=n.i.g.
##XUNITS=Wavelength (nm)
##YUNITS=Logarithm epsilon
##XFACTOR=1.000000
##YFACTOR=1.000000
##FIRSTX=221.4510
##LASTX=319.1121
##FIRSTY=3.98891
##MAXX=319.112
##MINX=221.451
##MAXY=4.38852
##MINY=3.59211
##NPOINTS=352
##$REF AUTHOR=Carlin, R.B.; Nelb, R.G.; Odioso, R.C.
##$REF TITLE=The benzidine rearrangement. III. Kinetics of the rearrangements of hydrazobenzene
##$REF JOURNAL=J. Am. Chem. Soc.
##$REF VOLUME=73
##$REF PAGE=1002-1007
##$REF DATE=1951
##XYPOINTS=(XY..XY)
221.4510,3.988913
221.4757,3.987716
221.4975,3.986517
221.5133,3.985317
222.3919,3.963402
222.4829,3.961602
222.5739,3.959795
222.6648,3.957981
224.5304,3.898019
224.5549,3.896336
224.5766,3.894780
224.5925,3.893286
225.7469,3.862741
225.8860,3.859265
226.0194,3.855906
226.1498,3.852596
228.0316,3.797681
228.1226,3.795042
228.2136,3.792388
228.3046,3.789717
233.4639,3.655406
233.5199,3.653369
233.6082,3.651298
233.8048,3.647399
237.7100,3.601343
237.9792,3.601108
238.2542,3.600867
238.5323,3.600624
240.3199,3.592606
240.5056,3.592440
240.6912,3.592275
240.8769,3.592109
242.5404,3.602914
242.7402,3.603488
242.9430,3.604314
243.1518,3.605261
243.1518,3.605261
243.1694,3.605990
243.1929,3.606966
243.2195,3.608064
244.3391,3.618940
244.4226,3.618870
244.5120,3.618795
244.6044,3.618718
246.2761,3.645414
246.3865,3.646005
246.5029,3.646823
246.6223,3.647752
246.6223,3.647752
246.6398,3.648412
246.6633,3.649297
246.6899,3.650294
248.1507,3.677762
248.2178,3.678342
248.2881,3.679134
248.3642,3.680028
249.9675,3.722170
250.0797,3.725719
250.1980,3.729427
250.3192,3.733198
250.3192,3.733198
250.3196,3.733751
250.3200,3.734494
250.3205,3.735329
251.7936,3.776218
251.8612,3.777453
251.9320,3.778854
252.0087,3.780332
253.1384,3.819652
253.1804,3.821830
253.2254,3.824150
253.2764,3.826532
253.2764,3.826532
253.3862,3.829326
253.4602,3.831592
253.5618,3.835261
254.6860,3.863493
254.8236,3.868791
254.9643,3.874092
255.1109,3.879463
255.1109,3.879463
255.1113,3.879858
255.1117,3.880388
255.1123,3.880986
256.2526,3.909615
256.3388,3.912428
256.4309,3.915282
256.5261,3.918241
256.5261,3.918241
256.5265,3.918602
256.5269,3.919087
256.5274,3.919634
257.3864,3.943118
257.4725,3.945723
257.5647,3.948367
257.6599,3.951109
257.6599,3.951109
257.6602,3.951444
257.6607,3.951894
257.6612,3.952401
258.9506,3.991625
259.0479,3.995105
259.0841,3.996666
259.0902,3.997664
259.8045,4.018531
259.8996,4.020334
259.9947,4.022227
260.0899,4.024161
260.0899,4.024161
260.0903,4.024445
260.0907,4.024825
260.0913,4.025253
261.2361,4.059700
261.3308,4.061080
261.4255,4.062456
261.5202,4.063827
261.5202,4.063827
261.5219,4.065082
261.5237,4.066422
261.5255,4.067801
262.2415,4.086756
262.3412,4.089553
262.3946,4.090804
262.4473,4.091595
262.4473,4.091595
262.4755,4.092765
262.5038,4.094014
262.5322,4.095301
263.2482,4.113117
263.2662,4.113653
263.2901,4.114227
263.3171,4.114877
263.3171,4.114877
263.3375,4.116997
263.3638,4.119105
263.3930,4.121202
264.2442,4.139652
264.2893,4.140484
264.3403,4.141351
264.3944,4.142289
264.3944,4.142289
264.3960,4.143337
264.3978,4.144456
264.3997,4.145609
265.3865,4.164782
265.4929,4.167007
265.5325,4.168018
265.5390,4.168685
266.5284,4.188387
266.6244,4.190161
266.7205,4.191927
266.8165,4.193686
269.4026,4.248571
269.4476,4.249219
269.4986,4.249894
269.5527,4.250625
270.3429,4.266915
270.3614,4.267541
270.3859,4.268193
270.4135,4.268899
271.2713,4.285118
271.3159,4.285505
271.3665,4.285944
271.4201,4.286409
271.4201,4.286409
271.4218,4.287161
271.4236,4.287964
271.4255,4.288793
272.2133,4.302701
272.3130,4.304404
272.3664,4.305168
272.4191,4.305651
273.3526,4.318902
273.4524,4.320543
273.5057,4.321278
273.5584,4.321744
274.5556,4.333437
274.6620,4.334948
274.7016,4.335634
274.7081,4.336088
277.2419,4.356731
277.3276,4.357561
277.4193,4.358434
277.5140,4.359326
278.5706,4.367481
278.7709,4.368149
278.8610,4.368393
278.9181,4.368421
280.0383,4.375425
280.1330,4.376093
280.2277,4.376760
280.3224,4.377425
281.7832,4.382708
281.8503,4.382823
281.9206,4.382979
281.9967,4.383156
283.6522,4.386826
283.6968,4.387133
283.7474,4.387480
283.8010,4.387848
283.8010,4.387848
283.8939,4.387835
283.9867,4.387821
284.0796,4.387808
285.7269,4.388519
285.8197,4.388506
285.9125,4.388493
286.0054,4.388480
287.7850,4.384329
287.8773,4.384129
287.9697,4.383949
288.0622,4.383812
288.1933,4.383219
288.3264,4.383200
288.4624,4.383180
288.6044,4.383160
290.1132,4.376963
290.1387,4.376769
290.1614,4.376597
290.1782,4.376468
290.1782,4.376468
290.2966,4.376260
290.4120,4.376074
290.5217,4.375931
290.5217,4.375931
290.6127,4.375236
290.7037,4.374540
290.7947,4.373843
292.5605,4.364385
292.7173,4.363464
292.8742,4.362564
293.0311,4.361707
296.6055,4.332552
296.6567,4.332006
296.7050,4.331459
296.7474,4.330913
298.7509,4.308764
298.7509,4.308764
298.7513,4.308911
298.7518,4.309108
298.7523,4.309331
298.8932,4.307374
299.0324,4.305980
299.1658,4.304583
300.0823,4.287459
300.2240,4.285759
300.3627,4.284054
300.4956,4.282343
301.4203,4.268183
301.4712,4.267637
301.5244,4.266784
301.6256,4.264889
302.7543,4.246048
302.7543,4.246048
302.7546,4.246218
302.7551,4.246446
302.7556,4.246703
302.8447,4.244852
302.9353,4.243682
303.0259,4.242568
305.5453,4.192739
305.5496,4.192100
305.5856,4.191089
305.6843,4.188832
306.4777,4.172010
306.5019,4.170919
306.5232,4.169861
306.5387,4.168871
306.5387,4.168871
306.5864,4.167965
306.6282,4.167128
306.6671,4.166325
307.4075,4.148603
307.4160,4.147772
307.4816,4.145789
307.6605,4.140916
308.5943,4.118369
308.5985,4.117610
308.6346,4.116410
308.7333,4.113728
309.3794,4.092764
309.3794,4.092764
309.3798,4.093006
309.3802,4.093331
309.3808,4.093696
309.4694,4.090734
309.5596,4.088779
309.6497,4.086857
310.3134,4.067692
310.3379,4.066554
310.3596,4.065503
310.3755,4.064495
310.3755,4.064495
310.4267,4.063482
310.4750,4.062467
310.5174,4.061451
310.5174,4.061451
310.5416,4.060036
310.5628,4.058618
310.5781,4.057196
311.3745,4.036602
311.3745,4.036602
311.3748,4.036877
311.3753,4.037247
311.3758,4.037663
311.4649,4.034663
311.5554,4.032763
311.6461,4.030951
312.5785,4.000530
312.6032,3.999365
312.6250,3.998197
312.6408,3.997029
313.5109,3.967817
313.5351,3.966070
313.5564,3.964373
313.5719,3.962783
313.5719,3.962783
313.6195,3.961325
313.6613,3.959978
313.7003,3.958683
314.7019,3.925522
314.7019,3.925522
314.7022,3.925877
314.7027,3.926354
314.7032,3.926892
314.8179,3.922524
314.9311,3.919631
315.0385,3.916784
315.8940,3.879880
315.8940,3.879880
315.8943,3.880275
315.8948,3.880805
315.8953,3.881402
315.9844,3.877096
316.0750,3.874362
316.1656,3.871750
317.9041,3.805176
318.0086,3.800885
318.0791,3.798373
318.1758,3.795503
318.1758,3.795503
318.2230,3.792875
318.2644,3.790236
318.3028,3.787582
318.8434,3.763216
318.8434,3.763216
318.8438,3.763733
318.8442,3.764426
318.8447,3.765206
318.9381,3.756982
319.0077,3.753039
319.1121,3.748030
##END=
