##TITLE=Phenazine
##JCAMP-DX=4.24
##DATA TYPE=UV/VIS SPECTRUM
##ORIGIN=INSTITUTE OF ENERGY PROBLEMS OF CHEMICAL PHYSICS, RAS
##OWNER=INEP CP RAS, NIST OSRD
Collection (C) 2007 copyright by the U.S. Secretary of Commerce
on behalf of the United States of America. All rights reserved.
##CAS REGISTRY NO=92-82-0
##MOLFORM=C12H8N2
##MP=176.5
##SOURCE REFERENCE=RAS UV No. 3183
##$NIST SQUIB=1962VAN/REY1659-1664
##$NIST SOURCE=TSGMTE
##SPECTROMETER/DATA SYSTEM=n.i.g.
##XUNITS=Wavelength (nm)
##YUNITS=Logarithm epsilon
##XFACTOR=1.000000
##YFACTOR=1.000000
##FIRSTX=202.7803
##LASTX=343.1227
##FIRSTY=4.05993
##MAXX=343.123
##MINX=202.78
##MAXY=4.59544
##MINY=3.12795
##NPOINTS=334
##$REF AUTHOR=VanAllan, J.A.; Reynolds, G.A.; Adel, R.E.
##$REF TITLE=Polynuclear heterocycles. I. 1H-benzo[b]pyrido[1,2,3-mn]phenoxazin-1-one and related substances
##$REF JOURNAL=J. Org. Chem.
##$REF VOLUME=27
##$REF PAGE=1659-1664
##$REF DATE=1962
##XYPOINTS=(XY..XY)
202.7803,4.059931
203.1044,4.049195
204.1234,4.030030
205.0878,4.003749
205.3890,3.991797
205.6404,3.982142
205.9065,3.972127
206.1800,3.961803
207.9105,3.949542
208.3278,3.952886
208.7447,3.956063
209.1614,3.959146
210.6505,3.979804
211.0089,3.985419
211.3749,3.990960
211.7559,3.996428
213.9276,4.016381
214.5159,4.019212
215.1113,4.021900
215.7216,4.024509
218.2387,4.035264
219.0611,4.036934
219.8908,4.038539
220.7352,4.040017
223.3833,4.049086
224.0379,4.051252
224.6998,4.053350
225.3763,4.055321
228.6059,4.074046
228.8547,4.076905
229.1035,4.079746
229.3523,4.082568
231.1845,4.099061
231.1911,4.100664
231.1976,4.102260
231.2041,4.103851
233.0952,4.133138
233.2142,4.136710
233.3407,4.140251
233.4823,4.143762
234.6120,4.160435
234.7469,4.165308
234.8966,4.170038
235.0535,4.174674
235.8336,4.188223
235.9628,4.193399
236.0993,4.198473
236.2505,4.203405
237.0212,4.214344
237.1569,4.220436
237.3000,4.226404
237.4577,4.232214
238.2284,4.242459
238.3576,4.247031
238.4941,4.251518
238.6453,4.255886
239.2612,4.268109
239.4386,4.273302
239.6875,4.276566
240.2213,4.280711
240.2213,4.280711
240.2649,4.287704
240.3081,4.294521
240.3510,4.301202
240.3510,4.301202
241.2056,4.309309
241.8079,4.322357
242.1982,4.335672
242.4167,4.345069
242.9978,4.354925
243.1902,4.357819
243.3899,4.360666
243.6043,4.363437
243.6865,4.374280
243.8108,4.377024
243.9422,4.379697
244.0885,4.382325
244.5394,4.392093
244.5655,4.395347
244.5914,4.398551
244.6168,4.401681
245.0338,4.411031
245.0599,4.414146
245.0858,4.417215
245.1113,4.420214
245.5519,4.427993
245.5749,4.430642
245.5976,4.433227
245.6200,4.435773
245.6975,4.444453
245.7199,4.446930
245.7423,4.449394
245.7647,4.451844
246.0166,4.460696
246.0883,4.463645
246.1748,4.466529
246.2685,4.469372
246.3367,4.476451
246.3628,4.479132
246.3887,4.481775
246.4142,4.484361
246.8208,4.491083
246.8439,4.493374
246.8665,4.495612
246.8890,4.497819
247.3398,4.505326
247.3622,4.507480
247.3847,4.509624
247.4071,4.511757
247.4846,4.519056
247.5107,4.521487
247.5366,4.523886
247.5620,4.526233
247.7068,4.539327
247.7271,4.537214
247.7622,4.535052
247.8046,4.532860
248.1237,4.546157
248.1873,4.547868
248.2348,4.555798
248.2657,4.549553
248.3513,4.551196
248.3513,4.551196
248.3550,4.556508
248.4902,4.557198
248.6324,4.557852
248.6366,4.551498
248.9368,4.551781
249.1269,4.570870
249.2441,4.552028
249.4354,4.576697
249.7440,4.582447
250.0525,4.588122
250.8136,4.594578
251.1743,4.595436
253.2578,4.591784
253.2643,4.592297
253.2706,4.592793
253.2765,4.593256
254.2419,4.586303
254.4964,4.584112
254.7657,4.581892
255.0422,4.579626
255.5228,4.574481
255.5969,4.572086
255.6783,4.569660
255.7304,4.422661
255.7343,4.464585
255.7594,4.426023
255.7658,4.552005
255.7658,4.552005
255.7744,4.567185
255.7883,4.429359
255.7888,4.388559
255.8070,4.462018
255.8118,4.472712
255.8119,4.391459
255.8173,4.432669
255.8299,4.508388
255.8313,4.474741
255.8346,4.394287
255.8398,4.320274
255.8425,4.549708
255.8494,4.330212
255.8507,4.476739
255.8570,4.397071
255.8577,4.312027
255.8697,4.478686
255.8838,4.342983
255.8845,4.440262
255.9062,4.304200
255.9106,4.506227
255.9106,4.443176
255.9345,4.406551
255.9365,4.446047
255.9400,4.359550
255.9565,4.487495
255.9606,4.409699
255.9620,4.448853
255.9668,4.459873
255.9796,4.489805
255.9865,4.412799
255.9880,4.295420
255.9986,4.504035
256.0022,4.492062
256.0120,4.415828
256.0175,4.369875
256.0246,4.494286
256.0366,4.547100
256.0395,4.457278
256.0399,4.372816
256.0410,4.552520
256.0522,4.529152
256.0623,4.375736
256.0752,4.531251
256.0847,4.378637
256.0979,4.533303
256.1012,4.501790
256.1063,4.284192
256.1063,4.284192
256.1203,4.535327
256.2031,4.554348
256.2071,4.543068
256.2665,4.517560
256.2823,4.519045
256.2982,4.520524
256.3141,4.521999
256.3840,4.208019
256.3840,4.208019
256.3911,4.559025
256.4869,4.218723
256.6101,4.548620
256.6137,4.277596
256.6247,4.549897
256.6390,4.551135
256.6530,4.552351
256.6549,4.233777
256.7944,4.250260
256.8119,4.265609
257.1608,4.198895
257.2812,4.177174
257.2812,4.177174
257.3303,4.188880
257.4491,4.176515
257.6242,4.175769
257.8141,4.174976
257.8141,4.174976
257.9799,4.155290
258.1025,4.118018
258.1168,4.034920
258.1457,4.043084
258.1625,4.145158
258.1747,4.051097
258.2036,4.058965
258.3708,4.005641
258.3983,4.018041
258.4488,3.999829
258.5118,4.090013
258.5183,4.136396
258.5183,4.136396
258.6989,3.995842
258.9454,4.066550
258.9561,3.969376
259.0368,3.961854
259.1247,3.954127
259.2274,3.946111
259.5139,3.914560
259.6011,3.908514
259.6956,3.902299
259.8048,3.895827
260.7702,3.860023
260.8566,3.848993
260.9577,3.837485
261.0661,3.825565
261.7210,3.797753
262.1649,3.773462
262.4176,3.762780
262.6958,3.757454
263.3167,3.724753
263.5712,3.708564
263.8406,3.691612
264.1171,3.673695
265.3104,3.630032
265.7971,3.614082
266.0121,3.603470
266.1397,3.589194
267.6283,3.526006
267.9600,3.509135
268.3069,3.491572
268.6612,3.473262
270.6929,3.388229
271.1980,3.369620
271.7181,3.349876
272.2453,3.328582
280.4256,3.134622
281.0039,3.133631
281.5897,3.132624
282.1906,3.131589
284.2951,3.127945
285.2316,3.148794
286.1828,3.167794
287.1413,3.185569
294.0068,3.402294
294.4646,3.409797
294.9376,3.417160
295.4181,3.424394
298.1188,3.480137
298.7750,3.490947
299.4311,3.501494
300.0872,3.511792
302.6043,3.545877
303.3131,3.549643
304.0185,3.556948
304.7274,3.560620
307.4048,3.583654
308.1681,3.588399
308.9463,3.592921
309.7316,3.597067
312.5685,3.610494
313.2609,3.612711
313.9679,3.614596
314.6823,3.616314
317.8730,3.614508
318.4513,3.614180
319.0371,3.613848
319.6380,3.613506
322.0632,3.597806
322.2377,3.600392
322.4192,3.602638
322.6157,3.604704
322.6157,3.604704
322.8907,3.599499
323.1809,3.594221
323.4786,3.588874
323.8180,3.588670
324.2932,3.588384
324.7684,3.588097
325.2436,3.587811
328.0226,3.554339
328.5283,3.549935
329.0413,3.545299
329.5691,3.540233
332.1923,3.516208
332.9924,3.500423
333.7999,3.484038
334.6226,3.466998
336.7311,3.432506
337.4716,3.423209
338.2194,3.413455
338.9819,3.402956
341.9157,3.329370
342.3183,3.322066
342.7207,3.314327
343.1227,3.305814
##END=
