##TITLE=Phenothiazine
##JCAMP-DX=4.24
##DATA TYPE=UV/VIS SPECTRUM
##ORIGIN=INSTITUTE OF ENERGY PROBLEMS OF CHEMICAL PHYSICS, RAS
##OWNER=INEP CP RAS, NIST OSRD
Collection (C) 2007 copyright by the U.S. Secretary of Commerce
on behalf of the United States of America. All rights reserved.
##CAS REGISTRY NO=92-84-2
##MOLFORM=C12H9NS
##MP=187.5
##BP=371
##SOURCE REFERENCE=RAS UV No. 318
##$NIST SQUIB=1962VAN/REY1659-1664
##$NIST SOURCE=TSGMTE
##SPECTROMETER/DATA SYSTEM=n.i.g.
##XUNITS=Wavelength (nm)
##YUNITS=Logarithm epsilon
##XFACTOR=1.000000
##YFACTOR=1.000000
##FIRSTX=201.1779
##LASTX=353.3885
##FIRSTY=4.08496
##MAXX=353.389
##MINX=201.178
##MAXY=4.59764
##MINY=2.92714
##NPOINTS=293
##$REF AUTHOR=VanAllan, J.A.; Reynolds, G.A.; Adel, R.E.
##$REF TITLE=Polynuclear heterocycles. I. 1H-benzo[b]pyrido[1,2,3-mn]phenoxazin-1-one and related substances
##$REF JOURNAL=J. Org. Chem.
##$REF VOLUME=27
##$REF PAGE=1659-1664
##$REF DATE=1962
##XYPOINTS=(XY..XY)
201.1779,4.084957
201.1912,4.092306
201.5550,4.082247
202.1988,4.062035
202.5674,4.054115
202.5759,4.059178
202.8978,4.048638
202.9069,4.054083
203.9188,4.023658
204.2401,4.011857
204.2534,4.020540
204.6135,4.006167
204.6178,4.009002
205.6212,3.968964
205.6344,3.978538
205.9516,3.962291
205.9558,3.965426
207.7070,3.941955
208.0507,3.945198
208.3901,3.945157
208.7767,3.948777
210.5513,3.974562
210.8955,3.977951
210.8997,3.980974
211.2816,3.980932
211.2858,3.983935
211.6252,3.983898
211.6342,3.990212
213.4427,4.008083
214.5167,4.016732
214.8561,4.016697
215.5864,4.022483
218.3999,4.030681
219.1212,4.030609
219.1254,4.033289
219.8467,4.033218
220.1909,4.036180
220.5303,4.036147
220.9164,4.038756
223.3862,4.044089
223.7299,4.046655
224.0693,4.046622
224.4554,4.049169
224.7948,4.049137
225.1390,4.051993
225.5208,4.051957
227.6640,4.064683
228.3518,4.069871
228.3561,4.072319
228.7379,4.072285
229.4258,4.077383
229.4300,4.079790
230.5130,4.092120
230.5172,4.094447
231.2475,4.099289
231.2566,4.104138
231.5960,4.104110
231.6045,4.108625
232.6964,4.124796
232.7007,4.126954
233.0873,4.129340
233.1006,4.135980
233.4442,4.138058
233.4485,4.140152
233.7927,4.142469
234.1629,4.157251
234.5489,4.159226
234.5580,4.163453
234.9016,4.165404
234.9149,4.171519
235.2591,4.173675
235.6627,4.183446
235.6807,4.191408
236.0244,4.193237
236.0419,4.200795
237.1381,4.215679
237.1694,4.228435
237.5131,4.230115
237.9304,4.244083
238.2741,4.245704
238.3006,4.255823
239.0574,4.268981
239.0707,4.273806
239.4144,4.275319
239.4234,4.278559
239.7670,4.280056
239.7983,4.291076
239.8026,4.292549
240.1754,4.289392
240.1887,4.293997
240.2109,4.301624
240.5546,4.303044
240.5679,4.307506
240.9121,4.309084
240.9651,4.326428
241.3512,4.327767
241.3777,4.336160
241.7171,4.336143
241.7214,4.337471
242.0656,4.338944
242.0831,4.344361
243.1793,4.355107
243.2148,4.365642
243.6275,4.374542
243.6407,4.378330
243.9844,4.379521
243.9976,4.383266
244.3726,4.393132
244.4034,4.401508
244.7900,4.402777
244.8207,4.410971
244.8520,4.419150
245.1957,4.420234
245.2312,4.429317
245.2620,4.437029
245.2975,4.445771
245.6057,4.438069
245.6412,4.446790
245.6677,4.453186
245.7032,4.461611
246.0893,4.462593
246.1159,4.468762
246.1514,4.476893
246.1689,4.480843
246.5131,4.481902
246.5216,4.483800
246.5614,4.492586
246.5884,4.498460
246.9676,4.506946
246.9984,4.513405
247.3420,4.514278
247.3686,4.519759
247.4083,4.527853
247.4439,4.534959
247.4752,4.541121
247.8215,4.534105
247.8920,4.547901
247.9010,4.549633
247.9185,4.552976
247.9631,4.561371
248.2404,4.549623
248.2580,4.552966
248.3067,4.562152
248.3242,4.565401
249.1208,4.579088
249.4603,4.579078
249.4650,4.579933
249.8087,4.580681
249.8395,4.586138
250.2261,4.586968
250.6095,4.594636
250.6228,4.596922
250.9664,4.597642
251.3483,4.597632
258.2756,3.994345
258.2931,4.006234
258.3021,4.012234
258.3419,4.037757
258.6060,3.988054
258.6150,3.994308
258.6373,4.009385
258.8924,3.949279
258.9189,3.969080
259.2610,3.938983
259.2700,3.945979
259.5606,3.906649
259.5696,3.914182
259.8783,3.887878
259.8958,3.903013
260.5550,3.846682
260.5640,3.855319
260.8769,3.829355
260.8902,3.842505
261.8931,3.781820
261.9021,3.791832
262.2617,3.766594
262.2707,3.776959
262.5878,3.750822
262.5968,3.761566
263.5912,3.675314
263.6220,3.717372
263.9307,3.675238
264.6519,3.675076
265.6638,3.598356
265.6728,3.613540
265.9990,3.590929
266.0032,3.598265
266.3718,3.574810
266.3761,3.582420
266.7070,3.566966
267.7364,3.504759
268.0674,3.486213
268.0716,3.495528
268.4444,3.475355
268.4492,3.486081
268.7754,3.455480
268.7796,3.465470
269.4452,3.433192
271.1964,3.347439
271.2006,3.360208
271.5310,3.332442
271.9087,3.318621
271.9129,3.332253
272.2438,3.304368
275.0600,3.202328
275.3946,3.181235
275.7340,3.180997
276.1116,3.161277
276.7905,3.160780
277.1676,3.137478
279.6241,3.113931
281.0242,3.112785
281.3594,3.089657
284.9234,3.086566
285.2670,3.109295
285.9883,3.108699
286.3320,3.130326
287.0532,3.129758
289.5363,3.228105
289.8805,3.246678
290.2624,3.246448
291.3363,3.294187
292.0152,3.293820
293.4328,3.349781
294.1631,3.376020
294.5025,3.375868
295.2322,3.399185
295.5717,3.399041
298.1014,3.464681
298.7803,3.464434
299.1669,3.475294
299.5063,3.475173
299.5106,3.484725
299.8500,3.484606
300.2361,3.493825
300.2408,3.504109
302.7149,3.530693
303.0543,3.530587
303.4404,3.538888
303.7798,3.538784
303.7841,3.547046
304.5054,3.546829
304.8496,3.555844
305.1890,3.555743
307.3188,3.570893
307.6630,3.579427
308.7237,3.579130
308.7280,3.586666
309.7887,3.586374
312.6403,3.601220
314.4223,3.600746
314.7660,3.607830
317.9481,3.606995
319.3482,3.606627
319.6834,3.599342
322.5170,3.582855
322.5303,3.605790
324.9736,3.574557
324.9778,3.582172
328.1424,3.548909
328.4818,3.548807
328.8589,3.539422
329.5377,3.539213
330.2505,3.521989
332.7023,3.502341
333.0799,3.493043
333.4193,3.492927
333.7540,3.482252
334.1316,3.472509
334.1358,3.482118
337.2962,3.429200
337.6308,3.416813
337.9702,3.416675
338.6830,3.393685
339.4043,3.393375
339.7347,3.367712
339.7389,3.379907
342.1822,3.325999
342.8945,3.295671
343.5691,3.280442
343.5733,3.295306
343.9510,3.280229
344.2861,3.264635
346.7289,3.190602
347.4502,3.190107
347.7854,3.170836
348.1672,3.170562
348.5024,3.150383
351.6574,2.992393
352.3363,2.991658
352.7139,2.960771
353.0533,2.960376
353.3885,2.927145
##END=
