##TITLE=Xanthene
##JCAMP-DX=4.24
##DATA TYPE=UV/VIS SPECTRUM
##ORIGIN=INSTITUTE OF ENERGY PROBLEMS OF CHEMICAL PHYSICS, RAS
##OWNER=INEP CP RAS, NIST OSRD
Collection (C) 2007 copyright by the U.S. Secretary of Commerce
on behalf of the United States of America. All rights reserved.
##CAS REGISTRY NO=92-83-1
##MOLFORM=C13H10O
##MP=100.5
##BP=311
##SOURCE REFERENCE=RAS UV No. 342
##$NIST SQUIB=1960DAV/KIR2169-2178
##$NIST SOURCE=TSGMTE
##SPECTROMETER/DATA SYSTEM=n.i.g.
##XUNITS=Wavelength (nm)
##YUNITS=Logarithm epsilon
##XFACTOR=1.000000
##YFACTOR=1.000000
##FIRSTX=213.7709
##LASTX=292.7988
##FIRSTY=4.28711
##MAXX=292.799
##MINX=213.771
##MAXY=4.29403
##MINY=3.01502
##NPOINTS=133
##$REF AUTHOR=Davies, J.E.; Kirkaldy, D.; Roberts, J.C.
##$REF TITLE=Studies in mycological chemistry. Part VII. Sterigmatocystin, a metabolite of aspergillus versicolor (vuillemin) tiraboschi
##$REF JOURNAL=J. Chem. Soc.
##$REF PAGE=2169-2178
##$REF DATE=1960
##XYPOINTS=(XY..XY)
213.7709,4.287110
213.7774,4.294028
216.1818,4.202719
216.1943,4.216149
217.4139,4.161947
217.4235,4.172121
217.8647,4.155001
217.8682,4.158664
218.6400,4.114663
218.6461,4.121175
219.0431,4.110976
219.8596,4.060462
219.8722,4.073891
220.2440,4.036833
220.6853,4.019714
220.6978,4.033143
221.9083,3.969174
221.9209,3.982604
222.3083,3.962232
222.3114,3.965487
222.6832,3.928430
223.1214,3.908054
223.1374,3.925146
223.8963,3.867309
224.2902,3.853855
224.2997,3.864029
225.1098,3.806596
225.1193,3.816770
225.4812,3.769131
225.9259,3.755674
225.9355,3.765848
226.3008,3.721872
226.3103,3.732046
227.9112,3.650960
227.9173,3.657472
232.1190,3.640533
232.1251,3.647044
232.5824,3.647017
232.9924,3.650655
233.4270,3.680746
233.4305,3.684408
233.8400,3.687640
235.1419,3.721341
235.1515,3.731515
235.6118,3.734743
235.6152,3.738406
236.9171,3.772107
237.3267,3.775338
237.3332,3.782257
238.6286,3.809040
238.6351,3.815958
239.9335,3.845997
239.9400,3.852915
245.8943,3.916861
246.3008,3.916836
246.7551,3.913553
247.5646,3.909842
247.5680,3.913504
248.0158,3.903303
248.0219,3.909814
250.0991,3.903178
250.4991,3.896235
250.5021,3.899491
255.1230,3.841829
255.1295,3.848747
255.5169,3.828374
255.5265,3.838548
255.9109,3.814920
255.9204,3.825094
256.3617,3.807975
256.3682,3.814893
256.7621,3.801439
256.7651,3.804694
257.9912,3.757411
257.9973,3.763922
258.3882,3.747212
258.3942,3.753724
259.6234,3.709696
259.6298,3.716614
260.0268,3.706416
261.2338,3.638784
261.2590,3.665643
262.9233,3.597984
262.9328,3.608158
263.3203,3.587786
263.3267,3.594704
263.7111,3.571076
263.7267,3.587762
264.1555,3.557212
264.1650,3.567386
264.5212,3.513643
264.5303,3.523410
264.9242,3.509956
265.2835,3.459469
265.3021,3.479410
266.1217,3.432150
266.5187,3.421952
266.5252,3.428870
268.2116,3.384815
268.2177,3.391326
274.8840,3.347379
275.3413,3.347351
275.7508,3.350582
275.7603,3.360756
276.1573,3.350558
276.6177,3.353786
277.4306,3.353737
279.5838,3.373957
279.5902,3.380876
279.9998,3.384107
287.1386,3.356410
287.1516,3.370247
288.4184,3.366508
288.4218,3.370170
288.8727,3.363225
290.0575,3.326118
290.0700,3.339548
290.4797,3.288650
290.4927,3.302487
290.8580,3.258511
290.8671,3.268278
291.2199,3.210872
291.2294,3.221046
291.6330,3.163637
292.0330,3.156695
292.0364,3.160357
292.3446,3.055337
292.3480,3.059000
292.3857,3.099289
292.3983,3.112719
292.7642,3.015021
292.7733,3.024788
292.7988,3.052054
##END=
