##TITLE=Thianthrene
##JCAMP-DX=4.24
##DATA TYPE=UV/VIS SPECTRUM
##ORIGIN=INSTITUTE OF ENERGY PROBLEMS OF CHEMICAL PHYSICS, RAS
##OWNER=INEP CP RAS, NIST OSRD
Collection (C) 2007 copyright by the U.S. Secretary of Commerce
on behalf of the United States of America. All rights reserved.
##CAS REGISTRY NO=92-85-3
##MOLFORM=C12H8S2
##MP=159.3
##BP=365
##SOURCE REFERENCE=RAS UV No. 1200
##$NIST SQUIB=1957FAV/SOG1078-1083
##$NIST SOURCE=TSGMTE
##SPECTROMETER/DATA SYSTEM=Cary 14
##XUNITS=Wavelength (nm)
##YUNITS=Logarithm epsilon
##XFACTOR=1.000000
##YFACTOR=1.000000
##FIRSTX=208.6148
##LASTX=393.5524
##FIRSTY=4.4449
##MAXX=393.552
##MINX=208.615
##MAXY=4.71192
##MINY=2.89414
##NPOINTS=306
##$REF AUTHOR=Fava, A.; Sogo, B.; Calvin, M.
##$REF TITLE=Chemistry and spin resonance spectroscopy of radicals from thioaromatic compounds
##$REF JOURNAL=J. Am. Chem. Soc.
##$REF VOLUME=79
##$REF PAGE=1078-1083
##$REF DATE=1957
##XYPOINTS=(XY..XY)
208.6148,4.444897
209.3159,4.453946
209.8659,4.473505
210.0202,4.462810
210.7274,4.471497
211.4370,4.480014
212.1490,4.488366
212.8627,4.496562
213.5781,4.504605
214.2947,4.512503
215.0123,4.520259
215.7306,4.527879
216.4491,4.535368
216.4491,4.535368
217.1475,4.536364
217.8616,4.537334
218.6072,4.538253
218.6072,4.538253
218.9119,4.556036
218.9479,4.550620
218.9843,4.545088
219.0207,4.539461
219.1946,4.537497
219.8132,4.536739
220.4473,4.535980
220.4473,4.535980
220.7462,4.528994
221.0486,4.521887
221.3541,4.514654
221.6628,4.507292
221.9743,4.499797
222.2883,4.492163
222.6047,4.484387
222.9231,4.476462
223.2435,4.468384
223.5655,4.460148
223.8889,4.451745
224.2135,4.443172
224.5391,4.434420
224.8653,4.425483
225.1921,4.416353
225.5191,4.407021
225.8461,4.397480
226.1729,4.387720
226.4993,4.377731
226.8250,4.367502
227.1498,4.357023
227.4735,4.346281
227.7957,4.335262
228.1164,4.323954
228.4353,4.312340
228.7521,4.300404
229.0666,4.288129
229.3786,4.275494
229.6878,4.262478
229.9940,4.249059
230.2970,4.235211
230.5966,4.220906
230.8925,4.206113
231.1844,4.190799
231.4722,4.174926
231.7557,4.158451
232.0344,4.141329
232.3084,4.123506
232.5773,4.104924
232.8409,4.085515
232.8409,4.085515
234.5368,4.064137
236.4790,4.043339
239.1574,4.020012
239.9331,4.018245
241.3545,4.020125
242.8072,4.021997
244.2754,4.023863
244.2754,4.023863
246.3583,4.045812
247.4670,4.055361
248.5517,4.061365
248.5517,4.061365
249.6328,4.083366
250.6413,4.104144
251.5788,4.123846
252.4469,4.142599
253.2473,4.160512
253.9817,4.177679
254.6516,4.194183
255.2589,4.210097
255.8050,4.225484
256.2917,4.240401
256.7206,4.254900
257.0934,4.269024
257.4117,4.282815
257.4117,4.282815
258.0521,4.293220
258.7730,4.313441
259.4938,4.332761
260.1343,4.342048
260.1343,4.342048
260.2325,4.350458
260.3388,4.357922
260.4549,4.364735
260.5827,4.371171
260.7243,4.377488
260.8814,4.383927
261.0561,4.390717
261.2502,4.398072
261.4656,4.406187
261.7042,4.415242
261.9681,4.425391
262.2589,4.436767
262.5786,4.449475
262.9294,4.463592
263.3128,4.479164
263.7309,4.496208
263.7309,4.496208
263.8160,4.496368
263.8960,4.496588
263.9727,4.496936
264.0475,4.497486
264.1225,4.498305
264.1991,4.499463
264.2791,4.501027
264.3642,4.503063
264.4560,4.505634
264.5563,4.508799
264.6669,4.512613
264.7893,4.517127
264.9252,4.522386
265.0764,4.528428
265.2445,4.535285
265.4313,4.542981
265.6384,4.551533
265.8676,4.560951
266.1205,4.571234
266.3989,4.582376
266.7044,4.594364
267.0387,4.607176
267.4034,4.620785
267.8005,4.635158
268.2314,4.650259
268.6980,4.666045
268.6980,4.666045
269.9669,4.669698
270.2284,4.698991
270.3408,4.694894
270.5647,4.688998
270.5717,4.675431
270.7064,4.682197
271.2844,4.667376
271.5226,4.665108
271.8111,4.661433
272.1420,4.656529
272.5075,4.650570
272.8997,4.643731
273.3107,4.636194
273.7327,4.628151
274.1577,4.619808
274.5781,4.611386
274.9857,4.603125
275.3730,4.595280
275.7319,4.588128
276.0545,4.581957
276.3331,4.577067
276.5598,4.573760
276.7268,4.572331
277.9406,4.559111
277.9919,4.565342
278.4753,4.569935
280.3627,4.574500
280.3627,4.574500
281.2897,4.583771
282.0487,4.591273
282.6762,4.597496
283.2091,4.602894
283.6838,4.607889
284.1369,4.612885
284.6052,4.618267
285.1253,4.624399
285.7337,4.631623
286.4672,4.640249
286.4672,4.640249
286.6431,4.655269
286.7942,4.667600
286.9245,4.677642
287.0385,4.685730
287.1403,4.692152
287.2342,4.697158
287.3245,4.700978
287.4155,4.703819
287.5113,4.705878
287.6163,4.707344
287.7348,4.708399
287.8711,4.709222
288.0292,4.709990
288.0292,4.709990
288.6091,4.710269
289.2204,4.710515
289.4853,4.711915
289.8476,4.710745
289.8476,4.710745
290.3439,4.710235
290.8403,4.709725
291.3366,4.709215
291.3366,4.709215
291.5116,4.704555
291.6843,4.699844
291.8547,4.695080
292.0231,4.690262
292.1894,4.685389
292.3540,4.680460
292.5167,4.675473
292.6779,4.670428
292.8375,4.665322
292.9957,4.660154
293.1526,4.654924
293.3083,4.649628
293.4629,4.644266
293.6166,4.638836
293.7694,4.633337
293.9215,4.627766
294.0731,4.622122
294.2241,4.616402
294.3747,4.610606
294.5250,4.604729
294.6751,4.598772
294.8252,4.592731
294.9754,4.586603
295.1258,4.580387
295.2764,4.574080
295.4274,4.567679
295.5790,4.561182
295.7311,4.554585
295.8841,4.547885
296.0378,4.541080
296.1926,4.534165
296.3484,4.527138
296.5055,4.519995
296.6638,4.512731
296.8235,4.505343
296.9848,4.497826
297.1477,4.490177
297.3125,4.482389
297.4790,4.474458
297.6476,4.466380
297.8182,4.458147
297.9911,4.449755
298.1663,4.441197
298.3440,4.432466
298.5242,4.423555
298.7071,4.414457
298.8927,4.405164
299.0813,4.395667
299.2729,4.385957
299.4675,4.376025
299.6654,4.365860
299.8667,4.355450
300.0714,4.344785
300.2797,4.333851
300.4917,4.322633
300.7075,4.311119
300.9272,4.299290
301.1509,4.287129
301.3788,4.274618
301.6109,4.261736
301.8474,4.248460
302.0884,4.234765
302.3340,4.220624
302.5842,4.206006
302.8394,4.190880
303.0994,4.175208
303.3645,4.158949
303.3645,4.158949
304.1875,4.139927
305.1132,4.120460
306.1441,4.100472
307.2832,4.079878
308.5330,4.058575
309.8962,4.036445
311.3758,4.013349
312.9744,3.989122
314.6946,3.963568
316.5394,3.936448
318.5113,3.907475
320.6132,3.876292
322.8477,3.842448
325.2176,3.805371
325.2176,3.805371
328.2514,3.767885
331.2851,3.726855
334.3189,3.681541
337.3526,3.630942
340.3864,3.573661
340.3864,3.573661
344.0471,3.516688
347.7114,3.450840
351.3825,3.372964
355.0638,3.277816
358.7587,3.155677
358.7587,3.155677
363.2914,3.085459
368.0688,3.025705
373.0317,2.978438
378.1207,2.944080
383.2766,2.921053
388.4403,2.905958
393.5524,2.894140
##END=
