##TITLE=1,1'-Biphenyl, 4-nitro-
##JCAMP-DX=4.24
##DATA TYPE=UV/VIS SPECTRUM
##ORIGIN=INSTITUTE OF ENERGY PROBLEMS OF CHEMICAL PHYSICS, RAS
##OWNER=INEP CP RAS, NIST OSRD
Collection (C) 2007 copyright by the U.S. Secretary of Commerce
on behalf of the United States of America. All rights reserved.
##CAS REGISTRY NO=92-93-3
##MOLFORM=C12H9NO2
##MP=114
##BP=340
##SOURCE REFERENCE=RAS UV No. 3793
##$NIST SQUIB=1955GRA59-61
##$NIST SOURCE=TSGMTE
##SPECTROMETER/DATA SYSTEM=n.i.g.
##XUNITS=Wavelength (nm)
##YUNITS=Logarithm epsilon
##XFACTOR=1.000000
##YFACTOR=1.000000
##FIRSTX=407.3977
##LASTX=233.6017
##FIRSTY=1.19393
##MAXX=407.398
##MINX=233.602
##MAXY=4.15433
##MINY=1.19393
##NPOINTS=174
##$REF AUTHOR=Grammaticakis, P.
##$REF TITLE=Remarques sur l'absorption des derives du diphenyle dans l'ultraviolet moyen et le visible
##$REF JOURNAL=Compt. Rend.
##$REF VOLUME=241
##$REF PAGE=59-61
##$REF DATE=1955
##XYPOINTS=(XY..XY)
407.3977,1.193926
407.0531,1.232305
406.7083,1.270683
406.3628,1.309061
406.0158,1.347441
405.6666,1.385821
405.3145,1.424200
404.9588,1.462581
404.5989,1.500961
404.5989,1.500961
404.0142,1.506928
403.5188,1.542524
403.0208,1.577899
402.5142,1.613073
401.9926,1.648067
401.4499,1.682900
400.8800,1.717592
400.2769,1.752164
399.6347,1.786634
398.9475,1.821023
398.2098,1.855351
397.4158,1.889637
397.4158,1.889637
396.9300,1.924031
396.3391,1.958313
395.6589,1.992487
394.9051,2.026558
394.0933,2.060530
393.2388,2.094408
392.3568,2.128194
391.4623,2.161896
390.5698,2.195515
389.6937,2.229056
388.8482,2.262524
388.0471,2.295924
387.3042,2.329258
386.6330,2.362533
386.0469,2.395751
385.5591,2.428917
385.5591,2.428917
384.5578,2.462062
383.5617,2.495205
382.5708,2.528347
381.5849,2.561487
380.6042,2.594624
379.6284,2.627759
378.6577,2.660889
377.6919,2.694015
376.7309,2.727136
375.7749,2.760250
374.8237,2.793358
373.8773,2.826458
372.9357,2.859552
371.9988,2.892636
371.0666,2.925711
370.1390,2.958776
369.2160,2.991831
369.2160,2.991831
368.3944,3.006483
368.0406,3.017741
367.9733,3.033397
367.9733,3.033397
365.3707,3.110238
363.6251,3.162807
362.5244,3.197160
361.8698,3.219359
361.4697,3.235463
361.1357,3.251529
361.1357,3.251529
359.8811,3.270594
359.3381,3.289110
359.0267,3.310951
359.0267,3.310951
356.8772,3.371090
355.2196,3.420717
353.9365,3.460101
352.9164,3.489511
352.0519,3.509216
352.0519,3.509216
351.1106,3.540545
350.1232,3.572065
349.0924,3.603706
348.0207,3.635395
346.9108,3.667060
345.7653,3.698629
344.5867,3.730031
343.3776,3.761192
342.1404,3.792042
340.8776,3.822508
339.5916,3.852518
338.2846,3.882002
336.9591,3.910885
335.6172,3.939097
334.2611,3.966565
334.2611,3.966565
331.6944,3.997330
329.6126,4.024306
327.6286,4.049861
325.3746,4.076361
325.3746,4.076361
322.9348,4.094959
320.5383,4.111297
318.1644,4.125241
315.7940,4.136652
313.4090,4.145396
310.9921,4.151336
308.5276,4.154334
306.0006,4.154257
306.0006,4.154257
303.7271,4.139848
301.5137,4.125479
299.3602,4.110589
297.2661,4.094617
295.2313,4.077000
293.2555,4.057176
291.3383,4.034585
289.4795,4.008664
289.4795,4.008664
288.2061,4.002045
287.6103,3.989938
286.6420,3.967125
286.6420,3.967125
286.0115,3.957434
284.7258,3.933402
283.0254,3.899676
281.1449,3.860898
279.3089,3.821714
277.7306,3.786767
276.6143,3.760701
276.1614,3.748160
276.1614,3.748160
275.6880,3.737317
275.2830,3.726222
274.7217,3.715035
274.7217,3.715035
273.8054,3.685755
272.8768,3.656352
271.9284,3.627064
270.9532,3.598129
269.9444,3.569786
268.8953,3.542271
267.7997,3.515823
266.6513,3.490680
265.4445,3.467080
264.1737,3.445261
262.8339,3.425459
261.4203,3.407915
259.9285,3.392864
258.3547,3.380546
258.3547,3.380546
256.5491,3.377480
254.9319,3.375803
253.4364,3.376159
251.9991,3.379189
250.5593,3.385538
249.0594,3.395847
247.4442,3.410762
247.4442,3.410762
246.2915,3.429829
245.1756,3.450520
244.0970,3.472709
243.0558,3.496272
242.0524,3.521084
241.0871,3.547020
240.1602,3.573954
239.2720,3.601764
238.4229,3.630323
237.6131,3.659506
236.8431,3.689189
236.1131,3.719247
235.4235,3.749556
234.7748,3.779989
234.1674,3.810424
233.6017,3.840733
##END=
