##TITLE=Naphthalene, 2-methoxy-
##JCAMP-DX=4.24
##DATA TYPE=UV/VIS SPECTRUM
##ORIGIN=INSTITUTE OF ENERGY PROBLEMS OF CHEMICAL PHYSICS, RAS
##OWNER=INEP CP RAS, NIST OSRD
Collection (C) 2007 copyright by the U.S. Secretary of Commerce
on behalf of the United States of America. All rights reserved.
##CAS REGISTRY NO=93-04-9
##MOLFORM=C11H10O
##MP=73.5
##BP=274
##SOURCE REFERENCE=RAS UV No. 586
##$NIST SQUIB=1950RAM259-265
##$NIST SOURCE=TSGMTE
##SPECTROMETER/DATA SYSTEM=n.i.g.
##XUNITS=Wavelength (nm)
##YUNITS=Logarithm epsilon
##XFACTOR=1.000000
##YFACTOR=1.000000
##FIRSTX=345.7222
##LASTX=238.0765
##FIRSTY=1.20473
##MAXX=345.722
##MINX=238.077
##MAXY=3.50768
##MINY=1.20473
##NPOINTS=737
##$REF AUTHOR=Ramart-Lucas, P.
##$REF TITLE=Introduction a l'etude du comportement spectral des combinaisons polynucleaires
##$REF JOURNAL=Bull. Soc. Chim. Fr.
##$REF VOLUME=17
##$REF PAGE=259-265
##$REF DATE=1950
##XYPOINTS=(XY..XY)
345.7222,1.204725
345.6750,1.208535
345.6115,1.212550
345.5401,1.216665
345.5401,1.216665
345.4929,1.228608
345.4296,1.240549
344.8485,1.283860
344.7774,1.297504
344.7774,1.297504
344.5391,1.329198
344.2962,1.360904
344.0496,1.392637
343.8004,1.424408
343.5495,1.456229
343.2980,1.488115
343.2980,1.488115
343.1889,1.508461
343.0719,1.529010
342.9391,1.549663
342.9391,1.549663
342.8209,1.560703
342.6869,1.571845
342.5451,1.583192
342.5451,1.583192
342.2949,1.613183
342.0451,1.643378
341.7956,1.673675
341.7956,1.673675
341.5715,1.711474
341.3319,1.749477
341.0848,1.787583
341.0848,1.787583
340.9679,1.796905
340.8354,1.806432
340.6951,1.816060
340.6951,1.816060
340.6492,1.829396
340.5876,1.842836
340.5182,1.856479
340.5182,1.856479
340.4018,1.857992
340.2697,1.859711
340.1298,1.861531
340.1298,1.861531
339.9536,1.885891
339.7775,1.910353
339.6016,1.935020
339.6016,1.935020
339.3557,1.960299
339.1101,1.985680
338.8649,2.011265
338.8649,2.011265
338.6447,2.042055
338.4091,2.072948
338.1662,2.104045
338.1662,2.104045
337.8077,2.141265
337.4344,2.178588
337.0543,2.216115
337.0543,2.216115
336.7942,2.250563
336.5313,2.285011
336.2623,2.319459
335.9841,2.353907
335.9841,2.353907
335.7433,2.375971
335.5030,2.398136
335.2629,2.420506
335.2629,2.420506
335.1589,2.436259
335.0473,2.452215
334.9206,2.468274
334.9206,2.468274
334.8168,2.474381
334.7055,2.480693
334.5790,2.487106
334.5790,2.487106
334.4666,2.510990
334.3390,2.534874
334.2040,2.558758
334.2040,2.558758
333.9659,2.588748
333.7280,2.618944
333.4905,2.649241
333.4905,2.649241
333.3876,2.655348
333.2772,2.661659
333.1518,2.668072
333.1518,2.668072
332.9151,2.693351
332.6788,2.718732
332.4428,2.744317
332.4428,2.744317
332.3405,2.750424
332.2308,2.756735
332.1062,2.763149
332.1062,2.763149
332.0626,2.777982
332.0041,2.793020
331.9381,2.808161
331.9381,2.808161
331.8275,2.809675
331.7019,2.811393
331.5691,2.813213
331.5691,2.813213
331.4673,2.833558
331.3582,2.854108
331.2342,2.874760
331.2342,2.874760
331.1240,2.876274
330.9990,2.877992
330.8667,2.879812
330.8667,2.879812
330.5666,2.915990
330.2671,2.952210
329.9681,2.988517
329.6696,3.024953
329.6696,3.024953
329.5690,3.029563
329.4612,3.034275
329.3386,3.039191
329.3386,3.039191
328.8764,3.072397
328.4154,3.105808
327.9557,3.139320
327.9557,3.139320
327.6269,3.160465
327.2916,3.181712
326.9424,3.203164
326.9424,3.203164
326.8435,3.206379
326.7374,3.209594
326.6168,3.212809
326.6168,3.212809
326.5518,3.213404
326.4868,3.214204
326.4218,3.215106
326.4218,3.215106
326.2175,3.215701
325.9989,3.216501
325.7735,3.217402
325.7735,3.217402
325.7735,3.220617
325.7735,3.223832
325.7735,3.227048
325.4180,3.212809
325.3546,3.209594
325.2984,3.206379
325.2566,3.203164
325.2566,3.203164
325.0819,3.170323
324.9118,3.137483
324.7454,3.104643
324.5819,3.071802
324.4204,3.038962
324.2599,3.006121
324.2599,3.006121
323.9172,2.979022
323.5893,2.951923
323.2693,2.924824
323.2693,2.924824
322.9993,2.919619
322.7438,2.915332
322.2847,2.908289
322.2847,2.908289
322.0632,2.906588
321.8420,2.905091
321.6211,2.903696
321.6211,2.903696
321.3387,2.907813
321.0638,2.911828
320.8033,2.915638
320.8033,2.915638
320.5223,2.915638
320.2488,2.915638
319.9896,2.915638
319.9896,2.915638
319.7712,2.907507
319.5532,2.899579
319.3354,2.891754
319.3354,2.891754
319.1180,2.878911
318.9008,2.866169
318.6839,2.853632
318.6839,2.853632
318.4066,2.853632
318.1367,2.853632
317.8809,2.853632
317.8809,2.853632
317.7487,2.855418
317.5413,2.857204
317.0820,2.860521
317.0820,2.860521
316.8075,2.863737
316.5403,2.866952
316.2871,2.870167
316.2871,2.870167
316.2273,2.874284
316.1742,2.878298
316.1347,2.882109
316.1347,2.882109
316.0219,2.886226
315.9227,2.890240
315.8303,2.894051
315.8303,2.894051
315.7177,2.894952
315.6187,2.895752
315.5265,2.896347
315.5265,2.896347
315.3535,2.906775
315.1941,2.916999
315.0416,2.927121
315.0416,2.927121
314.7707,2.930336
314.5069,2.933551
314.2569,2.936766
314.2569,2.936766
314.0853,2.942601
313.9272,2.948232
313.7759,2.953761
313.7759,2.953761
313.6648,2.955462
313.5671,2.956959
313.4761,2.958354
313.4761,2.958354
313.2078,2.960055
312.9466,2.961552
312.6991,2.962947
312.6991,2.962947
312.4322,2.960650
312.1723,2.958354
311.9260,2.956057
311.9260,2.956057
311.8096,2.947126
311.6867,2.940339
311.4521,2.929877
311.4521,2.929877
311.2464,2.909803
311.0474,2.889934
310.8618,2.870167
310.8618,2.870167
310.7451,2.862954
310.6350,2.855945
310.5381,2.849039
310.5381,2.849039
310.4292,2.836195
310.3335,2.823454
310.2444,2.810916
310.2444,2.810916
310.1357,2.802785
310.0402,2.794858
309.9512,2.787033
309.9512,2.787033
309.7193,2.773594
309.5980,2.767401
309.4833,2.763149
309.4833,2.763149
308.9673,2.762247
308.4658,2.761447
307.9724,2.760852
307.9724,2.760852
307.7776,2.778459
307.5126,2.798821
307.2224,2.822858
307.2224,2.822858
307.0584,2.825155
306.9073,2.827451
306.7628,2.829748
306.7628,2.829748
306.5621,2.830650
306.3616,2.831449
306.1615,2.832044
306.1615,2.832044
305.9626,2.828846
305.7704,2.825750
305.5910,2.813213
305.5910,2.813213
305.5910,2.816428
305.5910,2.819643
305.5910,2.822858
305.5910,2.822858
305.4287,2.809998
305.2792,2.806783
305.1362,2.803568
305.1362,2.803568
304.9387,2.790724
304.7477,2.777982
304.5696,2.765445
304.5696,2.765445
304.4575,2.763149
304.3519,2.760852
304.2588,2.758556
304.2588,2.758556
304.0384,2.740336
303.8121,2.724261
303.3865,2.696549
303.3865,2.696549
303.2265,2.691633
303.0791,2.686921
302.9382,2.682311
302.9382,2.682311
302.7424,2.678194
302.5470,2.674179
302.3518,2.670369
302.3518,2.670369
302.1578,2.671270
301.9703,2.672070
301.7954,2.672665
301.7954,2.672665
301.4985,2.677582
301.2145,2.682294
300.9371,2.686904
300.9371,2.686904
300.5868,2.688724
300.2495,2.690442
299.9190,2.691956
299.9190,2.691956
299.4343,2.691956
298.9633,2.691956
298.4998,2.691956
298.4998,2.691956
298.3108,2.690136
298.1280,2.688418
297.9575,2.686904
297.9575,2.686904
297.8503,2.682787
297.7492,2.678772
297.6601,2.674962
297.6601,2.674962
297.5601,2.674060
297.4722,2.673261
297.3903,2.672665
297.3903,2.672665
297.1359,2.667018
296.7386,2.659635
295.8613,2.644188
295.5681,2.641892
294.7105,2.642487
293.8461,2.643287
292.9810,2.644188
292.9810,2.644188
292.7979,2.649700
292.6151,2.655212
292.4325,2.660723
292.4325,2.660723
292.3803,2.663939
292.3282,2.667154
292.2761,2.670369
292.2761,2.670369
292.0670,2.674979
291.8523,2.679691
291.6265,2.684607
291.6265,2.684607
291.4451,2.692433
291.2640,2.700360
291.0831,2.708491
291.0831,2.708491
290.6923,2.732205
290.4854,2.743875
290.2845,2.753503
290.2845,2.753503
290.1999,2.756718
290.1039,2.759933
290.0022,2.763149
290.0022,2.763149
289.8741,2.773270
289.7461,2.783494
289.6181,2.793922
289.6181,2.793922
289.5339,2.795436
289.4383,2.797154
289.3371,2.798974
289.3371,2.798974
289.3041,2.803585
289.2596,2.808297
289.2096,2.813213
289.2096,2.813213
288.8238,2.831994
288.6196,2.841282
288.4213,2.849039
288.4213,2.849039
288.3884,2.852730
288.3443,2.856524
288.2945,2.860521
288.2945,2.860521
288.2110,2.862035
288.1163,2.863754
288.0161,2.865574
288.0161,2.865574
287.9833,2.871085
287.9393,2.876597
287.8897,2.882109
287.8897,2.882109
287.8130,2.885324
287.7307,2.888539
287.6372,2.891754
287.6372,2.891754
287.5607,2.897861
287.4785,2.904173
287.3852,2.910586
287.3852,2.910586
287.3023,2.913801
287.2082,2.917016
287.1086,2.920231
287.1086,2.920231
286.8565,2.934470
286.5994,2.948708
286.3316,2.962947
286.3316,2.962947
286.2558,2.970772
286.1744,2.978699
286.0819,2.986831
286.0819,2.986831
285.9563,2.988344
285.8253,2.990063
285.6833,2.991883
285.6833,2.991883
285.6510,2.993278
285.6077,2.994775
285.5589,2.996476
285.5589,2.996476
285.1874,3.027148
285.0204,3.042509
284.9140,3.055726
284.9140,3.055726
284.8325,3.057240
284.7400,3.058959
284.6421,3.060779
284.6421,3.060779
284.5506,3.083046
284.4867,3.095312
284.3953,3.108087
284.3953,3.108087
284.3141,3.109601
284.2219,3.111319
284.1243,3.113140
284.1243,3.113140
283.9695,3.130270
283.8038,3.147605
283.6330,3.165041
283.6330,3.165041
283.5522,3.166555
283.4605,3.168273
283.3635,3.170094
283.3635,3.170094
283.3317,3.178820
283.2891,3.187547
283.2411,3.196274
283.2411,3.196274
282.8874,3.229106
282.6914,3.248873
282.4850,3.272519
282.4850,3.272519
282.3625,3.277129
282.2347,3.281841
282.0963,3.286757
282.0963,3.286757
281.8315,3.300621
281.6746,3.309791
281.4911,3.322124
281.4911,3.322124
281.4115,3.324437
281.3212,3.326853
281.2256,3.329473
281.2256,3.329473
281.0569,3.330868
280.8885,3.332365
280.7202,3.334066
280.7202,3.334066
280.4793,3.334066
280.2335,3.334066
279.9774,3.334066
279.9774,3.334066
279.8571,3.332671
279.7316,3.331174
279.5956,3.329473
279.5956,3.329473
279.0600,3.317633
278.5159,3.304874
278.1258,3.296403
278.1258,3.296403
278.0542,3.293188
277.9774,3.289972
277.8902,3.286757
277.8902,3.286757
277.6541,3.283542
277.4132,3.280327
277.1623,3.277112
277.1623,3.277112
277.0851,3.274798
276.9976,3.272383
276.9049,3.269763
276.9049,3.269763
276.7414,3.269763
276.5781,3.269763
276.4149,3.269763
276.4149,3.269763
276.0780,3.278660
275.8914,3.283066
275.6947,3.286757
275.6947,3.286757
275.4169,3.300996
275.1397,3.315234
274.8631,3.329473
274.8631,3.329473
274.7471,3.333283
274.6261,3.337298
274.4951,3.341415
274.4951,3.341415
274.4653,3.345225
274.4253,3.349240
274.3803,3.353357
274.3803,3.353357
274.2146,3.362101
274.1255,3.367578
274.0364,3.374485
274.0364,3.374485
273.9212,3.378295
273.8009,3.382310
273.6706,3.386427
273.6706,3.386427
273.6410,3.390237
273.6013,3.394252
273.5565,3.398369
273.5565,3.398369
273.3167,3.406126
273.1128,3.413270
272.9646,3.417660
272.9646,3.417660
272.8957,3.423171
272.8217,3.428683
272.7377,3.434195
272.7377,3.434195
272.5790,3.438805
272.4206,3.443517
272.2623,3.448433
272.2623,3.448433
272.0791,3.457449
271.9563,3.464832
271.7886,3.476910
271.7886,3.476910
271.7202,3.477505
271.6468,3.478305
271.5635,3.479207
271.5635,3.479207
271.1362,3.488529
270.7053,3.498055
270.2658,3.507683
270.2658,3.507683
269.9314,3.507088
269.5929,3.506289
269.2454,3.505387
269.2454,3.505387
269.0237,3.503090
268.7976,3.500794
268.5620,3.498497
268.5620,3.498497
268.2545,3.492067
267.9477,3.485637
267.6417,3.479207
267.6417,3.479207
267.4227,3.476315
267.1992,3.473219
266.9664,3.470020
266.9664,3.470020
266.6626,3.463590
266.3594,3.457160
266.0570,3.450730
266.0570,3.450730
265.8781,3.447514
265.6898,3.444299
265.4971,3.441084
265.4971,3.441084
265.3189,3.442003
265.1315,3.442921
264.9395,3.443840
264.9395,3.443840
264.3544,3.451087
263.9887,3.455884
263.6194,3.460375
263.6194,3.460375
263.4461,3.463964
263.2214,3.467656
262.7536,3.474613
262.7536,3.474613
262.5005,3.480125
262.2433,3.485637
261.9772,3.491148
261.9772,3.491148
261.5532,3.491744
261.1214,3.492543
260.6864,3.493445
260.6864,3.493445
260.5821,3.494959
260.4732,3.496677
260.3553,3.498497
260.3553,3.498497
260.3285,3.498497
260.2926,3.498497
260.2520,3.498497
258.9781,3.476910
258.9781,3.476910
258.9781,3.477505
258.9781,3.478305
258.9781,3.479207
258.5902,3.466482
258.2035,3.456258
257.8179,3.446136
257.8179,3.446136
257.1770,3.431898
256.5483,3.417660
255.9270,3.403421
255.9270,3.403421
255.8531,3.400801
255.7881,3.398386
255.7275,3.396072
255.7275,3.396072
255.6139,3.394371
255.5091,3.392874
255.4089,3.391479
255.4089,3.391479
255.2698,3.388264
255.1308,3.385049
254.9920,3.381834
254.9920,3.381834
254.8533,3.376917
254.7148,3.372205
254.5764,3.367595
254.5764,3.367595
254.1031,3.356248
253.6316,3.345106
253.1618,3.334066
253.1618,3.334066
252.9868,3.328554
252.8163,3.323043
252.6548,3.317531
252.6548,3.317531
252.2087,3.307103
251.7685,3.296879
251.3384,3.286757
251.3384,3.286757
251.1659,3.281841
250.9979,3.277129
250.8387,3.272519
250.8387,3.272519
250.7052,3.266089
250.5761,3.259658
250.4556,3.253228
250.4556,3.253228
250.2129,3.250030
249.9792,3.246934
249.7501,3.244042
249.7501,3.244042
249.6086,3.240147
249.5052,3.236455
249.3514,3.229803
249.3514,3.229803
249.1486,3.224768
248.9547,3.219835
248.7652,3.215106
248.7652,3.215106
247.9017,3.190694
247.3879,3.176286
247.1160,3.167797
247.1160,3.167797
246.8928,3.164072
246.7195,3.161571
246.4476,3.158152
246.2441,3.155855
245.9986,3.156450
245.7453,3.157250
245.4885,3.158152
245.4885,3.158152
245.3362,3.159547
245.1759,3.161043
245.0118,3.162745
245.0118,3.162745
244.9515,3.165058
244.8831,3.167474
244.8106,3.170094
244.8106,3.170094
244.4640,3.178820
244.1183,3.187547
243.7736,3.196274
243.7736,3.196274
243.7186,3.199489
243.6596,3.202704
243.5926,3.205919
243.5926,3.205919
243.4660,3.208811
243.3396,3.211907
243.2133,3.215106
243.2133,3.215106
242.9064,3.224751
242.5964,3.234396
242.2792,3.244042
242.2792,3.244042
241.8194,3.252309
241.6024,3.256596
241.4410,3.260577
241.4410,3.260577
241.3292,3.265187
241.2096,3.269899
241.0861,3.274815
241.0861,3.274815
240.9084,3.279425
240.7270,3.284137
240.5381,3.289054
240.5381,3.289054
240.4800,3.292864
240.4140,3.296879
240.3442,3.300996
240.3442,3.300996
240.2907,3.301591
240.2334,3.302391
240.1682,3.303292
240.1682,3.303292
240.0224,3.307103
239.8690,3.311118
239.7119,3.315234
239.7119,3.315234
239.5667,3.316629
239.4138,3.318126
239.2573,3.319827
239.2573,3.319827
239.1998,3.322141
239.1346,3.324556
239.0655,3.327176
239.0655,3.327176
238.7349,3.335903
238.4053,3.344630
238.0765,3.353357
238.0765,3.353357
238.0765,3.353952
238.0765,3.354752
238.0765,3.355653
##END=
