##TITLE=Pyrrolidine, 1-nitroso-
##JCAMP-DX=4.24
##DATA TYPE=UV/VIS SPECTRUM
##ORIGIN=INSTITUTE OF ENERGY PROBLEMS OF CHEMICAL PHYSICS, RAS
##OWNER=INEP CP RAS, NIST OSRD
Collection (C) 2007 copyright by the U.S. Secretary of Commerce
on behalf of the United States of America. All rights reserved.
##CAS REGISTRY NO=930-55-2
##MOLFORM=C4H8N2O
##BP=214
##SOURCE REFERENCE=RAS UV No. 5789
##$NIST SQUIB=1959ZAH/SVA347-358
##$NIST SOURCE=TSGMTE
##SPECTROMETER/DATA SYSTEM=Perkin- Elmer 12B
##XUNITS=Wavelength (nm)
##YUNITS=Logarithm epsilon
##XFACTOR=1.000000
##YFACTOR=1.000000
##FIRSTX=247.8547
##LASTX=371.6303
##FIRSTY=3.65153
##MAXX=371.63
##MINX=247.855
##MAXY=3.67682
##MINY=1.09192
##NPOINTS=80
##$REF AUTHOR=Zahradnik, R.; Svatek, E.; Chvaril, M.
##$REF TITLE=Nitrosamine sekundarer amine. III. Spektroskopische und polarographische studie
##$REF JOURNAL=Collect. Czech. Chem. Commun.
##$REF VOLUME=24
##$REF PAGE=347-358
##$REF DATE=1959
##XYPOINTS=(XY..XY)
247.8547,3.651529
247.8547,3.651529
247.9253,3.659962
248.0092,3.668394
248.1198,3.676823
248.2714,3.648294
248.6877,3.644791
249.1040,3.641154
249.1040,3.641154
249.4486,3.624540
250.0240,3.602174
250.7859,3.575049
251.6902,3.544161
252.6929,3.510504
253.7498,3.475073
254.8168,3.438863
255.8498,3.402869
256.8047,3.368085
257.6372,3.335506
258.3035,3.306128
258.4225,3.240507
258.7593,3.280944
258.8629,3.247139
258.9604,3.260949
259.1296,3.167488
259.1846,3.160225
259.2527,3.152828
259.3473,3.145159
273.4231,1.979582
273.4266,1.983176
273.4301,1.986637
273.4333,1.989829
285.3025,1.379726
285.5334,1.370661
285.7643,1.361594
285.9952,1.352528
302.4359,1.538973
302.7535,1.538942
303.0979,1.538907
303.4555,1.538871
303.4555,1.538871
303.4591,1.542466
303.4625,1.545927
303.4657,1.549119
307.0193,1.624122
307.7443,1.631619
308.0138,1.636750
308.0587,1.643912
309.5809,1.666670
309.7245,1.672661
309.8948,1.678517
310.0781,1.684103
314.1091,1.756646
314.7870,1.772677
315.4781,1.788439
316.1956,1.804064
323.8204,1.931711
324.3066,1.935882
324.8062,1.940053
325.3324,1.944220
332.3298,1.983909
332.9896,1.983843
333.6493,1.983777
334.3090,1.983711
338.2968,1.952563
339.3776,1.953637
340.4582,1.954579
341.5386,1.955251
341.5386,1.955251
341.9334,1.945744
342.5172,1.938495
343.7901,1.927292
365.1559,1.336734
365.2852,1.328280
365.4412,1.319824
365.6106,1.311366
370.9334,1.114894
371.1660,1.107458
371.3982,1.099753
371.6303,1.091917
##END=
