##TITLE=2-Cyclohexen-1-one
##JCAMP-DX=4.24
##DATA TYPE=UV/VIS SPECTRUM
##ORIGIN=INSTITUTE OF ENERGY PROBLEMS OF CHEMICAL PHYSICS, RAS
##OWNER=INEP CP RAS, NIST OSRD
Collection (C) 2007 copyright by the U.S. Secretary of Commerce
on behalf of the United States of America. All rights reserved.
##CAS REGISTRY NO=930-68-7
##MOLFORM=C6H8O
##BP=169-171
##SOURCE REFERENCE=RAS UV No. 23321
##$NIST SQUIB=1976KOV/76
##$NIST SOURCE=TYUGLMTE
##SPECTROMETER/DATA SYSTEM=Specord UV-Vis
##XUNITS=Wavelength (nm)
##YUNITS=Logarithm epsilon
##XFACTOR=1.0
##YFACTOR=1.0
##FIRSTX=205.847
##LASTX=340.557
##FIRSTY=2.707
##MAXX=340.557
##MINX=205.847
##MAXY=3.282
##MINY=1.018
##NPOINTS=124
##$REF AUTHOR=Kovaleva, V.N.; et al.
##$REF JOURNAL=Zhur. Organ. Khim.
##$REF VOLUME=12
##$REF PAGE=76
##$REF DATE=1976
##XYPOINTS=(XY..XY)
205.847,2.707
206.847,2.752
207.847,2.806
208.847,2.865
209.847,2.927
210.770,2.983
212.270,3.067
213.770,3.143
215.270,3.201
216.770,3.240
218.270,3.263
219.770,3.276
221.270,3.282
222.770,3.282
224.270,3.277
225.770,3.260
227.270,3.224
228.770,3.158
229.830,3.074
230.687,2.984
231.330,2.901
232.400,2.805
233.206,2.717
234.206,2.628
235.206,2.542
236.206,2.458
237.206,2.374
238.206,2.289
239.206,2.203
240.206,2.115
241.206,2.024
242.206,1.930
243.206,1.834
244.206,1.736
245.206,1.636
246.206,1.537
247.206,1.440
248.206,1.347
249.206,1.261
249.845,1.210
251.345,1.124
252.845,1.070
254.345,1.038
255.845,1.023
257.345,1.018
258.845,1.019
260.345,1.022
261.845,1.025
263.345,1.026
264.845,1.024
266.345,1.021
267.862,1.025
269.328,1.025
270.845,1.028
272.531,1.038
273.531,1.044
274.531,1.050
275.531,1.055
276.531,1.060
277.531,1.064
278.531,1.068
278.726,1.068
279.726,1.074
280.726,1.081
281.726,1.089
282.726,1.097
283.726,1.105
284.726,1.115
285.726,1.124
286.726,1.134
287.726,1.144
288.726,1.154
289.726,1.165
290.726,1.175
291.726,1.186
292.726,1.196
293.726,1.206
294.726,1.217
295.726,1.227
296.726,1.237
297.726,1.247
298.726,1.257
299.726,1.267
300.726,1.276
301.726,1.285
302.726,1.294
303.726,1.303
304.726,1.311
305.726,1.319
306.726,1.327
307.726,1.334
308.726,1.341
309.726,1.348
310.726,1.354
311.726,1.359
312.726,1.364
313.726,1.368
314.726,1.371
315.726,1.373
316.726,1.374
317.726,1.375
318.631,1.377
319.631,1.372
320.631,1.366
321.631,1.359
322.631,1.351
323.631,1.342
324.631,1.332
325.631,1.322
326.631,1.310
327.631,1.299
328.631,1.287
329.631,1.275
330.631,1.263
331.631,1.252
332.631,1.241
333.631,1.231
334.631,1.221
335.631,1.212
336.631,1.202
337.631,1.192
338.631,1.181
339.631,1.168
340.557,1.156
##END=
