##TITLE=cis-Cyclooctene
##JCAMP-DX=4.24
##DATA TYPE=UV/VIS SPECTRUM
##ORIGIN=INSTITUTE OF ENERGY PROBLEMS OF CHEMICAL PHYSICS, RAS
##OWNER=INEP CP RAS, NIST OSRD
Collection (C) 2007 copyright by the U.S. Secretary of Commerce
on behalf of the United States of America. All rights reserved.
##CAS REGISTRY NO=931-87-3
##MOLFORM=C8H14
##MP=-12
##BP=138
##SOURCE REFERENCE=RAS UV No. 8493
##$NIST SQUIB=1981SCH/SON159-162
##$NIST SOURCE=TSGMTE
##SPECTROMETER/DATA SYSTEM=Cary 17 1
##XUNITS=Wavelength (nm)
##YUNITS=Logarithm epsilon
##XFACTOR=1.000000
##YFACTOR=1.000000
##FIRSTX=185.4101
##LASTX=210.4019
##FIRSTY=3.93659
##MAXX=210.402
##MINX=185.41
##MAXY=4.01399
##MINY=2.31122
##NPOINTS=124
##$REF AUTHOR=Schuchmann, H.P.; von Sonntag, C.
##$REF TITLE=Quantum yields in the photolysis of cis-cyclooctene at 185 nm
##$REF JOURNAL=J. Photochem.
##$REF VOLUME=15
##$REF PAGE=159-162
##$REF DATE=1981
##XYPOINTS=(XY..XY)
185.4101,3.936593
185.8064,3.945256
186.2045,3.953873
186.6064,3.962400
187.0136,3.970790
187.4282,3.978997
187.8517,3.986978
187.8517,3.986978
188.3231,3.992253
188.7959,3.997457
189.2696,4.002607
189.7439,4.007722
190.2186,4.012818
190.2186,4.012818
190.5359,4.013035
190.8785,4.013410
191.2419,4.013782
191.6216,4.013992
192.0130,4.013878
192.4116,4.013279
192.8130,4.012035
193.2125,4.009985
193.6058,4.006968
193.9882,4.002824
194.3554,3.997392
194.7026,3.990511
195.0255,3.982021
195.3195,3.971761
195.3195,3.971761
195.6926,3.965070
196.0517,3.956794
196.4005,3.947185
196.7425,3.936495
197.0815,3.924976
197.4209,3.912880
197.7646,3.900460
198.1160,3.887966
198.1160,3.887966
198.4115,3.874612
198.7026,3.861046
198.9893,3.847269
199.2717,3.833284
199.5497,3.819092
199.8236,3.804696
200.0933,3.790096
200.3590,3.775295
200.6206,3.760295
200.8783,3.745098
201.1322,3.729705
201.3822,3.714120
201.6285,3.698342
201.8711,3.682374
202.1101,3.666218
202.3455,3.649876
202.5775,3.633350
202.8060,3.616642
203.0313,3.599753
203.2532,3.582685
203.4719,3.565441
203.6875,3.548022
203.9000,3.530430
204.1095,3.512666
204.3161,3.494733
204.5197,3.476633
204.7206,3.458367
204.9187,3.439938
204.9187,3.439938
205.0738,3.419714
205.2231,3.399130
205.3672,3.378234
205.5070,3.357073
205.6431,3.335694
205.7761,3.314145
205.9068,3.292473
206.0359,3.270727
206.1639,3.248953
206.2917,3.227200
206.2917,3.227200
206.3809,3.207295
206.4701,3.187391
206.5593,3.167487
206.6485,3.147582
206.7377,3.127677
206.8269,3.107772
206.9162,3.087867
207.0054,3.067962
207.0946,3.048056
207.1838,3.028151
207.2730,3.008245
207.3623,2.988339
207.4515,2.968433
207.5407,2.948526
207.6300,2.928619
207.7193,2.908711
207.8085,2.888804
207.8978,2.868896
207.9870,2.848987
208.0763,2.829078
208.1656,2.809169
208.2549,2.789259
208.3442,2.769349
208.4336,2.749438
208.5229,2.729526
208.6122,2.709614
208.7016,2.689702
208.7909,2.669788
208.8803,2.649874
208.9697,2.629960
209.0591,2.610044
209.1485,2.590129
209.2379,2.570211
209.3274,2.550294
209.4168,2.530376
209.5063,2.510457
209.5958,2.490537
209.6853,2.470616
209.7748,2.450695
209.8643,2.430772
209.9539,2.410849
210.0434,2.390924
210.1330,2.370999
210.2226,2.351072
210.3122,2.331145
210.4019,2.311216
##END=
