##TITLE=Benzene, 1,2-dimethoxy-4-(1-propenyl)-
##JCAMP-DX=4.24
##DATA TYPE=UV/VIS SPECTRUM
##ORIGIN=INSTITUTE OF ENERGY PROBLEMS OF CHEMICAL PHYSICS, RAS
##OWNER=INEP CP RAS, NIST OSRD
Collection (C) 2007 copyright by the U.S. Secretary of Commerce
on behalf of the United States of America. All rights reserved.
##CAS REGISTRY NO=93-16-3
##MOLFORM=C11H14O2
##BP=263
##SOURCE REFERENCE=RAS UV No. 19747
##$NIST SQUIB=1961LAN151
##$NIST SOURCE=TYUGLMTE
##SPECTROMETER/DATA SYSTEM=Beckman Model DU
##XUNITS=Wavelength (nm)
##YUNITS=Logarithm epsilon
##XFACTOR=1.0
##YFACTOR=1.0
##FIRSTX=204.97
##LASTX=396.34
##FIRSTY=4.519
##MAXX=396.34
##MINX=204.97
##MAXY=4.604
##MINY=0.295
##NPOINTS=187
##$REF AUTHOR=Lang (editor), L.
##$REF JOURNAL=Absorption Spectra in the Ultraviolet and Visible Region
##$REF VOLUME=2
##$REF PAGE=151
##$REF DATE=1961
##XYPOINTS=(XY..XY)
204.97,4.519
206.00,4.546
207.03,4.567
208.06,4.580
209.09,4.594
210.12,4.597
211.15,4.601
212.17,4.604
213.20,4.604
214.23,4.601
215.26,4.597
216.29,4.587
217.32,4.577
218.35,4.560
219.38,4.546
220.41,4.526
221.43,4.509
222.46,4.481
223.49,4.461
224.52,4.427
225.55,4.400
226.58,4.376
227.61,4.345
228.64,4.321
229.67,4.294
230.69,4.273
231.72,4.249
232.75,4.226
233.78,4.205
234.81,4.181
235.84,4.161
236.87,4.150
237.90,4.140
238.92,4.137
239.95,4.137
240.98,4.150
242.01,4.168
243.04,4.185
244.07,4.198
245.10,4.219
246.13,4.236
247.16,4.253
248.18,4.270
249.21,4.290
250.24,4.307
251.27,4.328
252.30,4.348
253.33,4.365
254.36,4.382
255.39,4.396
256.42,4.410
257.44,4.420
258.47,4.430
259.50,4.430
260.53,4.420
261.56,4.417
262.59,4.406
263.62,4.400
264.65,4.400
265.68,4.393
266.70,4.382
267.73,4.376
268.76,4.359
269.79,4.331
270.82,4.280
271.85,4.229
272.88,4.174
273.91,4.137
274.93,4.103
275.96,4.075
276.99,4.055
278.02,4.038
279.05,4.021
280.08,4.007
281.11,3.994
282.14,3.987
283.17,3.976
284.19,3.973
285.22,3.966
286.25,3.956
287.28,3.953
288.31,3.949
289.34,3.939
290.37,3.936
291.40,3.932
292.43,3.922
293.45,3.918
294.48,3.915
295.51,3.905
296.54,3.901
297.57,3.895
298.60,3.884
299.63,3.874
300.66,3.864
301.69,3.847
302.71,3.830
303.74,3.813
304.77,3.792
305.80,3.765
306.83,3.741
307.86,3.727
308.89,3.707
309.92,3.673
310.94,3.639
311.97,3.601
313.00,3.553
314.03,3.495
315.06,3.427
316.09,3.355
317.12,3.236
318.15,3.096
319.18,2.977
320.20,2.881
321.23,2.775
322.26,2.704
323.29,2.636
324.32,2.561
325.35,2.509
326.38,2.448
327.41,2.397
328.44,2.339
329.46,2.288
330.49,2.236
331.52,2.185
332.55,2.137
333.58,2.073
334.61,2.018
335.64,1.970
336.67,1.919
337.69,1.854
338.72,1.803
339.75,1.759
340.78,1.714
341.81,1.663
342.84,1.615
343.87,1.571
344.90,1.530
345.93,1.489
346.95,1.445
347.98,1.401
349.01,1.366
350.04,1.329
351.07,1.298
352.10,1.257
353.13,1.223
354.16,1.182
355.19,1.151
356.21,1.124
357.24,1.093
358.27,1.066
359.30,1.042
360.33,1.012
361.36,0.981
362.39,0.957
363.42,0.933
364.45,0.899
365.47,0.878
366.50,0.848
367.53,0.827
368.56,0.800
369.59,0.780
370.62,0.749
371.65,0.728
372.68,0.701
373.70,0.681
374.73,0.660
375.76,0.633
376.79,0.612
377.82,0.595
378.85,0.575
379.88,0.558
380.91,0.530
381.94,0.513
382.96,0.496
383.99,0.479
385.02,0.462
386.05,0.449
387.08,0.428
388.11,0.411
389.14,0.394
390.17,0.380
391.20,0.363
392.22,0.350
393.25,0.336
394.28,0.326
395.31,0.312
396.34,0.295
##END=
