##TITLE=1,2-Dimethyl-3-ethylbenzene
##JCAMP-DX=4.24
##DATA TYPE=UV/VIS SPECTRUM
##ORIGIN=INSTITUTE OF ENERGY PROBLEMS OF CHEMICAL PHYSICS, RAS
##OWNER=INEP CP RAS, NIST OSRD
Collection (C) 2007 copyright by the U.S. Secretary of Commerce
on behalf of the United States of America. All rights reserved.
##CAS REGISTRY NO=933-98-2
##MOLFORM=C10H14
##MP=- 49.5
##BP=194
##SOURCE REFERENCE=RAS UV No. 20033
##$NIST SQUIB=1963KUS/72
##$NIST SOURCE=TYUGLMTE
##SPECTROMETER/DATA SYSTEM=unknown
##XUNITS=Wavelength (nm)
##YUNITS=Logarithm epsilon
##XFACTOR=1.0
##YFACTOR=1.0
##FIRSTX=229.7
##LASTX=274.66
##FIRSTY=1.984
##MAXX=274.66
##MINX=229.7
##MAXY=2.28
##MINY=1.402
##NPOINTS=173
##$REF AUTHOR=Kusakov, M.M.; et al.
##$REF JOURNAL=Ultraviolet Absorption Spectra of Aromatic Hydrocarbons
##$REF PAGE=72
##$REF DATE=1963
##XYPOINTS=(XY..XY)
229.70,1.984
229.83,1.968
230.00,1.952
230.17,1.935
230.30,1.918
230.47,1.900
230.63,1.881
230.76,1.861
230.93,1.840
231.14,1.818
231.31,1.795
231.52,1.773
231.74,1.748
231.99,1.727
232.24,1.702
232.50,1.676
232.71,1.648
232.98,1.619
233.26,1.595
233.52,1.565
233.77,1.534
234.07,1.500
234.36,1.470
234.70,1.451
235.02,1.437
235.41,1.422
235.80,1.410
236.16,1.404
236.57,1.402
236.99,1.403
237.33,1.410
237.71,1.424
238.08,1.443
238.43,1.464
238.78,1.481
239.15,1.500
239.53,1.520
239.87,1.539
240.21,1.560
240.55,1.580
240.89,1.604
241.18,1.626
241.52,1.648
241.86,1.664
242.20,1.684
242.54,1.699
242.88,1.717
243.22,1.734
243.56,1.751
243.90,1.767
244.24,1.783
244.57,1.798
244.89,1.809
245.21,1.823
245.51,1.837
245.80,1.850
246.11,1.864
246.44,1.878
246.78,1.890
247.07,1.902
247.41,1.913
247.71,1.924
248.01,1.935
248.35,1.946
248.64,1.958
248.94,1.970
249.25,1.982
249.53,1.992
249.83,2.001
250.08,2.012
250.42,2.021
250.72,2.031
251.04,2.042
251.31,2.051
251.61,2.061
251.90,2.069
252.20,2.078
252.49,2.086
252.75,2.094
253.01,2.103
253.30,2.110
253.60,2.117
253.90,2.125
254.15,2.134
254.40,2.142
254.70,2.148
255.00,2.156
255.29,2.164
255.55,2.173
255.80,2.180
256.09,2.186
256.48,2.191
256.86,2.193
257.21,2.195
257.58,2.198
257.96,2.201
258.34,2.204
258.73,2.206
259.06,2.208
259.40,2.212
259.74,2.215
260.08,2.221
260.38,2.226
260.67,2.232
260.97,2.237
261.23,2.245
261.48,2.252
261.69,2.259
261.90,2.266
262.16,2.272
262.45,2.278
262.84,2.280
263.13,2.275
263.34,2.269
263.60,2.262
263.81,2.256
264.06,2.249
264.32,2.242
264.66,2.237
265.00,2.233
265.34,2.227
265.59,2.221
265.80,2.212
265.95,2.204
266.14,2.194
266.27,2.185
266.39,2.175
266.56,2.165
266.69,2.155
266.86,2.144
267.03,2.134
267.20,2.123
267.41,2.111
267.62,2.101
267.92,2.092
268.26,2.086
268.60,2.092
268.89,2.100
269.15,2.108
269.36,2.120
269.57,2.129
269.78,2.140
270.17,2.143
270.46,2.135
270.63,2.124
270.76,2.113
270.84,2.100
270.97,2.086
271.06,2.072
271.14,2.058
271.23,2.045
271.35,2.028
271.44,2.012
271.54,1.998
271.65,1.980
271.78,1.964
271.90,1.948
272.07,1.931
272.20,1.913
272.34,1.895
272.45,1.873
272.58,1.853
272.71,1.832
272.88,1.809
273.05,1.786
273.22,1.761
273.39,1.734
273.60,1.710
273.81,1.680
274.02,1.652
274.23,1.622
274.44,1.590
274.66,1.555
##END=
