##TITLE=2-Methylimidazo(1,2-a)pyridine
##JCAMP-DX=4.24
##DATA TYPE=UV/VIS SPECTRUM
##ORIGIN=INSTITUTE OF ENERGY PROBLEMS OF CHEMICAL PHYSICS, RAS
##OWNER=INEP CP RAS, NIST OSRD
Collection (C) 2007 copyright by the U.S. Secretary of Commerce
on behalf of the United States of America. All rights reserved.
##CAS REGISTRY NO=934-37-2
##MOLFORM=C8H8N2
##SOURCE REFERENCE=RAS UV No. 14816
##$NIST SQUIB=1968PEN/GRE1360
##$NIST SOURCE=TYUGLMTE
##SPECTROMETER/DATA SYSTEM=Beckman DK-2
##XUNITS=Wavelength (nm)
##YUNITS=Logarithm epsilon
##XFACTOR=1.0
##YFACTOR=1.0
##FIRSTX=206.67
##LASTX=341.2
##FIRSTY=4.174
##MAXX=341.2
##MINX=206.67
##MAXY=4.396
##MINY=2.689
##NPOINTS=125
##$REF AUTHOR=Pentimalli, L.; Greci, L.
##$REF JOURNAL=Gazz. chim. ital.
##$REF VOLUME=98
##$REF PAGE=1360
##$REF DATE=1968
##XYPOINTS=(XY..XY)
206.67,4.174
207.23,4.179
207.78,4.182
208.34,4.187
208.89,4.192
209.45,4.198
210.01,4.198
211.12,4.206
212.23,4.222
213.34,4.233
214.45,4.243
215.57,4.262
216.68,4.273
217.79,4.289
218.90,4.302
220.01,4.315
221.12,4.350
222.24,4.369
223.35,4.385
224.46,4.396
225.57,4.396
226.68,4.380
227.80,4.369
228.91,4.366
230.02,4.369
231.13,4.374
232.24,4.366
233.35,4.307
234.47,4.206
235.58,4.123
236.69,4.016
237.80,3.976
238.91,3.952
240.03,3.869
241.14,3.780
242.25,3.719
243.36,3.663
244.47,3.615
245.58,3.585
246.70,3.553
247.81,3.513
248.92,3.470
250.03,3.443
251.14,3.435
252.26,3.435
253.37,3.435
254.48,3.435
255.59,3.446
256.70,3.452
257.81,3.462
258.93,3.476
260.04,3.486
261.15,3.494
262.26,3.497
263.37,3.505
264.49,3.516
265.60,3.526
266.71,3.537
267.82,3.550
268.93,3.569
270.04,3.580
271.16,3.596
272.27,3.612
273.38,3.628
274.49,3.641
275.60,3.655
276.72,3.671
277.83,3.690
278.94,3.700
280.05,3.714
281.16,3.730
282.27,3.743
283.39,3.751
284.50,3.754
285.61,3.748
286.72,3.746
287.83,3.746
288.95,3.746
290.06,3.748
291.17,3.754
292.28,3.756
293.39,3.762
294.50,3.770
295.62,3.770
296.73,3.780
297.84,3.783
298.95,3.786
300.06,3.786
301.18,3.783
302.29,3.783
303.40,3.780
304.51,3.770
305.62,3.762
306.73,3.746
307.85,3.732
308.96,3.722
310.07,3.706
311.18,3.687
312.29,3.663
313.41,3.641
314.52,3.625
315.63,3.593
316.74,3.567
317.85,3.540
318.96,3.502
320.08,3.476
321.19,3.438
322.30,3.411
323.41,3.369
324.52,3.334
325.64,3.307
326.75,3.272
327.86,3.259
328.97,3.240
330.08,3.203
331.19,3.176
332.31,3.125
333.42,3.088
334.53,3.045
335.64,2.999
336.75,2.949
337.87,2.895
338.98,2.836
340.09,2.743
341.20,2.689
##END=
