##TITLE=2,4,5-Trichlorophenoxyacetic acid
##JCAMP-DX=4.24
##DATA TYPE=UV/VIS SPECTRUM
##ORIGIN=INSTITUTE OF ENERGY PROBLEMS OF CHEMICAL PHYSICS, RAS
##OWNER=INEP CP RAS, NIST OSRD
Collection (C) 2007 copyright by the U.S. Secretary of Commerce
on behalf of the United States of America. All rights reserved.
##CAS REGISTRY NO=93-76-5
##MOLFORM=C8H5Cl3O3
##MP=152-155
##SOURCE REFERENCE=RAS UV No. 19015
##$NIST SQUIB=1972LAN77
##$NIST SOURCE=TYUGLMTE
##SPECTROMETER/DATA SYSTEM=unknown
##XUNITS=Wavelength (nm)
##YUNITS=Logarithm epsilon
##XFACTOR=1.0
##YFACTOR=1.0
##FIRSTX=204.09
##LASTX=473.38
##FIRSTY=3.976
##MAXX=473.38
##MINX=204.09
##MAXY=4.132
##MINY=1.879
##NPOINTS=205
##$REF AUTHOR=Lang (editor), L.
##$REF JOURNAL=Absorption Spectra in the Ultraviolet and Visible Region
##$REF VOLUME=17
##$REF PAGE=77
##$REF DATE=1972
##XYPOINTS=(XY..XY)
204.09,3.976
205.11,3.996
206.30,4.013
207.49,4.033
208.86,4.047
210.22,4.061
211.58,4.074
213.12,4.078
214.65,4.074
216.01,4.061
217.20,4.044
218.40,4.023
219.42,3.999
220.61,3.979
221.80,3.959
222.82,3.935
224.02,3.914
225.38,3.897
226.74,3.884
228.28,3.880
229.81,3.877
231.34,3.877
232.87,3.880
234.41,3.884
235.94,3.894
237.47,3.897
238.84,3.908
240.37,3.914
241.73,3.928
243.26,3.938
244.63,3.948
245.99,3.962
247.35,3.979
248.72,3.996
250.08,4.010
251.27,4.030
252.46,4.047
253.83,4.061
255.19,4.071
256.55,4.088
257.91,4.098
259.45,4.108
260.81,4.119
262.34,4.125
263.87,4.132
265.41,4.132
266.94,4.129
268.47,4.119
269.84,4.108
271.20,4.098
272.56,4.081
273.92,4.064
275.29,4.050
276.65,4.033
278.01,4.016
279.38,4.003
280.74,3.986
282.27,3.976
283.63,3.965
285.00,3.952
286.36,3.938
287.89,3.931
289.25,3.918
290.79,3.908
292.32,3.901
293.85,3.891
295.39,3.887
296.92,3.884
298.45,3.874
299.99,3.870
301.52,3.870
303.05,3.860
304.58,3.857
306.12,3.850
307.65,3.839
309.18,3.829
310.72,3.819
312.08,3.809
313.61,3.802
314.97,3.788
316.34,3.775
317.87,3.768
319.23,3.754
320.60,3.741
321.96,3.727
323.49,3.717
324.85,3.703
326.22,3.690
327.58,3.676
329.11,3.666
330.65,3.656
332.01,3.642
333.54,3.639
334.90,3.625
336.44,3.622
337.97,3.618
339.50,3.608
341.04,3.605
342.57,3.605
344.10,3.598
345.63,3.591
347.17,3.584
348.70,3.574
350.23,3.567
351.77,3.557
353.30,3.550
354.83,3.540
356.20,3.523
357.56,3.509
358.92,3.499
360.28,3.486
361.65,3.472
363.01,3.455
364.37,3.438
365.73,3.421
367.10,3.404
368.46,3.387
369.82,3.370
371.18,3.353
372.55,3.336
373.74,3.319
375.10,3.302
376.46,3.285
377.66,3.264
379.02,3.247
380.21,3.227
381.57,3.210
382.60,3.189
383.62,3.169
384.98,3.152
386.17,3.135
387.37,3.118
388.90,3.108
390.26,3.091
391.62,3.077
392.99,3.064
394.52,3.057
395.88,3.043
397.42,3.040
398.95,3.030
400.48,3.026
402.01,3.026
403.55,3.026
405.08,3.023
406.61,3.023
408.15,3.013
409.68,3.009
411.21,3.009
412.75,3.002
414.28,2.992
415.81,2.989
417.34,2.978
418.88,2.972
420.41,2.961
421.94,2.958
423.31,2.944
424.67,2.934
426.03,2.924
427.39,2.910
428.76,2.897
430.12,2.887
431.48,2.870
432.84,2.853
434.21,2.839
435.57,2.822
436.93,2.805
438.13,2.784
439.49,2.767
440.68,2.747
441.87,2.727
442.89,2.706
443.92,2.682
444.94,2.662
446.13,2.642
447.15,2.621
448.17,2.597
449.20,2.573
450.39,2.553
451.24,2.526
452.26,2.505
453.28,2.485
454.14,2.461
454.99,2.437
456.01,2.417
456.86,2.393
457.71,2.369
458.57,2.345
459.42,2.322
460.27,2.298
461.12,2.271
461.97,2.247
462.82,2.220
463.68,2.196
464.53,2.168
465.38,2.145
466.23,2.117
466.91,2.090
467.93,2.066
468.44,2.039
469.47,2.015
470.15,1.988
471.00,1.961
471.85,1.934
472.70,1.906
473.38,1.879
##END=
