##TITLE=Benzoic acid, ethyl ester
##JCAMP-DX=4.24
##DATA TYPE=UV/VIS SPECTRUM
##ORIGIN=INSTITUTE OF ENERGY PROBLEMS OF CHEMICAL PHYSICS, RAS
##OWNER=INEP CP RAS, NIST OSRD
Collection (C) 2007 copyright by the U.S. Secretary of Commerce
on behalf of the United States of America. All rights reserved.
##CAS REGISTRY NO=93-89-0
##MOLFORM=C9H10O2
##MP=-34
##BP=212
##SOURCE REFERENCE=RAS UV No. 499
##$NIST SQUIB=1952UNG/LAM3789-3794
##$NIST SOURCE=TSGMTE
##SPECTROMETER/DATA SYSTEM=Beckman DU
##XUNITS=Wavelength (nm)
##YUNITS=Logarithm epsilon
##XFACTOR=1.000000
##YFACTOR=1.000000
##FIRSTX=241.8577
##LASTX=290.5013
##FIRSTY=3.32356
##MAXX=290.501
##MINX=241.858
##MAXY=3.32356
##MINY=1.34726
##NPOINTS=196
##$REF AUTHOR=Ungnade, H.E.; Lamb, R.W.
##$REF TITLE=The absorption spectra of benzoic acid and esters
##$REF JOURNAL=J. Am. Chem. Soc.
##$REF VOLUME=74
##$REF PAGE=3789-3794
##$REF DATE=1952
##XYPOINTS=(XY..XY)
241.8577,3.323562
242.2157,3.299000
242.8908,3.251617
243.9960,3.173655
243.9960,3.173655
244.0872,3.163486
244.1857,3.152857
244.2977,3.140966
244.4297,3.127005
244.5878,3.110170
244.7783,3.089655
245.0076,3.064653
245.2818,3.034360
245.6073,2.997970
245.9904,2.954677
246.4372,2.903676
246.9542,2.844161
246.9542,2.844161
247.2691,2.813665
247.5840,2.783375
247.8989,2.753189
247.8989,2.753189
248.1447,2.723026
248.3906,2.692864
248.6364,2.662701
248.6364,2.662701
248.8843,2.640884
249.1322,2.619067
249.3802,2.597251
249.3802,2.597251
249.6732,2.581955
249.9200,2.565942
250.3321,2.535488
250.3321,2.535488
250.5821,2.522017
250.8321,2.508546
251.0821,2.495075
251.0821,2.495075
251.1881,2.485928
251.2840,2.476989
251.3748,2.468153
253.0914,2.425324
253.1588,2.422088
253.2212,2.418957
253.2733,2.416032
253.2733,2.416032
254.1373,2.398343
254.9910,2.380758
255.8397,2.363380
255.8397,2.363380
256.0925,2.361500
256.3454,2.359620
256.5983,2.357740
256.5983,2.357740
257.1740,2.357682
257.7498,2.357624
258.3255,2.357566
258.3255,2.357566
258.9024,2.362128
259.4793,2.366586
260.0561,2.370838
260.0561,2.370838
260.5647,2.378652
261.0733,2.386363
261.5818,2.393868
261.5818,2.393868
262.1364,2.404802
262.6858,2.415531
263.2250,2.426158
263.2250,2.426158
263.6792,2.438270
264.1538,2.449763
265.0554,2.470485
265.0554,2.470485
265.6034,2.478776
266.1411,2.487067
266.6737,2.495360
266.6737,2.495360
267.0840,2.502325
267.5967,2.509589
268.3150,2.520232
268.3150,2.520232
268.6984,2.525122
269.1333,2.531758
269.6555,2.539107
269.6555,2.539107
270.4570,2.551648
271.1196,2.561421
271.8750,2.573658
271.8750,2.573658
272.0065,2.574435
272.1278,2.575006
272.2439,2.575475
272.2439,2.575475
273.2812,2.589367
273.8561,2.596401
274.4616,2.602608
274.4616,2.602608
274.7149,2.602582
274.9682,2.602557
275.2215,2.602531
275.2215,2.602531
275.5128,2.597076
275.7938,2.591827
276.0697,2.586682
276.0697,2.586682
276.4249,2.574144
276.6738,2.566667
277.0279,2.549956
277.0279,2.549956
277.0285,2.552412
277.0292,2.555074
277.0298,2.557838
277.0298,2.557838
277.4374,2.540178
277.6331,2.534749
277.7827,2.529016
277.7827,2.529016
278.1035,2.522492
278.4243,2.515969
278.7451,2.509445
278.7451,2.509445
279.1051,2.509615
279.4756,2.511020
280.1743,2.514865
280.1743,2.514865
280.5908,2.522688
281.0073,2.530409
281.4237,2.537922
281.4237,2.537922
281.7694,2.538798
282.1150,2.539570
282.4606,2.540136
282.4606,2.540136
282.5686,2.538734
282.6663,2.537334
282.7590,2.535933
282.7590,2.535933
283.2403,2.523315
283.5130,2.515354
283.8107,2.505226
283.8107,2.505226
283.9389,2.492248
284.0568,2.479374
284.1696,2.466706
284.1696,2.466706
284.2334,2.448634
284.2921,2.430666
284.3405,2.412905
284.3405,2.412905
284.5349,2.388329
284.7190,2.363856
284.8981,2.339591
284.8981,2.339591
285.0491,2.310644
285.1989,2.281700
285.3476,2.252761
285.4954,2.223831
285.6423,2.194913
285.7885,2.166008
285.9342,2.137120
286.0795,2.108251
286.2245,2.079405
286.3693,2.050584
286.3693,2.050584
286.5168,2.036522
286.7072,2.009577
287.1035,1.946651
287.1035,1.946651
287.2136,1.923911
287.3169,1.902896
287.4153,1.883219
287.5107,1.864492
287.6049,1.846326
287.6999,1.828335
287.7974,1.810132
287.8995,1.791328
288.0078,1.771536
288.1245,1.750370
288.2513,1.727440
288.3900,1.702359
288.5427,1.674741
288.7111,1.644196
288.8971,1.610341
289.1026,1.572782
289.3295,1.531138
289.5797,1.485017
289.8550,1.434032
289.8550,1.434032
289.9226,1.431261
289.9850,1.428593
290.0373,1.426132
290.3314,1.404774
290.3948,1.385431
290.4532,1.366296
290.5013,1.347264
##END=
