##TITLE=N-Phenylbenzoic acid amide
##JCAMP-DX=4.24
##DATA TYPE=UV/VIS SPECTRUM
##ORIGIN=INSTITUTE OF ENERGY PROBLEMS OF CHEMICAL PHYSICS, RAS
##OWNER=INEP CP RAS, NIST OSRD
Collection (C) 2007 copyright by the U.S. Secretary of Commerce
on behalf of the United States of America. All rights reserved.
##CAS REGISTRY NO=93-98-1
##MOLFORM=C13H11NO
##MP=164
##SOURCE REFERENCE=RAS UV No. 19156
##$NIST SQUIB=1967LAN117
##$NIST SOURCE=TYUGLMTE
##SPECTROMETER/DATA SYSTEM=unknown
##XUNITS=Wavelength (nm)
##YUNITS=Logarithm epsilon
##XFACTOR=1.0
##YFACTOR=1.0
##FIRSTX=210.7
##LASTX=337.75
##FIRSTY=4.196
##MAXX=337.75
##MINX=210.7
##MAXY=4.196
##MINY=1.497
##NPOINTS=120
##$REF AUTHOR=Lang (editor), L.
##$REF JOURNAL=Absorption Spectra in the Ultraviolet and Visible Region
##$REF VOLUME=9
##$REF PAGE=117
##$REF DATE=1967
##XYPOINTS=(XY..XY)
210.70,4.196
210.87,4.192
211.04,4.192
211.21,4.189
211.38,4.189
211.55,4.185
211.72,4.185
211.89,4.182
212.06,4.182
212.23,4.179
212.40,4.179
212.57,4.175
212.74,4.175
212.91,4.172
213.08,4.172
214.10,4.148
215.29,4.128
216.48,4.117
217.66,4.104
218.85,4.090
220.04,4.087
221.23,4.083
222.42,4.080
223.61,4.076
224.80,4.073
225.99,4.070
227.18,4.056
228.37,4.042
229.55,4.025
230.74,4.012
231.93,3.991
233.12,3.974
234.31,3.961
235.50,3.940
236.69,3.930
237.88,3.913
239.07,3.899
240.26,3.892
241.44,3.886
242.63,3.889
243.82,3.892
245.01,3.896
246.20,3.906
247.39,3.926
248.58,3.947
249.77,3.964
250.96,3.988
252.15,4.001
253.33,4.015
254.52,4.029
255.71,4.042
256.90,4.056
258.09,4.063
259.28,4.076
260.47,4.080
261.66,4.093
262.85,4.097
264.04,4.097
265.22,4.097
266.41,4.100
267.60,4.097
268.79,4.097
269.98,4.093
271.17,4.090
272.36,4.083
273.55,4.076
274.74,4.066
275.92,4.056
277.11,4.046
278.30,4.029
279.49,4.015
280.68,3.998
281.87,3.981
283.06,3.964
284.25,3.950
285.44,3.933
286.63,3.913
287.81,3.886
289.00,3.869
290.19,3.838
291.38,3.814
292.57,3.787
293.76,3.756
294.95,3.722
296.14,3.688
297.33,3.661
298.52,3.616
299.70,3.575
300.89,3.538
302.08,3.490
303.27,3.439
304.46,3.388
305.65,3.337
306.84,3.289
308.03,3.238
309.22,3.184
310.41,3.122
311.59,3.071
312.78,3.006
313.97,2.948
315.16,2.884
316.35,2.819
317.54,2.768
318.73,2.703
319.92,2.642
321.26,2.584
322.74,2.518
323.48,2.485
324.67,2.417
325.86,2.342
327.05,2.277
328.24,2.199
329.43,2.113
330.62,2.028
331.81,1.943
333.00,1.854
334.18,1.786
335.37,1.691
336.56,1.599
337.75,1.497
##END=
