##TITLE=Naphthalene, 2-ethyl-
##JCAMP-DX=4.24
##DATA TYPE=UV/VIS SPECTRUM
##ORIGIN=INSTITUTE OF ENERGY PROBLEMS OF CHEMICAL PHYSICS, RAS
##OWNER=INEP CP RAS, NIST OSRD
Collection (C) 2007 copyright by the U.S. Secretary of Commerce
on behalf of the United States of America. All rights reserved.
##CAS REGISTRY NO=939-27-5
##MOLFORM=C12H12
##MP=-7.4
##BP=258
##SOURCE REFERENCE=RAS UV No. 636
##$NIST SQUIB=1950RAM259-265
##$NIST SOURCE=TSGMTE
##SPECTROMETER/DATA SYSTEM=n.i.g.
##XUNITS=Wavelength (nm)
##YUNITS=Logarithm epsilon
##XFACTOR=1.000000
##YFACTOR=1.000000
##FIRSTX=325.9448
##LASTX=234.1377
##FIRSTY=1.03378
##MAXX=325.945
##MINX=234.138
##MAXY=3.63824
##MINY=1.03378
##NPOINTS=798
##$REF AUTHOR=Ramart-Lucas, P.
##$REF TITLE=Introduction a l'etude du comportement spectral des combinaisons polynucleaires
##$REF JOURNAL=Bull. Soc. Chim. Fr.
##$REF VOLUME=17
##$REF PAGE=259-265
##$REF DATE=1950
##XYPOINTS=(XY..XY)
325.9448,1.033781
325.8331,1.044222
325.6635,1.068561
325.2911,1.127668
325.2911,1.127668
325.1861,1.150323
325.0736,1.173163
324.9503,1.197595
324.8127,1.225027
324.6577,1.256874
324.4818,1.294546
324.2817,1.339447
324.2817,1.339447
324.1305,1.370450
323.9673,1.401633
323.7983,1.432907
323.7983,1.432907
323.7257,1.458570
323.6410,1.484234
323.5504,1.509901
323.5504,1.509901
323.4731,1.518046
323.3899,1.526373
323.2947,1.534789
323.2947,1.534789
323.1289,1.571302
322.9634,1.607904
322.8446,1.713218
322.8446,1.713218
322.8291,1.690373
322.8172,1.724861
322.8136,1.667530
322.7981,1.644686
322.7981,1.644686
322.7779,1.736593
322.7327,1.748506
322.7327,1.748506
322.5983,1.751851
322.4581,1.755376
322.3061,1.758991
322.3061,1.758991
322.1355,1.795876
322.0467,1.820101
321.9634,1.852431
321.9634,1.852431
321.8753,1.853766
321.7754,1.855280
321.6695,1.856884
321.6695,1.856884
321.6452,1.872638
321.6090,1.888572
321.5668,1.904596
321.5668,1.904596
321.4139,1.932594
321.2608,1.960624
321.1072,1.988683
320.9529,2.016766
320.7974,2.044867
320.6406,2.072983
320.4820,2.101109
320.3214,2.129239
320.3214,2.129239
320.2945,2.140866
320.2557,2.152496
320.2110,2.164126
320.2110,2.164126
320.1238,2.165461
320.0250,2.166975
319.9203,2.168579
319.9203,2.168579
319.9000,2.189944
319.8679,2.211489
319.8299,2.233124
319.8299,2.233124
319.7562,2.243972
319.6766,2.254910
319.5854,2.266028
319.5854,2.266028
319.3460,2.319189
319.1887,2.353446
319.0785,2.375883
318.9805,2.393585
318.8599,2.413637
318.8599,2.413637
318.8365,2.430089
318.8013,2.446632
318.7604,2.463353
318.7604,2.463353
318.6740,2.464688
318.5760,2.466202
318.4723,2.467806
318.4723,2.467806
318.4470,2.481452
318.4101,2.495190
318.3674,2.509106
318.3674,2.509106
318.2922,2.516733
318.2112,2.524361
317.6984,2.534058
317.4143,2.529811
317.1425,2.525741
316.8771,2.521758
316.8771,2.521758
316.6083,2.493029
316.4125,2.470525
316.1939,2.442614
315.8573,2.397662
315.8573,2.397662
315.7538,2.396891
315.6562,2.396209
315.5703,2.395703
315.5703,2.395703
315.4633,2.378900
315.3680,2.362184
315.2786,2.345646
315.2786,2.345646
315.0912,2.336055
314.9040,2.326464
314.7170,2.316874
314.7170,2.316874
314.6209,2.316087
314.5363,2.315299
314.0473,2.316978
314.0144,2.317503
313.9701,2.318208
313.9202,2.319002
313.9202,2.319002
313.7472,2.329450
313.5744,2.339899
313.4018,2.350347
313.4018,2.350347
313.3328,2.364000
313.2582,2.377743
313.1724,2.391667
313.1724,2.391667
313.0051,2.409730
312.8379,2.427793
312.6710,2.445856
312.6710,2.445856
312.5448,2.449201
312.4132,2.452725
312.2705,2.456340
312.2705,2.456340
312.0698,2.472122
311.8582,2.488084
311.6413,2.504136
311.6413,2.504136
311.5663,2.506954
311.4856,2.509772
311.3938,2.512593
311.3938,2.512593
311.3631,2.515819
311.3212,2.519136
310.4679,2.522760
310.3415,2.521296
310.2152,2.520010
310.0891,2.518813
310.0891,2.518813
309.9091,2.511226
309.7292,2.503639
309.5496,2.496053
309.5496,2.496053
309.3688,2.484874
309.1939,2.473783
309.0303,2.462868
309.0303,2.462868
308.8528,2.457301
308.6754,2.451822
308.4984,2.446521
308.1009,2.444581
307.8531,2.445141
307.6004,2.445880
307.3372,2.446709
307.3372,2.446709
307.2568,2.447940
307.1656,2.449261
307.0691,2.450761
307.0691,2.450761
306.9759,2.454487
306.8837,2.459906
306.7138,2.471662
306.7138,2.471662
306.6460,2.482613
306.5730,2.493744
306.4891,2.504966
306.4891,2.504966
306.4109,2.509002
306.3219,2.513128
306.2277,2.517434
306.2277,2.517434
306.1109,2.526286
305.9943,2.535227
305.8779,2.544346
305.8779,2.544346
305.7984,2.545680
305.7082,2.547195
305.6126,2.548799
305.6126,2.548799
305.5852,2.555617
305.5470,2.562437
305.5034,2.569258
305.5034,2.569258
305.1423,2.595490
304.8947,2.612261
304.5484,2.633948
304.5484,2.633948
304.4704,2.636766
304.3818,2.639587
304.2878,2.642408
304.2878,2.642408
304.2170,2.646443
304.1409,2.650567
304.0542,2.654872
304.0542,2.654872
303.9760,2.656889
303.8872,2.658908
303.7930,2.660928
303.7930,2.660928
303.7205,2.661741
303.6427,2.662556
303.5542,2.663372
303.5542,2.663372
303.1690,2.661032
303.0477,2.658261
302.9264,2.655580
302.8054,2.653077
302.8054,2.653077
302.6295,2.638395
302.4539,2.623891
302.2785,2.609476
302.2785,2.609476
302.1842,2.599071
302.1005,2.588664
302.0221,2.578256
302.0221,2.578256
301.6357,2.549448
301.3666,2.530684
300.9843,2.505884
300.9843,2.505884
300.8952,2.503093
300.8167,2.500301
300.7434,2.497508
300.2481,2.495588
300.0854,2.498421
299.9229,2.501255
299.7605,2.504088
299.7605,2.504088
299.7317,2.506617
299.6925,2.509325
299.6482,2.512124
299.6482,2.512124
299.5719,2.513458
299.4853,2.514972
299.3936,2.516576
299.3936,2.516576
299.2918,2.542246
299.1901,2.567916
299.0884,2.593585
299.0884,2.593585
299.0216,2.600411
298.9496,2.607237
298.8673,2.614065
298.8673,2.614065
298.8011,2.632113
298.7246,2.650163
298.6429,2.668214
298.6429,2.668214
298.5747,2.672249
298.5014,2.676373
298.4179,2.680678
298.4179,2.680678
298.2442,2.705662
298.1293,2.725115
297.9746,2.755707
297.9746,2.755707
297.9529,2.770140
297.9210,2.784575
297.8839,2.799011
297.8839,2.799011
297.8085,2.800345
297.7229,2.801859
297.6323,2.803464
297.6323,2.803464
297.5541,2.823459
297.4727,2.838021
297.3187,2.859632
297.3187,2.859632
297.1003,2.881715
296.8772,2.903799
296.6442,2.925884
296.6442,2.925884
296.5757,2.938337
296.4971,2.950879
296.4136,2.963601
296.4136,2.963601
296.3460,2.966835
296.2733,2.970158
296.1906,2.973661
296.1906,2.973661
296.1247,2.979803
296.0538,2.986125
295.9729,2.992537
295.9729,2.992537
295.8999,2.996573
295.8170,3.000700
295.7291,3.005006
295.7291,3.005006
295.6645,3.013152
295.5950,3.021477
295.5154,3.029894
295.5154,3.029894
294.8080,3.085865
294.4067,3.118536
294.1495,3.138356
294.1495,3.138356
294.0829,3.141589
294.0113,3.144912
293.9299,3.148415
293.9299,3.148415
293.7131,3.164486
293.4916,3.180558
293.2605,3.196632
293.2605,3.196632
292.7575,3.224780
292.2603,3.251590
291.9189,3.271425
291.9189,3.271425
291.8468,3.273457
291.7650,3.275580
291.6784,3.277882
291.6784,3.277882
291.6137,3.282703
291.5442,3.287525
291.4648,3.292350
291.4648,3.292350
291.1366,3.304626
290.9630,3.311620
290.7949,3.319326
290.7949,3.319326
290.7234,3.321358
290.6422,3.323480
290.5563,3.325782
290.5563,3.325782
290.4492,3.331131
290.3424,3.336658
290.2356,3.342274
290.2356,3.342274
290.1644,3.344306
290.0835,3.346429
289.9979,3.348731
289.9979,3.348731
289.9710,3.351541
289.9344,3.354354
289.8930,3.357167
289.8930,3.357167
289.8276,3.359183
289.7573,3.361200
289.6774,3.363219
289.6774,3.363219
289.5704,3.368850
289.4586,3.374482
289.3371,3.380115
289.3371,3.380115
289.1863,3.383365
289.0356,3.386703
288.8897,3.398635
288.8897,3.398635
288.8882,3.395830
288.8867,3.393024
288.8852,3.390219
288.8852,3.390219
288.6738,3.402698
288.4534,3.406851
288.2284,3.419600
288.2284,3.419600
288.2269,3.416794
288.2253,3.413989
288.2238,3.411184
288.2238,3.411184
288.0787,3.422953
287.9293,3.426484
287.7801,3.430104
287.7801,3.430104
287.6150,3.436518
287.4447,3.441953
287.1238,3.451069
287.1238,3.451069
286.9741,3.452314
286.8247,3.453648
286.6755,3.455161
286.6755,3.455161
286.6112,3.456494
286.5422,3.458006
286.4639,3.459609
286.4639,3.459609
286.4003,3.462145
286.3321,3.464859
286.2545,3.467665
286.2545,3.467665
286.1476,3.469006
286.0363,3.470526
285.9156,3.472137
285.9156,3.472137
285.3630,3.472761
284.8128,3.473563
284.2646,3.474454
284.2646,3.474454
284.0517,3.471169
283.8343,3.467707
283.6079,3.464158
283.6079,3.464158
283.5374,3.461366
283.4576,3.458575
283.3731,3.455786
283.3731,3.455786
283.1618,3.453021
282.9462,3.450256
282.7216,3.447494
282.7216,3.447494
282.6939,3.446282
282.6570,3.444983
282.6154,3.443506
282.6154,3.443506
282.0120,3.443103
281.4066,3.442523
280.7946,3.441855
280.7946,3.441855
280.3440,3.452334
280.1240,3.457781
279.9449,3.462864
279.9449,3.462864
279.9201,3.466194
279.8864,3.469704
279.8481,3.473304
279.8481,3.473304
279.6486,3.483482
279.4449,3.493840
279.2326,3.504288
279.2326,3.504288
279.1317,3.507113
279.0264,3.509940
278.9121,3.512768
278.9121,3.512768
278.8883,3.517583
278.8554,3.522399
278.8181,3.527216
278.8181,3.527216
278.7576,3.529247
278.6927,3.531368
278.6189,3.533669
278.6189,3.533669
278.5939,3.536197
278.5601,3.538906
278.5218,3.541704
278.5218,3.541704
278.3127,3.548515
278.1351,3.554785
278.0057,3.558641
278.0057,3.558641
277.8678,3.564799
277.7302,3.571136
277.5928,3.577562
277.5928,3.577562
277.3554,3.585744
277.1140,3.594106
276.8642,3.602558
276.8642,3.602558
276.8042,3.603787
276.7398,3.605106
276.6666,3.606606
276.6666,3.606606
276.6074,3.609423
276.5439,3.612242
276.4715,3.615062
276.4715,3.615062
276.1359,3.621958
275.7968,3.628945
275.4499,3.636111
275.4499,3.636111
275.2518,3.636670
275.0498,3.637409
274.8393,3.638239
274.8393,3.638239
274.7395,3.636938
274.6354,3.635460
274.5225,3.633895
274.5225,3.633895
274.2591,3.628619
273.9873,3.623167
273.7117,3.617627
273.7117,3.617627
273.5095,3.614863
273.2989,3.612101
273.0843,3.609339
273.0843,3.609339
273.0240,3.606546
272.9593,3.603753
272.8861,3.600963
272.8861,3.600963
272.7236,3.597775
272.5527,3.594500
272.3776,3.591048
272.3776,3.591048
272.2167,3.589760
272.0473,3.588296
271.8738,3.586743
271.8738,3.586743
271.7248,3.582306
271.5936,3.579112
271.3680,3.574424
271.3680,3.574424
271.2083,3.573240
271.0402,3.571969
270.8680,3.570520
270.8680,3.570520
270.5427,3.570588
270.2139,3.570657
269.8775,3.570728
269.8775,3.570728
269.7207,3.571979
269.5557,3.573320
269.3868,3.574840
269.3868,3.574840
269.0071,3.582536
268.6201,3.590234
268.2301,3.597933
268.2301,3.597933
267.6131,3.598585
266.9990,3.599415
266.3877,3.600334
266.3877,3.600334
265.7612,3.594666
265.4404,3.591514
265.1488,3.588178
265.1488,3.588178
264.6625,3.580803
264.4385,3.577111
264.2840,3.573939
264.2840,3.573939
264.1561,3.572750
264.0283,3.571471
263.9005,3.570015
263.9005,3.570015
263.8445,3.568008
263.7844,3.565914
263.7162,3.563643
263.7162,3.563643
263.6244,3.562446
263.5286,3.561161
263.4248,3.559699
263.4248,3.559699
263.1451,3.553690
262.9753,3.550506
262.7698,3.547419
262.7698,3.547419
262.5888,3.546139
262.4039,3.544680
262.2113,3.543135
262.2113,3.543135
262.0841,3.539140
261.9570,3.535057
261.8300,3.530795
261.8300,3.530795
261.7740,3.526785
261.7140,3.522686
261.6460,3.518411
261.6460,3.518411
261.5556,3.517214
261.4613,3.515929
261.3591,3.514468
261.3591,3.514468
261.2669,3.508877
261.1709,3.503287
261.0671,3.497699
261.0671,3.497699
260.9196,3.497213
260.7643,3.496550
260.6053,3.495799
260.6053,3.495799
260.5811,3.492999
260.5490,3.490201
260.5131,3.487403
260.5131,3.487403
260.1769,3.480265
259.9879,3.476567
259.7837,3.473140
259.7837,3.473140
259.7255,3.472633
259.6594,3.471951
259.5895,3.471180
259.5895,3.471180
259.5349,3.468387
259.4765,3.465594
259.4103,3.462804
259.4103,3.462804
259.3565,3.461599
259.2989,3.460306
259.2333,3.458836
259.2333,3.458836
258.9336,3.454882
258.6306,3.450839
258.3205,3.446620
258.3205,3.446620
257.6194,3.429532
256.9220,3.412356
256.2283,3.395000
256.2283,3.395000
255.9649,3.390252
255.6944,3.385506
255.4206,3.380761
255.4206,3.380761
255.2484,3.376779
255.0726,3.372708
254.8895,3.368461
254.8895,3.368461
254.5081,3.362406
254.3010,3.358714
254.0902,3.354222
254.0902,3.354222
253.9837,3.352926
253.8698,3.351454
253.7523,3.349893
253.7523,3.349893
253.6670,3.347909
253.5780,3.345927
253.4816,3.343946
253.4816,3.343946
253.3639,3.342653
253.2462,3.341182
253.1286,3.339621
253.1286,3.339621
253.0771,3.337630
253.0219,3.335639
252.9593,3.333650
252.9593,3.333650
252.7909,3.330885
252.6190,3.328120
252.4399,3.325358
252.4399,3.325358
252.3842,3.322848
252.3210,3.320161
252.2541,3.317386
252.2541,3.317386
252.1492,3.316091
252.0369,3.314618
251.9211,3.313058
251.9211,3.313058
251.7504,3.311882
251.5726,3.310619
251.3913,3.309178
251.3913,3.309178
251.2536,3.306406
251.1087,3.303636
250.9604,3.300866
250.9604,3.300866
250.9386,3.299654
250.9095,3.298355
250.8767,3.296879
250.8767,3.296879
250.5965,3.294141
250.3132,3.291405
250.0233,3.288671
250.0233,3.288671
249.8588,3.285906
249.6909,3.283141
249.5160,3.280379
249.5160,3.280379
249.4945,3.279167
249.4657,3.277868
249.4333,3.276391
249.4333,3.276391
249.1202,3.273559
248.9017,3.271951
248.5905,3.270187
248.5905,3.270187
248.5683,3.266971
248.5389,3.263668
248.5059,3.260188
248.5059,3.260188
248.3121,3.259434
248.1149,3.258682
247.9110,3.257931
247.9110,3.257931
247.7812,3.255158
247.6480,3.252386
247.5079,3.249615
247.5079,3.249615
247.2352,3.247160
246.9595,3.244528
246.6774,3.241808
246.6774,3.241808
246.5336,3.239039
246.3901,3.236269
246.2467,3.233500
246.2467,3.233500
245.9779,3.232351
245.7096,3.231113
245.4419,3.229697
245.4419,3.229697
245.2337,3.226276
244.9563,3.222606
244.3734,3.215541
244.3734,3.215541
244.1081,3.214289
243.8398,3.212859
243.5652,3.211341
243.5652,3.211341
243.4565,3.210152
243.3480,3.208874
243.2394,3.207418
243.2394,3.207418
243.0341,3.206150
242.8222,3.204706
242.6072,3.203173
242.6072,3.203173
242.4218,3.200698
242.2332,3.198046
242.0380,3.195306
242.0380,3.195306
241.4396,3.195464
240.8374,3.195623
240.2349,3.195783
240.2349,3.195783
240.0548,3.196351
239.8750,3.197096
239.6955,3.197931
239.6955,3.197931
239.5723,3.200488
239.4426,3.203224
239.3098,3.206051
239.3098,3.206051
239.2614,3.208083
239.2064,3.210206
239.1482,3.212507
239.1482,3.212507
239.0251,3.213862
238.8956,3.215396
238.7629,3.217020
238.7629,3.217020
238.6599,3.219572
238.5571,3.222301
238.4543,3.225120
238.4543,3.225120
238.3626,3.229168
238.2643,3.233306
238.1630,3.237624
238.1630,3.237624
238.0606,3.240458
237.9583,3.243291
237.8561,3.246125
237.8561,3.246125
237.8123,3.248942
237.7653,3.251761
237.7118,3.254581
237.7118,3.254581
237.6381,3.255818
237.5612,3.257145
237.4779,3.258653
237.4779,3.258653
237.3771,3.264292
237.2765,3.269931
237.1759,3.275570
237.1759,3.275570
236.9047,3.281448
236.7694,3.284707
236.6538,3.288138
236.6538,3.288138
236.6067,3.290674
236.5531,3.293391
236.4963,3.296197
236.4963,3.296197
236.3238,3.302376
236.1516,3.308732
235.9796,3.315178
235.9796,3.315178
235.9366,3.317996
235.8903,3.320814
235.8376,3.323635
235.8376,3.323635
235.7903,3.324865
235.7366,3.326186
235.6798,3.327686
235.6798,3.327686
235.3587,3.341566
235.1711,3.350244
234.9558,3.361155
234.9558,3.361155
234.8419,3.368743
234.7652,3.373025
234.6600,3.377671
234.6600,3.377671
234.6323,3.380485
234.6046,3.383298
234.5770,3.386111
234.5770,3.386111
234.4346,3.390174
234.2892,3.394327
234.1377,3.398660
##END=
