##TITLE=Resorcinol dibenzoate
##JCAMP-DX=4.24
##DATA TYPE=UV/VIS SPECTRUM
##ORIGIN=INSTITUTE OF ENERGY PROBLEMS OF CHEMICAL PHYSICS, RAS
##OWNER=INEP CP RAS, NIST OSRD
Collection (C) 2007 copyright by the U.S. Secretary of Commerce
on behalf of the United States of America. All rights reserved.
##CAS REGISTRY NO=94-01-9
##MOLFORM=C20H14O4
##MP=115-116
##SOURCE REFERENCE=RAS UV No. 19092
##$NIST SQUIB=1969LAN173
##$NIST SOURCE=TYUGLMTE
##SPECTROMETER/DATA SYSTEM=Beckman DU
##XUNITS=Wavelength (nm)
##YUNITS=Logarithm epsilon
##XFACTOR=1.0
##YFACTOR=1.0
##FIRSTX=210.07
##LASTX=301.51
##FIRSTY=3.796
##MAXX=301.51
##MINX=210.07
##MAXY=4.41
##MINY=1.187
##NPOINTS=103
##$REF AUTHOR=Lang (editor), L.
##$REF JOURNAL=Absorption Spectra in the Ultraviolet and Visible Region
##$REF VOLUME=12
##$REF PAGE=173
##$REF DATE=1969
##XYPOINTS=(XY..XY)
210.07,3.796
210.57,3.826
211.07,3.857
211.58,3.884
212.25,3.911
213.09,3.938
213.93,3.962
215.10,3.982
216.28,3.999
217.11,4.026
218.12,4.050
218.79,4.077
219.46,4.104
219.97,4.132
220.81,4.159
221.64,4.182
222.48,4.206
223.49,4.230
224.33,4.257
225.17,4.281
226.01,4.305
227.01,4.328
227.85,4.352
229.03,4.369
230.20,4.386
231.54,4.400
232.89,4.410
234.40,4.410
235.91,4.403
237.25,4.389
238.59,4.372
239.77,4.352
240.60,4.328
241.61,4.305
242.45,4.277
243.12,4.250
243.79,4.223
244.30,4.196
244.80,4.169
245.30,4.142
245.81,4.115
246.48,4.088
247.15,4.060
247.65,4.033
248.49,4.006
248.99,3.979
249.66,3.952
250.50,3.928
251.34,3.901
252.18,3.877
253.02,3.850
253.86,3.826
254.87,3.803
255.70,3.779
256.71,3.755
257.72,3.735
258.72,3.714
259.73,3.694
260.91,3.674
262.08,3.657
263.42,3.640
264.77,3.623
266.11,3.606
267.45,3.592
268.79,3.575
270.13,3.558
271.48,3.541
272.82,3.524
274.16,3.507
275.34,3.487
276.34,3.467
277.35,3.446
278.36,3.426
279.03,3.399
279.70,3.372
280.20,3.345
280.70,3.318
281.88,3.297
283.22,3.280
284.40,3.263
285.23,3.239
286.07,3.216
286.58,3.189
287.08,3.158
287.25,3.128
287.58,3.097
287.75,3.066
288.09,3.036
288.33,2.988
288.66,2.934
289.10,2.853
289.59,2.739
290.33,2.600
291.28,2.459
292.11,2.320
293.29,2.188
294.46,2.073
295.64,1.950
296.81,1.818
297.99,1.686
299.16,1.530
300.34,1.360
301.51,1.187
##END=
