##TITLE=1,2,3,4-Tetrahydrocarbazole
##JCAMP-DX=4.24
##DATA TYPE=UV/VIS SPECTRUM
##ORIGIN=INSTITUTE OF ENERGY PROBLEMS OF CHEMICAL PHYSICS, RAS
##OWNER=INEP CP RAS, NIST OSRD
Collection (C) 2007 copyright by the U.S. Secretary of Commerce
on behalf of the United States of America. All rights reserved.
##CAS REGISTRY NO=942-01-8
##MOLFORM=C12H13N
##MP=120
##BP=327.5
##SOURCE REFERENCE=RAS UV No. 330
##$NIST SQUIB=1960GRA4373-4375
##$NIST SOURCE=TSGMTE
##SPECTROMETER/DATA SYSTEM=n.i.g.
##XUNITS=Wavelength (nm)
##YUNITS=Logarithm epsilon
##XFACTOR=1.000000
##YFACTOR=1.000000
##FIRSTX=318.9393
##LASTX=219.3573
##FIRSTY=1.47817
##MAXX=318.939
##MINX=219.357
##MAXY=4.49615
##MINY=1.47817
##NPOINTS=419
##$REF AUTHOR=Grammaticakis, P.
##$REF TITLE=Remarques sur la preparation et l'absorption dans l'ultraviolet moyen des N-acylcarbazoles et de leurs derives hydrogenes
##$REF JOURNAL=Compt. Rend.
##$REF VOLUME=250
##$REF PAGE=4373-4375
##$REF DATE=1960
##XYPOINTS=(XY..XY)
318.9393,1.478168
318.9358,1.484954
318.4697,1.490937
318.4601,1.509788
318.0467,1.515776
318.0240,1.560268
317.6117,1.566255
317.5956,1.597927
317.1365,1.597876
317.1174,1.635580
316.7074,1.641567
316.6754,1.704911
316.2666,1.710899
316.2506,1.742570
315.7924,1.748552
315.7829,1.767404
315.3764,1.773392
315.3575,1.811097
314.9517,1.817838
314.9298,1.861576
314.4750,1.868311
314.4596,1.899229
314.0561,1.905971
314.0374,1.943675
313.6353,1.949663
313.6136,1.993400
313.1660,1.993349
313.1503,2.025021
312.7505,2.031008
312.7349,2.062680
312.3362,2.068667
312.3173,2.107126
311.8704,2.113108
311.8456,2.163632
311.4492,2.169619
311.4278,2.213357
311.0320,2.220098
311.0078,2.269868
310.5675,2.269817
310.5459,2.314309
310.1527,2.320296
310.1345,2.358001
309.7423,2.363988
309.7238,2.402447
309.2842,2.408428
309.2660,2.446133
308.8761,2.452120
308.8547,2.496612
308.4687,2.496567
308.4506,2.534271
308.0147,2.540253
307.9906,2.590777
307.6038,2.596764
307.5859,2.634469
307.1998,2.641210
307.1790,2.684948
306.7466,2.690930
306.7227,2.741454
306.3420,2.741408
306.3242,2.779113
305.9416,2.785100
305.9238,2.822805
305.4947,2.829541
305.4769,2.867245
305.0965,2.873233
305.0816,2.904904
304.7050,2.904859
304.6845,2.948596
304.3057,2.955338
304.2881,2.993042
303.8639,2.999024
303.8491,3.030696
303.4727,3.036684
303.4524,3.080421
303.0767,3.087162
303.0624,3.118080
302.6412,3.124816
302.6325,3.143668
302.2591,3.149656
302.2473,3.175295
301.8748,3.181282
301.8634,3.206167
301.4455,3.212903
301.4314,3.243821
301.0606,3.250562
301.0520,3.269415
300.6852,3.269369
300.6711,3.300287
300.2566,3.307023
300.2394,3.344728
299.8719,3.350715
299.8634,3.369567
299.4968,3.375555
299.4910,3.388374
299.0827,3.388323
299.0742,3.407176
298.7095,3.413163
298.7065,3.419950
298.3427,3.425937
298.3400,3.431970
297.9318,3.438706
297.9177,3.470378
297.5585,3.470333
297.5447,3.501250
297.1834,3.507992
297.1750,3.526844
296.7703,3.532826
296.7647,3.545645
296.4056,3.551633
296.3999,3.564452
296.0417,3.570440
296.0361,3.583259
295.6345,3.589241
295.6318,3.595274
295.2752,3.602016
295.2725,3.608048
294.9197,3.608003
294.9114,3.626855
294.5129,3.632837
294.5099,3.639624
294.1589,3.639579
294.1563,3.645611
293.8035,3.651599
293.8006,3.658386
293.4076,3.658335
293.4050,3.664367
293.0567,3.664322
293.0540,3.670355
292.7036,3.677097
292.7010,3.683129
292.3110,3.683078
292.3084,3.689111
291.9626,3.689066
291.9597,3.695853
291.6121,3.701840
291.6096,3.707873
291.2654,3.707828
291.2570,3.727434
290.5285,3.727338
290.5259,3.733370
290.1844,3.733325
290.1818,3.739358
289.7956,3.746094
289.7905,3.758159
287.3260,3.802323
286.9919,3.802277
286.6145,3.808259
286.2820,3.808214
286.2795,3.814247
285.9479,3.814201
285.5729,3.820937
285.2428,3.820892
284.9111,3.826880
284.9086,3.832912
283.8793,3.845590
283.1872,3.845494
282.8602,3.851482
282.4960,3.851431
282.1703,3.858172
281.1658,3.858031
281.1634,3.864064
280.4844,3.863968
280.4820,3.870000
276.9049,3.863453
276.9026,3.869486
276.5946,3.863408
275.9424,3.850492
275.6342,3.850447
275.2907,3.844363
274.9862,3.838285
274.9839,3.844318
274.3393,3.831402
274.3367,3.838189
274.0370,3.825324
274.0347,3.831357
273.7353,3.819246
273.7331,3.825279
273.3968,3.812409
272.7947,3.806285
272.7924,3.812318
272.4582,3.800202
271.8605,3.793324
271.8580,3.800111
271.5263,3.787241
271.5240,3.793273
271.2301,3.781163
271.2279,3.787196
270.9349,3.774331
270.9324,3.781118
270.6007,3.774280
270.3066,3.768202
270.0131,3.762124
270.0109,3.768157
269.6859,3.749253
269.6812,3.762073
269.0978,3.749163
268.8094,3.736298
268.8069,3.743085
268.1909,3.730169
268.1887,3.736202
267.9020,3.724091
267.8998,3.730124
267.5777,3.717254
267.5752,3.724040
267.2901,3.711176
267.2879,3.717208
267.0033,3.704344
267.0009,3.711130
266.6809,3.698260
266.6788,3.704293
266.3953,3.692182
266.3931,3.698215
266.1105,3.685350
266.1080,3.692137
265.7902,3.679266
265.7881,3.685299
265.5064,3.673188
265.5043,3.679221
265.2235,3.666356
265.2211,3.673143
264.9054,3.660273
264.9033,3.666305
264.6235,3.654195
264.6214,3.660227
263.7465,3.635201
263.4673,3.628369
263.4649,3.635156
262.8776,3.609421
262.8752,3.616207
262.6000,3.603343
262.5979,3.609375
262.2881,3.597259
262.2860,3.603292
261.4288,3.571479
261.4265,3.578265
261.1543,3.565401
258.9154,3.502438
258.9113,3.514503
258.6125,3.495600
258.6102,3.502387
258.0737,3.489477
258.0717,3.495510
257.7748,3.476606
257.7725,3.483393
256.1175,3.432586
256.1155,3.438619
255.8542,3.425754
255.8520,3.432541
255.5913,3.419676
255.5893,3.425709
255.2938,3.419626
255.0342,3.406761
255.0320,3.413548
254.7730,3.400683
254.7710,3.406715
254.4794,3.394599
254.2195,3.387767
254.2173,3.394554
251.8062,3.330786
251.5515,3.324708
251.5496,3.330741
251.2634,3.324657
250.5062,3.299637
250.5043,3.305669
249.9692,3.292754
249.9671,3.299540
249.7182,3.286676
249.1825,3.286579
248.9330,3.280502
248.6509,3.280451
247.6218,3.280264
247.3718,3.286251
247.0932,3.286201
246.8442,3.292188
246.5976,3.292143
246.0712,3.304866
245.8261,3.304821
245.8243,3.310854
245.5492,3.310803
245.0577,3.323532
245.0558,3.329564
244.7824,3.329514
244.7804,3.336300
244.5360,3.342288
244.5342,3.348321
244.2901,3.355062
244.2883,3.361095
244.0148,3.367077
244.0128,3.373864
243.7700,3.379851
243.7661,3.392671
243.5256,3.392625
243.5238,3.398658
243.2520,3.404640
243.2482,3.417459
243.0069,3.423447
243.0049,3.430234
242.7641,3.436221
242.7602,3.449041
242.4901,3.455022
242.4881,3.461809
242.2483,3.467797
242.2428,3.486649
242.0035,3.492636
241.9979,3.511489
241.7609,3.511443
241.7571,3.524263
241.4892,3.530245
241.4872,3.537032
241.2494,3.543019
241.2439,3.561871
241.0065,3.567859
241.0028,3.580678
240.7366,3.586660
240.7328,3.599480
240.4965,3.605467
240.4928,3.618287
240.2569,3.624274
240.2514,3.643126
239.9866,3.649862
239.9812,3.668715
239.7463,3.674702
239.7408,3.693554
239.5065,3.699542
239.4973,3.731214
239.2342,3.737950
239.2307,3.750015
238.9971,3.756757
238.9899,3.781642
238.7570,3.787629
238.7516,3.806481
238.4901,3.813217
238.4847,3.832069
238.2528,3.838057
238.2474,3.856909
238.0159,3.862897
238.0086,3.888536
237.7489,3.894518
237.7453,3.907337
237.2828,3.926099
237.2668,3.982656
237.0087,3.988637
237.0051,4.001457
236.7760,4.007444
236.7707,4.026297
236.5419,4.033038
236.5402,4.039071
236.2837,4.045053
236.2712,4.089544
236.0453,4.089499
236.0383,4.114384
235.8111,4.120371
235.8075,4.133191
235.5526,4.139173
235.5473,4.158025
234.8417,4.176736
234.8312,4.214440
234.6061,4.221182
234.6009,4.240034
234.3764,4.246022
234.3746,4.252808
234.1228,4.258790
234.1211,4.264823
233.8974,4.271564
233.8941,4.283630
233.4481,4.296359
233.4446,4.309178
233.1964,4.309128
233.1931,4.321193
232.7498,4.333922
232.7482,4.339955
232.4996,4.346691
232.4980,4.352723
231.8105,4.371434
231.8089,4.377467
231.5895,4.384209
231.5879,4.390241
231.3708,4.390196
230.9074,4.402919
230.9041,4.414985
230.6865,4.421726
230.2292,4.421630
230.0130,4.427618
229.7721,4.427567
229.7705,4.433600
229.5550,4.440341
229.3417,4.440296
228.8866,4.452265
228.8848,4.459052
228.6711,4.465039
228.2218,4.464943
228.2202,4.470976
228.0094,4.470931
227.7709,4.477667
227.3513,4.477576
226.9040,4.489546
226.2540,4.489404
226.0450,4.496146
223.6891,4.495625
223.4882,4.488793
223.0590,4.488697
222.8591,4.482619
222.2320,4.482478
222.0336,4.476400
221.6100,4.476304
221.4143,4.463439
221.4128,4.469472
220.9945,4.457310
220.9931,4.463343
220.5765,4.450427
220.5748,4.457214
220.3810,4.444349
220.3796,4.450382
220.1844,4.444304
219.9651,4.438220
219.7709,4.431388
219.7693,4.438175
219.5754,4.431343
219.3573,4.425259
##END=
