##TITLE=3-Buten-2-one, 4-(4-methoxyphenyl)-
##JCAMP-DX=4.24
##DATA TYPE=UV/VIS SPECTRUM
##ORIGIN=INSTITUTE OF ENERGY PROBLEMS OF CHEMICAL PHYSICS, RAS
##OWNER=INEP CP RAS, NIST OSRD
Collection (C) 2007 copyright by the U.S. Secretary of Commerce
on behalf of the United States of America. All rights reserved.
##CAS REGISTRY NO=943-88-4
##MOLFORM=C11H12O2
##SOURCE REFERENCE=RAS UV No. 20234
##$NIST SQUIB=1969BOL/337
##$NIST SOURCE=TYUGLMTE
##SPECTROMETER/DATA SYSTEM=unknown
##XUNITS=Wavelength (nm)
##YUNITS=Logarithm epsilon
##XFACTOR=1.0
##YFACTOR=1.0
##FIRSTX=227.98
##LASTX=370.79
##FIRSTY=4.024
##MAXX=370.79
##MINX=227.98
##MAXY=4.486
##MINY=2.878
##NPOINTS=129
##$REF AUTHOR=Bolshakov, G.F.; et al.
##$REF JOURNAL=Ultraviolet Spectra of Heteroorganic Compounds
##$REF PAGE=337
##$REF DATE=1969
##XYPOINTS=(XY..XY)
227.98,4.024
229.62,4.043
231.32,4.052
233.30,4.038
234.94,4.014
236.37,3.986
237.47,3.957
238.62,3.920
239.64,3.882
240.46,3.845
241.28,3.807
241.89,3.764
242.31,3.730
242.92,3.684
243.53,3.646
244.14,3.609
244.70,3.574
245.36,3.536
246.19,3.491
246.80,3.453
247.44,3.421
248.24,3.378
248.85,3.340
249.46,3.302
250.08,3.264
250.73,3.224
251.33,3.187
252.03,3.147
252.94,3.113
254.37,3.085
256.21,3.095
257.65,3.123
258.87,3.156
259.90,3.189
261.13,3.222
262.35,3.255
263.38,3.288
264.60,3.321
265.83,3.354
266.85,3.392
268.18,3.428
269.10,3.453
270.42,3.489
271.56,3.519
272.79,3.552
273.81,3.585
274.83,3.618
276.06,3.651
277.25,3.683
278.31,3.712
279.54,3.745
280.77,3.778
281.99,3.807
283.20,3.836
284.45,3.873
285.52,3.902
286.70,3.934
287.76,3.965
289.06,4.000
290.18,4.028
291.38,4.063
292.43,4.090
293.66,4.118
294.88,4.151
296.11,4.179
297.34,4.212
298.78,4.246
299.80,4.269
301.04,4.295
302.46,4.325
303.68,4.349
305.12,4.377
306.21,4.402
307.77,4.429
309.13,4.449
311.05,4.467
312.89,4.476
314.64,4.483
316.57,4.486
318.41,4.481
320.26,4.472
322.10,4.462
323.94,4.453
325.78,4.439
327.42,4.425
329.13,4.404
330.69,4.382
332.20,4.357
333.76,4.330
335.20,4.299
336.46,4.271
337.65,4.245
338.87,4.212
340.10,4.179
341.18,4.151
342.35,4.113
343.58,4.080
344.49,4.052
345.63,4.014
346.85,3.981
347.88,3.944
348.70,3.906
349.72,3.868
350.74,3.830
351.56,3.793
352.21,3.760
352.99,3.717
353.78,3.685
354.83,3.646
355.75,3.611
356.55,3.575
357.29,3.538
358.01,3.507
358.93,3.462
359.74,3.425
360.69,3.384
361.38,3.349
362.08,3.321
363.02,3.279
363.97,3.233
364.84,3.192
365.69,3.148
366.31,3.111
367.08,3.070
367.93,3.029
368.54,2.991
369.16,2.953
369.97,2.915
370.79,2.878
##END=
