##TITLE=Dimethylbicyclo[2.2.1]-2,5-heptadiene-2,3-dicarboxylic
##JCAMP-DX=4.24
##DATA TYPE=UV/VIS SPECTRUM
##ORIGIN=INSTITUTE OF ENERGY PROBLEMS OF CHEMICAL PHYSICS, RAS
##OWNER=INEP CP RAS, NIST OSRD
Collection (C) 2007 copyright by the U.S. Secretary of Commerce
on behalf of the United States of America. All rights reserved.
##CAS REGISTRY NO=947-57-9
##MOLFORM=C11H12O4
##SOURCE REFERENCE=RAS UV No. 23628
##$NIST SQUIB=1974PRI/SCH1988
##$NIST SOURCE=TYUGLMTE
##SPECTROMETER/DATA SYSTEM=Zeiss RPQ 20A/C
##XUNITS=Wavelength (nm)
##YUNITS=Logarithm epsilon
##XFACTOR=1.0
##YFACTOR=1.0
##FIRSTX=224.475
##LASTX=319.289
##FIRSTY=3.476
##MAXX=319.289
##MINX=224.475
##MAXY=3.536
##MINY=2.124
##NPOINTS=96
##$REF AUTHOR=Prinzbach, H.; Schmidt, H.-G.
##$REF JOURNAL=Chem. Ber.
##$REF VOLUME=107
##$REF PAGE=1988
##$REF DATE=1974
##XYPOINTS=(XY..XY)
224.475,3.476
225.475,3.489
226.475,3.501
227.475,3.511
228.475,3.519
229.475,3.525
230.475,3.530
231.475,3.533
232.475,3.535
233.475,3.536
234.475,3.535
235.475,3.534
236.475,3.531
237.475,3.527
238.475,3.522
239.475,3.516
240.475,3.509
241.475,3.501
242.475,3.492
243.475,3.483
244.475,3.472
245.475,3.461
246.475,3.448
247.475,3.435
248.475,3.422
249.475,3.408
250.475,3.393
251.475,3.378
252.475,3.362
253.475,3.347
254.475,3.331
255.475,3.315
256.475,3.299
257.475,3.284
258.358,3.266
259.358,3.255
260.358,3.243
261.358,3.229
262.358,3.215
263.358,3.200
264.358,3.185
265.358,3.170
266.358,3.155
267.358,3.142
268.358,3.129
269.358,3.117
270.358,3.106
271.358,3.096
272.358,3.087
273.358,3.078
274.358,3.071
275.358,3.064
276.358,3.058
277.358,3.052
278.358,3.046
279.358,3.040
280.358,3.034
281.358,3.028
282.358,3.020
283.358,3.012
284.358,3.003
285.358,2.993
286.358,2.981
287.358,2.968
288.358,2.954
289.358,2.938
290.358,2.921
291.358,2.903
292.358,2.884
293.358,2.864
294.358,2.845
295.358,2.826
296.289,2.810
297.289,2.790
298.289,2.770
299.289,2.748
300.289,2.726
301.289,2.704
302.289,2.681
303.289,2.658
304.289,2.634
305.289,2.611
306.289,2.588
307.289,2.564
308.289,2.539
309.289,2.514
310.289,2.488
311.289,2.461
312.289,2.432
313.289,2.400
314.289,2.366
315.289,2.328
316.289,2.285
317.289,2.238
318.289,2.184
319.289,2.124
##END=
