##TITLE=9-Chlorophenanthrene
##JCAMP-DX=4.24
##DATA TYPE=UV/VIS SPECTRUM
##ORIGIN=INSTITUTE OF ENERGY PROBLEMS OF CHEMICAL PHYSICS, RAS
##OWNER=INEP CP RAS, NIST OSRD
Collection (C) 2007 copyright by the U.S. Secretary of Commerce
on behalf of the United States of America. All rights reserved.
##CAS REGISTRY NO=947-72-8
##MOLFORM=C14H9Cl
##MP=52
##SOURCE REFERENCE=RAS UV No. 9060
##$NIST SQUIB=1967JOHe3/6C
##$NIST SOURCE=TSGMTE
##SPECTROMETER/DATA SYSTEM=Unicam SP 500 or Hilger Ultrascan
##XUNITS=Wavelength (nm)
##YUNITS=Logarithm epsilon
##XFACTOR=1.000000
##YFACTOR=1.000000
##FIRSTX=355.0951
##LASTX=241.9301
##FIRSTY=1.38095
##MAXX=355.095
##MINX=241.93
##MAXY=4.77332
##MINY=1.38095
##NPOINTS=1000
##$REF AUTHOR=Johnson, E.A.
##$REF TITLE=9-Chlorophenanthrene
##$REF BOOK TITLE=UV Atlas of Organic Compounds - Vol. 3
##$REF PAGE=E3/6
##$REF DATE=1967
##$REF PUBLISHER=Plenum Press
##$REF LOCATION=New York
##XYPOINTS=(XY..XY)
355.0951,1.380954
354.8575,1.440493
354.8019,1.383007
354.6772,1.525213
354.6691,1.516818
354.6507,1.497741
354.5974,1.442544
354.4913,1.603827
354.4177,1.527518
354.4054,1.514799
354.3910,1.499792
354.2603,1.669471
354.1991,1.605879
354.0748,1.748086
354.0014,1.671775
353.8670,1.803298
353.8159,1.750136
353.6391,1.871231
353.5759,1.805350
353.4379,1.932803
353.3808,1.873281
353.2449,2.002769
353.1799,1.934853
353.0117,2.064343
352.9548,2.004821
352.8112,2.125915
352.7524,2.064358
352.6170,2.193846
352.5522,2.125930
352.3381,2.206581
352.3279,2.195898
352.0817,2.208631
352.0798,2.206597
351.8258,2.210681
351.8238,2.208647
351.5824,2.259537
351.5763,2.253178
351.5360,2.210699
351.3232,2.257517
351.3213,2.255482
351.2789,2.210714
350.7619,2.206675
350.7158,2.157836
350.4260,2.155819
350.3299,2.053818
350.0726,2.051798
350.0387,2.015678
350.0107,1.985917
349.9889,1.962770
349.7818,2.013658
349.7579,1.988222
349.7319,1.960496
349.6763,1.901228
349.3879,1.898957
349.3503,1.858766
349.0944,1.856747
349.0745,1.835380
348.5321,1.831088
348.5262,1.824729
348.2815,1.833393
348.2793,1.831103
348.2756,1.827034
348.0291,1.833408
347.5036,1.843870
347.4977,1.837510
347.2703,1.863216
347.2524,1.843885
347.0115,1.888670
346.9899,1.865269
346.7823,1.911833
346.7628,1.890721
346.5536,1.935250
346.5342,1.914137
346.2922,1.956634
346.2725,1.935267
346.0679,1.984121
346.0446,1.958684
345.8440,2.011608
345.8206,1.986171
345.5854,2.035026
345.5661,2.013914
345.3642,2.064803
345.3390,2.037331
345.1432,2.094579
345.1179,2.066853
344.8913,2.124102
344.8662,2.096631
344.6709,2.153878
344.6459,2.126407
344.4509,2.183654
344.4258,2.156183
344.2002,2.213432
344.1750,2.185707
343.9826,2.245244
343.9555,2.215483
343.7634,2.275020
343.7364,2.245259
343.5077,2.298184
343.4868,2.275037
343.2622,2.298199
343.0191,2.300504
342.7570,2.315274
342.7437,2.300521
342.5146,2.317579
342.4993,2.300536
342.2552,2.300552
341.7338,2.296260
341.7149,2.275148
341.4698,2.272873
341.4434,2.243367
341.1988,2.241093
341.1913,2.232699
340.9170,2.230681
340.9018,2.213639
340.6580,2.211365
340.6430,2.194576
340.4016,2.194592
340.3846,2.175514
340.1114,2.173242
340.1001,2.160524
339.8576,2.158504
339.8445,2.143751
339.6042,2.143766
339.5909,2.128758
339.3192,2.126741
339.3116,2.118092
339.0702,2.116073
338.8310,2.116088
338.3200,2.111796
338.3088,2.099078
338.0838,2.114101
338.0818,2.111811
337.8181,2.116153
337.8163,2.114118
337.5862,2.122527
337.5824,2.118203
337.3657,2.141620
337.3508,2.124577
337.1159,2.160715
337.1013,2.143926
336.8981,2.182097
336.8814,2.163019
336.6730,2.194830
336.6637,2.184147
336.4277,2.217995
336.4094,2.196882
336.2163,2.245736
336.1942,2.220299
336.0031,2.271188
335.9811,2.245751
335.7664,2.303001
335.7406,2.273240
335.5612,2.337101
335.5335,2.305051
335.3579,2.372982
335.3287,2.339151
335.1131,2.394366
335.0966,2.375288
334.8811,2.396416
334.8794,2.394381
334.6478,2.396431
334.4020,2.415526
334.3874,2.398483
334.1748,2.421900
334.1713,2.417830
334.1530,2.396464
333.9189,2.394444
333.6869,2.394459
333.4243,2.392187
333.3992,2.362681
333.1659,2.360407
333.1516,2.343619
332.9187,2.341344
332.9025,2.322267
332.6431,2.322284
332.1795,2.318245
332.1631,2.298913
331.9031,2.296895
331.8834,2.273493
331.6524,2.271474
331.6346,2.250361
331.4038,2.248087
331.3951,2.237658
331.1361,2.235386
331.1290,2.226992
330.9009,2.227007
330.6713,2.224988
330.1882,2.225020
330.1846,2.220696
329.9613,2.225035
329.7082,2.227088
329.7065,2.225053
329.4856,2.231427
329.4837,2.229138
329.2720,2.246196
329.2614,2.233477
329.0305,2.260966
329.0199,2.248248
328.8246,2.284383
328.8071,2.263270
328.6154,2.303476
328.6013,2.286433
328.3785,2.322570
328.3643,2.305528
328.1717,2.343952
328.1560,2.324875
327.9651,2.365080
327.9493,2.346002
327.7097,2.360773
327.7097,2.360773
327.4934,2.369437
327.4898,2.365112
327.4863,2.360788
327.2807,2.382170
327.2736,2.373522
327.0212,2.371504
327.0195,2.369469
326.7951,2.367195
326.5729,2.367210
326.3216,2.365192
326.3181,2.360868
326.0948,2.358849
326.0896,2.352490
325.8667,2.350470
325.8597,2.341821
325.6371,2.339802
325.6302,2.331408
325.3802,2.329136
325.3769,2.325066
325.1547,2.322792
325.1479,2.314398
324.9263,2.312378
324.9176,2.301694
324.6686,2.299422
324.6584,2.286704
324.4390,2.286719
324.4322,2.278325
324.2132,2.278340
324.2081,2.271981
323.9621,2.271999
323.9586,2.267674
323.7402,2.267690
322.6020,2.272094
322.5985,2.267770
322.3889,2.276433
322.3870,2.274144
322.1793,2.284843
322.1742,2.278484
321.9430,2.293254
321.9379,2.286895
321.7342,2.301918
321.7291,2.295559
321.5254,2.310327
321.5204,2.303968
321.2935,2.323062
321.2853,2.312633
321.0872,2.333761
321.0805,2.325367
320.8811,2.344460
320.8743,2.335811
320.6483,2.354906
320.6417,2.346512
320.4444,2.367640
320.4362,2.357211
320.2407,2.380373
320.2325,2.369944
320.0091,2.391074
320.0025,2.382680
319.8060,2.403807
319.7976,2.393124
319.5999,2.412471
319.5949,2.406112
319.3640,2.416558
319.3624,2.414523
318.9432,2.420913
318.2827,2.420960
317.6199,2.414649
317.6166,2.410325
317.4067,2.410340
317.4051,2.408305
317.1693,2.408322
317.1659,2.403998
316.9566,2.404013
316.9533,2.399689
316.7442,2.399704
316.7427,2.397669
316.5078,2.397687
316.5045,2.393362
316.2945,2.391343
316.2929,2.389308
316.0848,2.389323
316.0830,2.387034
315.8476,2.385016
315.8443,2.380692
315.6351,2.378672
315.6303,2.372313
315.4214,2.370293
315.4181,2.365969
315.1837,2.363951
314.9770,2.363967
314.7688,2.361693
314.3327,2.364014
314.3310,2.361725
314.1271,2.364030
313.6990,2.374491
313.6942,2.368132
313.4990,2.380865
313.4960,2.376796
313.2738,2.387242
313.2707,2.383172
313.0776,2.397940
313.0713,2.389546
312.8801,2.406604
312.8736,2.397956
312.6573,2.415015
312.6510,2.406621
312.4601,2.423425
312.4554,2.417065
312.2634,2.432088
312.2587,2.425729
312.0447,2.444824
312.0367,2.434140
311.8499,2.455268
311.8436,2.446874
311.6570,2.468002
311.6492,2.457573
311.4376,2.478702
311.4313,2.470308
311.2484,2.495760
311.2373,2.480753
311.0548,2.506459
311.0483,2.497810
310.8612,2.516903
310.8534,2.506474
310.6491,2.535998
310.6366,2.519209
310.4577,2.548731
310.4500,2.538302
310.2712,2.567824
310.2588,2.551036
310.0616,2.589208
310.0476,2.570130
309.8771,2.610335
309.8631,2.591258
309.6914,2.629428
309.6790,2.612640
309.4887,2.659206
309.4685,2.631735
309.3113,2.688982
309.2909,2.661256
309.1355,2.720793
309.1137,2.691033
308.9336,2.750571
308.9133,2.722846
308.7568,2.780348
308.7365,2.752622
308.5785,2.807834
308.5599,2.782398
308.3773,2.837612
308.3571,2.809886
308.2072,2.875783
308.1809,2.839663
308.0281,2.901235
308.0110,2.877833
307.8260,2.928723
307.8060,2.901252
307.6581,2.969183
307.6304,2.931028
307.4966,3.018036
307.4627,2.971233
307.2922,3.041455
307.2768,3.020088
307.1401,3.102773
307.0972,3.043505
306.9777,3.149591
306.9455,3.105077
306.7786,3.179369
306.7571,3.149609
306.6132,3.221609
306.5842,3.181420
306.4421,3.255710
306.4192,3.223914
306.2558,3.302276
306.2238,3.257762
306.0866,3.338411
306.0623,3.304581
305.9130,3.368187
305.8933,3.340716
305.7290,3.417043
305.6954,3.370239
305.5604,3.453178
305.5359,3.419093
305.3948,3.493383
305.3675,3.455228
305.1992,3.525196
305.1780,3.495435
305.0267,3.554972
305.0071,3.527501
304.8603,3.593143
304.8345,3.557023
304.6957,3.633602
304.6685,3.595447
304.5024,3.667450
304.4798,3.635654
304.3428,3.714269
304.3109,3.669500
304.1710,3.743790
304.1515,3.716319
303.9695,3.765174
303.9560,3.746097
303.8012,3.799020
303.7787,3.767224
303.6272,3.824472
303.6108,3.801325
303.4354,3.858574
303.4130,3.826779
303.2677,3.892420
303.2453,3.860625
303.0973,3.922196
303.0780,3.894725
302.9002,3.947650
302.8837,3.924249
302.7347,3.983786
302.7107,3.949700
302.5858,4.043323
302.5454,3.985836
302.3877,4.066487
302.3729,4.045375
302.2213,4.100587
302.1990,4.068792
302.0474,4.123750
302.0327,4.102638
301.8430,4.136740
301.8355,4.126056
301.6534,4.136755
301.4654,4.138805
301.2646,4.155865
301.2527,4.138822
301.0638,4.138838
300.8738,4.136818
300.6619,4.136835
300.6603,4.134546
300.4708,4.132526
300.4664,4.126167
300.2769,4.123893
300.2697,4.113464
300.0571,4.111192
300.0469,4.096439
299.8596,4.096454
299.8508,4.083736
299.6623,4.081716
299.6563,4.073067
299.4447,4.071050
299.4418,4.066725
299.2538,4.064706
299.2508,4.060382
299.0630,4.058362
299.0601,4.054038
298.8493,4.052020
298.8464,4.047696
298.6591,4.045676
298.6548,4.039317
298.4692,4.039332
298.4648,4.032973
298.2794,4.032988
298.2735,4.024340
298.0653,4.024357
298.0596,4.015963
297.8733,4.013943
297.8631,3.998936
297.6771,3.996916
297.6714,3.988522
297.4624,3.986250
297.4553,3.975821
297.2696,3.973547
297.2639,3.965153
297.0787,3.963133
297.0685,3.948125
296.8606,3.946108
296.8533,3.935424
296.6700,3.935439
296.6614,3.922721
296.4768,3.920701
296.4710,3.912053
296.2653,3.912070
296.2582,3.901641
296.0756,3.901656
296.0698,3.893008
295.8860,3.890988
295.8817,3.884629
295.6754,3.882611
295.6712,3.876252
295.4877,3.873978
295.4850,3.869908
295.3018,3.867634
295.3004,3.865599
294.9122,3.861308
294.7312,3.861323
294.5265,3.859305
294.3460,3.859320
293.9645,3.861388
293.9631,3.859353
293.6065,3.863708
293.6050,3.861418
293.4074,3.867795
293.4047,3.863725
293.2311,3.872134
293.2298,3.870099
293.0577,3.880543
293.0536,3.874184
292.8609,3.886920
292.8582,3.882850
292.6866,3.893294
292.6839,3.889224
292.5167,3.906028
292.5098,3.895599
292.3220,3.914693
292.3179,3.908334
292.1497,3.923103
292.1456,3.916744
291.9791,3.933801
291.9734,3.925153
291.8072,3.942211
291.8030,3.935852
291.6161,3.954946
291.6092,3.944263
291.4461,3.965645
291.4407,3.957251
291.2777,3.978378
291.2707,3.967695
291.0845,3.986790
291.0804,3.980430
290.9151,3.997488
290.9097,3.989094
290.7501,4.014546
290.7403,3.999538
290.5631,4.031351
290.5535,4.016598
290.3943,4.042050
290.3889,4.033656
290.2257,4.052749
290.2203,4.044355
290.0339,4.061160
290.0298,4.054801
289.8630,4.067534
289.8604,4.063465
289.6909,4.071874
289.6896,4.069839
289.3201,4.071906
289.1472,4.073957
288.7751,4.069919
288.6016,4.069934
288.6001,4.067645
288.4039,4.065627
288.3998,4.059268
288.2254,4.057248
288.2214,4.050889
288.0470,4.048615
288.0430,4.042256
287.8475,4.040238
287.8420,4.031590
287.6683,4.029570
287.6629,4.021176
287.4893,4.018902
287.4852,4.012543
287.2905,4.010525
287.2852,4.002131
287.1120,3.999857
287.1107,3.997822
286.9379,3.995802
286.9338,3.989443
286.7411,3.989460
286.7371,3.983101
286.5646,3.980827
286.5605,3.974468
286.3884,3.972448
286.3804,3.959730
286.1871,3.957712
286.1857,3.955423
286.0140,3.953403
286.0085,3.944755
285.8383,3.944770
285.8330,3.936376
285.4693,3.932084
285.4667,3.928015
285.2972,3.928030
285.2957,3.925740
284.7671,3.925788
284.5971,3.923768
284.4075,3.923786
284.2404,3.925836
283.8834,3.925868
283.7183,3.930208
283.7171,3.928173
283.5535,3.934547
283.5508,3.930223
283.3678,3.938634
283.3653,3.934564
283.2033,3.942974
283.2007,3.938650
283.0391,3.947313
283.0377,3.945024
282.8555,3.953690
282.8528,3.949365
282.6902,3.955740
282.6890,3.953705
282.5292,3.964404
282.5253,3.958044
282.1828,3.974865
282.1789,3.968506
282.0198,3.979204
282.0185,3.977170
281.8374,3.985581
281.8348,3.981257
281.6748,3.989920
281.6734,3.987631
281.5148,3.998330
281.5109,3.991970
281.3305,4.000382
281.3293,3.998347
281.1735,4.013115
281.1658,4.000397
281.0104,4.015420
281.0090,4.013131
280.8280,4.019507
280.8267,4.017472
280.6677,4.025881
280.6652,4.021811
280.5076,4.032256
280.5052,4.028186
280.3272,4.038632
280.3248,4.034562
280.1677,4.045261
280.1637,4.038647
280.0068,4.049346
280.0056,4.047311
279.8475,4.055720
279.8450,4.051651
279.6667,4.060062
279.6655,4.058027
279.5078,4.066436
279.5040,4.060077
279.3478,4.070776
279.3464,4.068486
279.1675,4.074863
279.1651,4.070793
279.0067,4.077167
279.0054,4.074878
278.8459,4.079217
278.8447,4.077183
278.3409,4.079265
278.1608,4.081317
277.9985,4.079298
277.4966,4.079345
277.4954,4.077310
277.3338,4.075036
277.3326,4.073001
277.1525,4.073019
277.1513,4.070984
276.9915,4.070999
276.9889,4.066675
276.8293,4.066690
276.8267,4.062366
276.6461,4.060348
276.6449,4.058313
276.4843,4.056039
276.4831,4.054004
276.3228,4.051984
276.3215,4.049695
276.1428,4.049712
276.1416,4.047677
275.8219,4.043384
275.8207,4.041349
275.6426,4.041366
275.4831,4.039092
275.3252,4.039107
275.1466,4.037089
274.3410,4.037168
274.1856,4.039218
274.0096,4.039235
273.8558,4.043574
273.8547,4.041539
273.7022,4.047914
273.7011,4.045879
273.5305,4.054290
273.5269,4.047931
273.3773,4.058630
273.3760,4.056340
273.2278,4.069074
273.2229,4.060680
273.0579,4.077740
273.0543,4.071380
272.9076,4.086149
272.9039,4.079790
272.7587,4.096848
272.7537,4.088199
272.5905,4.107294
272.5857,4.098900
272.4394,4.113668
272.4371,4.109598
272.2935,4.128691
272.2863,4.115973
272.1260,4.139392
272.1211,4.130743
271.9767,4.147801
271.9731,4.141442
271.6545,4.156227
271.6522,4.152158
271.1788,4.162634
271.0270,4.164939
271.0257,4.162650
270.8753,4.166989
270.8742,4.164954
270.7047,4.169041
270.7035,4.167006
270.4011,4.171361
270.3999,4.169072
269.9262,4.171409
269.7568,4.173461
269.4541,4.173491
269.3041,4.175542
269.1356,4.177848
269.1343,4.175559
268.5219,4.190629
268.5195,4.186305
268.3730,4.192679
268.3719,4.190645
268.2068,4.197021
268.2044,4.192697
268.0606,4.203395
268.0582,4.199071
267.9145,4.209770
267.9110,4.203411
267.7500,4.216146
267.7476,4.211822
267.6043,4.222520
267.6008,4.216161
267.4588,4.228895
267.4553,4.222536
267.2948,4.235271
267.2924,4.230947
267.1496,4.241646
267.1461,4.235286
267.0034,4.245985
267.0011,4.241661
266.8388,4.250072
266.8365,4.246002
266.6929,4.254412
266.6918,4.252377
266.5473,4.258751
266.5460,4.256462
266.3832,4.262838
266.3821,4.260803
266.2379,4.267178
266.2367,4.265143
266.0927,4.271517
266.0903,4.267193
265.6373,4.279959
265.6362,4.277924
265.4745,4.284300
265.4732,4.282011
265.0223,4.294777
265.0201,4.290707
264.7335,4.301167
264.7324,4.299132
264.5718,4.305508
264.5707,4.303473
264.2851,4.313933
264.2829,4.309863
264.1421,4.318272
264.1410,4.316237
263.9810,4.322614
263.9787,4.318289
263.8383,4.326953
263.8371,4.324664
263.6968,4.333327
263.6945,4.329003
263.5374,4.339704
263.5351,4.335380
263.3963,4.346078
263.3929,4.339719
263.2541,4.350163
263.2530,4.348128
263.0952,4.356540
263.0931,4.352470
262.9545,4.362914
262.9524,4.358844
262.8152,4.371578
262.8106,4.362929
262.6569,4.377954
262.6535,4.371595
262.5155,4.382039
262.5144,4.380004
262.3766,4.390703
262.3733,4.384344
262.2188,4.397079
262.2165,4.392755
262.0791,4.403454
262.0768,4.399129
261.9406,4.411863
261.9372,4.405504
261.7845,4.420529
261.7811,4.414170
261.6452,4.426903
261.6419,4.420544
261.5071,4.435312
261.5027,4.426918
261.3514,4.443724
261.3470,4.435330
261.2116,4.448063
261.2093,4.443739
261.0751,4.458762
261.0706,4.450113
260.9200,4.467173
260.9156,4.458779
260.7827,4.475582
260.7783,4.467188
260.6478,4.488316
260.6411,4.475598
260.4943,4.499017
260.4899,4.490622
260.2186,4.511765
260.2142,4.503371
260.0646,4.520431
260.0601,4.511783
259.9282,4.528840
259.9238,4.520446
259.7919,4.537250
259.7886,4.530891
259.6405,4.549985
259.6339,4.537267
259.5047,4.558649
259.5014,4.552290
259.3689,4.567058
259.3656,4.560699
259.2344,4.577757
259.2299,4.569108
259.0846,4.592527
259.0781,4.579809
258.9494,4.601191
258.9461,4.594832
258.8164,4.613925
258.8109,4.603241
258.6661,4.626660
258.6606,4.615977
258.5322,4.637104
258.5279,4.628710
258.3986,4.647803
258.3943,4.639409
258.2488,4.660539
258.2433,4.649855
258.1154,4.671237
258.1110,4.662589
257.9833,4.683971
257.9778,4.673287
257.8329,4.694671
257.8275,4.683988
257.7011,4.707405
257.6956,4.696721
257.5682,4.717849
257.5629,4.707420
257.4173,4.726515
257.4129,4.717866
257.2836,4.734924
257.2804,4.728565
257.1491,4.741299
257.1469,4.736974
256.9985,4.749710
256.9953,4.743351
256.8643,4.756084
256.8622,4.752014
256.7302,4.762459
256.7281,4.758389
256.5771,4.764765
256.5759,4.762476
256.4411,4.766815
256.4401,4.764780
256.0171,4.773222
255.1669,4.773318
255.1659,4.771283
255.0304,4.771298
254.7408,4.767006
254.7398,4.764971
254.6047,4.764986
254.3161,4.760695
254.3139,4.756370
254.1783,4.754351
254.1773,4.752316
253.8918,4.752348
253.6215,4.748055
253.6193,4.743730
253.4687,4.743747
253.1995,4.739708
253.0494,4.739725
253.0483,4.737436
252.9150,4.737451
252.9130,4.733381
252.7799,4.733397
252.4954,4.729105
252.3627,4.729120
252.2126,4.727102
252.2115,4.724813
252.0791,4.724828
252.0781,4.722793
251.9449,4.720774
251.7962,4.720791
251.6632,4.718517
251.5314,4.718532
251.3823,4.716514
251.1194,4.716545
251.1184,4.714510
250.9708,4.714527
250.9697,4.712238
250.8376,4.710218
250.5595,4.710251
250.4279,4.708231
250.1507,4.708263
250.1496,4.705974
249.6133,4.706037
249.4826,4.704017
248.9492,4.704080
248.9482,4.702045
248.8020,4.699773
248.5445,4.699804
248.3989,4.697786
248.1422,4.697817
248.1413,4.695782
247.7412,4.695829
247.7402,4.693540
247.5965,4.693557
247.5955,4.691522
247.3385,4.687229
247.1952,4.687246
247.0671,4.685226
246.9401,4.685241
246.7962,4.682969
246.7943,4.678899
246.6676,4.678915
246.2693,4.672603
246.2673,4.668279
246.1402,4.666259
245.9983,4.666276
245.9973,4.663987
245.8704,4.661967
245.8684,4.657643
245.5993,4.653606
245.5982,4.651317
245.4718,4.649297
245.4698,4.644973
245.3434,4.642953
245.3405,4.636594
245.0724,4.632302
245.0706,4.628232
244.9445,4.625958
244.9436,4.623923
244.8178,4.621903
244.8167,4.619614
244.6755,4.617596
244.6735,4.613272
244.5480,4.611253
244.5470,4.609218
244.4215,4.606944
244.4197,4.602874
244.2788,4.600602
244.2778,4.598567
244.1527,4.596547
244.1507,4.592223
244.0256,4.589949
244.0247,4.587914
243.8843,4.585896
243.8824,4.581572
243.7577,4.579552
243.7566,4.577263
243.6320,4.575243
243.6301,4.570919
243.4902,4.568901
243.4892,4.566866
243.3648,4.564592
243.3630,4.560522
243.2387,4.558248
243.2378,4.556213
243.0983,4.554196
243.0964,4.549871
242.9724,4.547852
242.9714,4.545562
242.8476,4.543543
242.8457,4.539219
242.7067,4.537201
242.7058,4.535166
242.5821,4.532892
242.5803,4.528822
242.4568,4.526548
242.4559,4.524513
242.3182,4.524530
242.3173,4.522495
242.1941,4.520221
242.1923,4.516151
242.0692,4.513877
242.0682,4.511842
241.9301,4.509825
##END=
