##TITLE=INDENE
##JCAMP-DX=4.24
##DATA TYPE=UV/VIS SPECTRUM
##ORIGIN=INSTITUTE OF ENERGY PROBLEMS OF CHEMICAL PHYSICS, RAS
##OWNER=INEP CP RAS, NIST OSRD
Collection (C) 2007 copyright by the U.S. Secretary of Commerce
on behalf of the United States of America. All rights reserved.
##CAS REGISTRY NO=95-13-6
##MOLFORM=C9H8
##MP=-1.8
##BP=182
##SOURCE REFERENCE=RAS UV No. 477
##$NIST SQUIB=1950RAM/GRU317-322
##$NIST SOURCE=TSGMTE
##SPECTROMETER/DATA SYSTEM=n.i.g.
##XUNITS=Wavelength (nm)
##YUNITS=Logarithm epsilon
##XFACTOR=1.000000
##YFACTOR=1.000000
##FIRSTX=296.2742
##LASTX=223.2530
##FIRSTY=1.07842
##MAXX=296.274
##MINX=223.253
##MAXY=4.00603
##MINY=1.07842
##NPOINTS=495
##$REF AUTHOR=Rambart-Lucas, M.; Grumes, M.
##$REF TITLE=Sur la deformation des orbites electroniques du carbone et de l'azote dans les combinaisons heterocycliques
##$REF JOURNAL=Bull. Soc. Chim. Fr.
##$REF VOLUME=17
##$REF PAGE=317-322
##$REF DATE=1950
##XYPOINTS=(XY..XY)
296.2742,1.078421
295.9516,1.134967
295.6994,1.179497
295.5072,1.214051
295.3645,1.240662
295.2611,1.261368
295.1866,1.278205
295.1309,1.293208
295.0838,1.308417
295.0351,1.325869
295.0351,1.325869
294.9413,1.327459
294.8349,1.329266
294.7223,1.331180
294.7223,1.331180
294.6795,1.352067
294.6242,1.373059
294.5626,1.394268
294.5626,1.394268
294.1768,1.451897
293.9143,1.491778
293.7449,1.518884
293.6387,1.538190
293.5661,1.554667
293.4976,1.573288
293.4976,1.573288
293.4048,1.574879
293.2995,1.576687
293.1880,1.578600
293.1880,1.578600
293.1284,1.609762
293.0676,1.640946
293.0040,1.672177
292.9364,1.703477
292.8635,1.734870
292.8635,1.734870
292.7711,1.736462
292.6662,1.738269
292.5552,1.740183
292.5552,1.740183
292.5141,1.757672
292.4606,1.775267
292.4008,1.793078
292.4008,1.793078
292.3144,1.799866
292.2218,1.806653
292.1170,1.813440
292.1170,1.813440
292.0740,1.837706
292.0188,1.861970
291.9573,1.886235
291.9573,1.886235
291.8655,1.887827
291.7613,1.889634
291.6509,1.891547
291.6509,1.891547
291.5690,1.930384
291.4968,1.958457
291.4056,1.983755
291.2665,2.014269
291.0510,2.057986
291.0510,2.057986
290.9597,2.059578
290.8561,2.061385
290.7465,2.063298
290.7465,2.063298
290.7078,2.073992
290.6568,2.084792
290.5997,2.095807
290.5997,2.095807
290.3927,2.104868
290.2420,2.109510
290.0186,2.113715
290.0186,2.113715
289.9813,2.120166
289.9318,2.126831
289.8762,2.133604
289.6100,2.108340
289.4553,2.104928
289.3129,2.101518
289.1767,2.098108
289.1767,2.098108
289.0433,2.088874
288.9099,2.079639
288.7767,2.070405
288.7767,2.070405
288.6225,2.068593
288.4804,2.066998
288.3444,2.065512
287.7759,2.070315
287.5934,2.091153
287.3442,2.124335
287.0610,2.163689
286.7761,2.203044
286.5217,2.236225
286.3296,2.257062
286.3296,2.257062
286.1598,2.263842
285.7913,2.277399
285.7913,2.277399
285.7883,2.306217
285.2382,2.262302
285.2382,2.262302
285.1429,2.252100
285.0595,2.241898
284.9820,2.231698
284.5603,2.229232
284.1660,2.230994
283.9886,2.232236
283.8753,2.234023
283.8753,2.234023
283.3207,2.251931
283.1281,2.267087
283.0237,2.278151
282.9179,2.294609
282.9179,2.294609
282.8316,2.296201
282.7338,2.298007
282.6302,2.299921
282.6302,2.299921
282.5680,2.316421
282.4797,2.337101
282.3713,2.361435
282.2486,2.388895
282.1177,2.418955
281.9845,2.451089
281.8548,2.484769
281.7345,2.519468
281.6295,2.554661
281.6295,2.554661
281.5112,2.583149
281.3926,2.611638
281.2732,2.640127
281.1526,2.668615
281.0302,2.697103
280.9057,2.725591
280.7787,2.754079
280.7787,2.754079
280.6921,2.761495
280.5942,2.769127
280.4907,2.776865
280.4907,2.776865
280.2332,2.779286
279.9706,2.781814
279.6970,2.784556
279.6970,2.784556
279.3606,2.777729
279.0138,2.770900
278.6622,2.764071
278.6622,2.764071
278.5433,2.732023
278.4188,2.699975
278.2833,2.667926
278.2833,2.667926
278.1078,2.664853
277.9325,2.661564
277.7601,2.647974
277.7601,2.647974
277.7592,2.651371
277.7584,2.654769
277.7575,2.658167
277.7575,2.658167
277.5593,2.644557
277.3532,2.641139
277.1364,2.637720
277.1364,2.637720
276.8786,2.640140
276.6102,2.642666
276.3367,2.645409
276.3367,2.645409
276.2600,2.650273
276.1778,2.655245
276.0845,2.660431
276.0845,2.660431
276.0496,2.671125
276.0037,2.681924
275.9522,2.692940
275.9522,2.692940
275.8701,2.694532
275.7770,2.696338
275.6785,2.698252
275.6785,2.698252
275.5734,2.715231
275.4421,2.727677
275.1724,2.746257
275.1724,2.746257
274.9990,2.750267
274.8257,2.754493
274.6526,2.758826
274.6526,2.758826
274.1855,2.796479
273.9531,2.813445
273.7551,2.824266
273.7551,2.824266
273.5836,2.827646
273.4123,2.831027
273.2412,2.834408
273.2412,2.834408
273.0452,2.848501
272.9431,2.854405
272.8472,2.857182
272.8472,2.857182
272.6460,2.858636
272.4343,2.860197
272.2175,2.861973
272.2175,2.861973
272.1432,2.865992
272.0636,2.870227
271.9733,2.874568
271.9733,2.874568
271.6349,2.881959
271.2971,2.889565
270.9603,2.897280
270.9603,2.897280
270.2451,2.933486
269.8591,2.951820
269.5772,3.010721
269.5343,2.996299
269.4966,2.982093
269.4694,2.967995
269.4694,2.967995
269.0875,2.985430
268.7569,3.032857
268.4773,3.066699
268.2143,3.098923
268.2143,3.098923
267.9946,3.123026
267.7354,3.158638
267.4979,3.196527
267.3432,3.227463
267.3432,3.227463
267.2661,3.229054
267.1787,3.230861
267.0862,3.232775
267.0862,3.232775
266.8350,3.274046
266.6164,3.307538
266.4158,3.339667
266.2187,3.376847
266.2187,3.376847
265.8625,3.407156
265.6746,3.420224
265.4935,3.427252
265.4935,3.427252
265.4613,3.437945
265.4188,3.448745
265.3712,3.459761
265.3712,3.459761
265.2548,3.463775
265.1335,3.468005
265.0020,3.472342
265.0020,3.472342
264.4903,3.510148
263.9756,3.547954
263.4528,3.585759
263.4528,3.585759
263.3780,3.587351
263.2932,3.589158
263.2033,3.591072
263.2033,3.591072
263.0421,3.606102
262.8810,3.621132
262.7202,3.636162
262.7202,3.636162
262.5780,3.639544
262.4261,3.642925
262.2693,3.646306
262.2693,3.646306
262.2682,3.651178
262.2670,3.656158
262.2658,3.661353
262.2658,3.661353
262.1917,3.662945
262.1076,3.664752
262.0186,3.666666
262.0186,3.666666
261.9883,3.672487
261.9480,3.678307
261.9028,3.684127
261.9028,3.684127
261.7164,3.689950
261.5203,3.695879
261.3195,3.702023
261.3195,3.702023
261.3187,3.705421
261.3180,3.708819
261.3172,3.712217
261.3172,3.712217
261.3080,3.752504
260.9980,3.752470
260.8263,3.724657
260.6937,3.752436
260.6184,3.730549
260.6127,3.787861
260.5707,3.781690
260.5336,3.775736
260.5143,3.734942
260.5143,3.734942
260.5063,3.769890
260.4843,3.740764
260.4445,3.746584
260.3999,3.752404
260.3999,3.752404
260.1573,3.752377
260.0738,3.760962
260.0002,3.769331
259.9315,3.777593
259.9315,3.777593
259.7338,3.780969
259.5412,3.784345
259.3587,3.787723
259.3587,3.787723
259.1944,3.793673
259.0737,3.801462
258.8929,3.817766
258.8929,3.817766
258.7988,3.819553
258.6517,3.820795
258.3258,3.822557
258.3258,3.822557
257.9400,3.831107
257.5649,3.839442
257.1957,3.847670
257.1957,3.847670
257.1524,3.852034
257.1140,3.856398
257.0852,3.860764
257.0852,3.860764
256.8704,3.867265
256.3787,3.878913
255.1960,3.905691
255.1960,3.905691
255.0462,3.912469
254.8966,3.919248
254.7472,3.926026
254.7472,3.926026
254.4148,3.931184
254.0926,3.936126
253.7760,3.940961
253.7760,3.940961
253.6553,3.946143
253.5442,3.951110
253.4378,3.955970
253.4378,3.955970
253.2138,3.957867
252.9994,3.959658
252.7902,3.961234
252.7902,3.961234
252.4206,3.969784
252.0614,3.978119
251.7078,3.986347
251.7078,3.986347
251.1593,3.992521
250.4313,3.999859
249.9019,4.006035
249.9019,4.006035
248.7083,4.005891
247.5260,4.005748
246.3550,4.005605
246.3550,4.005605
245.7055,4.002145
245.0594,3.998793
244.4166,3.995657
244.4166,3.995657
244.3205,3.990324
244.2244,3.985098
244.1284,3.980088
244.1284,3.980088
243.9550,3.978269
243.7861,3.976666
243.6260,3.975171
243.6260,3.975171
243.2613,3.965903
242.8977,3.956635
242.5352,3.947366
242.5352,3.947366
242.4016,3.945426
242.2682,3.943593
242.1349,3.941976
242.1349,3.941976
241.5799,3.923622
240.6517,3.896159
239.3242,3.845506
239.3242,3.845506
239.3236,3.848903
239.3229,3.852301
239.3223,3.855699
239.3223,3.855699
239.1940,3.844536
239.0638,3.843674
238.9338,3.843028
238.9338,3.843028
238.4066,3.824190
237.8002,3.803076
237.4118,3.787492
237.4118,3.787492
237.3076,3.785681
237.2115,3.784086
237.1196,3.782600
237.1196,3.782600
236.9785,3.772801
236.8330,3.765483
236.5589,3.754372
236.5589,3.754372
236.3964,3.750953
236.2381,3.747534
236.0881,3.744116
236.0881,3.744116
236.0535,3.738916
236.0229,3.733932
236.0003,3.729057
236.0003,3.729057
235.8389,3.723840
235.6817,3.718839
235.5327,3.713947
235.5327,3.713947
235.4979,3.710544
235.4671,3.707143
235.4443,3.703742
235.4443,3.703742
235.3419,3.701301
235.2476,3.698861
235.1573,3.696422
235.1573,3.696422
235.0326,3.689610
234.9081,3.682797
234.7837,3.675985
234.7837,3.675985
234.5350,3.667358
234.2908,3.658947
234.0550,3.650645
234.0550,3.650645
233.9315,3.643833
233.8081,3.637021
233.6849,3.630208
233.6849,3.630208
233.3152,3.617537
232.9505,3.604867
232.5949,3.592198
232.5949,3.592198
232.5609,3.588795
232.5309,3.585393
232.5087,3.581993
232.5087,3.581993
232.3522,3.576146
232.1997,3.570300
232.0553,3.564456
232.0553,3.564456
231.5036,3.548990
230.9623,3.533742
230.4274,3.518601
230.4274,3.518601
230.2774,3.516782
230.1352,3.515180
229.9970,3.513687
229.7222,3.511221
229.5500,3.511197
229.3741,3.511172
229.1910,3.511146
229.1910,3.511146
228.5509,3.527576
228.2280,3.536717
227.9434,3.546402
227.9434,3.546402
227.8590,3.556763
227.6727,3.570453
227.2262,3.599207
227.2262,3.599207
227.1472,3.602305
226.9888,3.612728
226.6158,3.639406
226.6158,3.639406
226.5638,3.646823
226.5080,3.654456
226.4449,3.662195
226.4449,3.662195
226.3275,3.665576
226.2103,3.668957
226.0932,3.672337
226.0932,3.672337
225.9571,3.682870
225.6461,3.704272
225.0530,3.750334
225.0530,3.750334
224.9370,3.754344
224.8210,3.758569
224.7052,3.762903
224.7052,3.762903
224.6541,3.769691
224.5994,3.776478
224.5375,3.783265
224.5375,3.783265
224.3689,3.789082
224.0349,3.807280
223.2530,3.853456
##END=
