##TITLE=Benzotriazole
##JCAMP-DX=4.24
##DATA TYPE=UV/VIS SPECTRUM
##ORIGIN=INSTITUTE OF ENERGY PROBLEMS OF CHEMICAL PHYSICS, RAS
##OWNER=INEP CP RAS, NIST OSRD
Collection (C) 2007 copyright by the U.S. Secretary of Commerce
on behalf of the United States of America. All rights reserved.
##CAS REGISTRY NO=95-14-7
##MOLFORM=C6H5N3
##MP=100
##BP=204(15)
##SOURCE REFERENCE=RAS UV No. 112
##$NIST SQUIB=1949RAM/HOC447-454
##$NIST SOURCE=TSGMTE
##SPECTROMETER/DATA SYSTEM=n.i.g.
##XUNITS=Wavelength (nm)
##YUNITS=Logarithm epsilon
##XFACTOR=1.000000
##YFACTOR=1.000000
##FIRSTX=306.4791
##LASTX=242.7959
##FIRSTY=1.08592
##MAXX=306.479
##MINX=242.796
##MAXY=3.79645
##MINY=1.08592
##NPOINTS=206
##$REF AUTHOR=Ramart-Lucas, M.; Hoch, J.; Grumez, M.
##$REF TITLE=Deformation des orbites electroniques de l'azote par cyclisation (serie du benzotriazole et du phenyltriazole)
##$REF JOURNAL=Bull. Soc. Chim. Fr.
##$REF VOLUME=16
##$REF PAGE=447-454
##$REF DATE=1949
##XYPOINTS=(XY..XY)
306.4791,1.085915
306.3062,1.113519
306.1460,1.136996
305.9909,1.158013
305.8330,1.178246
305.6648,1.199371
305.4785,1.223057
305.2667,1.250978
305.0217,1.284812
304.7361,1.326227
304.4024,1.376898
304.4024,1.376898
304.3660,1.377508
304.3304,1.378431
304.2929,1.380037
304.2507,1.382692
304.2011,1.386768
304.1412,1.392632
304.0684,1.400652
303.9798,1.411197
303.8728,1.424635
303.7447,1.441335
303.5927,1.461667
303.4141,1.485997
303.2064,1.514694
302.9668,1.548128
302.6929,1.586666
302.3820,1.630678
302.0316,1.680530
301.6394,1.736595
301.2029,1.799236
300.7199,1.868827
300.1880,1.945732
300.1880,1.945732
300.0802,1.976170
299.9693,2.006606
299.8560,2.037041
299.7408,2.067476
299.6245,2.097911
299.5076,2.128345
299.5076,2.128345
299.1360,2.134205
299.1332,2.136558
299.1301,2.139077
299.1269,2.141680
299.0369,2.165178
298.8013,2.179738
298.5981,2.184503
298.5981,2.184503
298.3147,2.238158
298.0670,2.283447
297.8506,2.321540
297.6607,2.353609
297.4928,2.380825
297.3424,2.404359
297.2050,2.425380
297.0761,2.445061
296.9513,2.464572
296.8261,2.485083
296.6960,2.507766
296.5567,2.533792
296.5567,2.533792
296.2941,2.552842
296.0215,2.584767
295.7597,2.603817
295.7597,2.603817
295.4526,2.657719
295.2113,2.694234
295.0233,2.721076
294.8760,2.745958
294.7571,2.776592
294.7571,2.776592
293.9888,2.848335
293.4219,2.902395
293.0192,2.941290
292.7442,2.967541
292.5615,2.983666
292.4357,2.992184
292.3320,2.995615
292.3320,2.995615
291.9881,3.037711
291.6955,3.067837
291.4026,3.098664
291.0585,3.142863
291.0585,3.142863
290.6426,3.170691
290.0335,3.222962
289.4623,3.264943
289.4623,3.264943
288.7612,3.320933
288.3315,3.351510
287.8039,3.382883
287.8039,3.382883
287.0560,3.411546
286.2185,3.445224
285.3269,3.479582
284.4160,3.510285
284.4160,3.510285
284.1157,3.521780
283.8161,3.533359
283.5169,3.545103
283.5169,3.545103
281.5821,3.586709
280.4517,3.609082
279.6813,3.625189
279.6813,3.625189
278.8209,3.637591
278.2512,3.644451
277.4833,3.651650
277.4833,3.651650
277.1101,3.653391
276.7378,3.655214
276.3663,3.657204
276.3663,3.657204
275.6077,3.655028
274.8448,3.652765
274.0820,3.650335
274.0820,3.650335
273.5620,3.643342
272.5056,3.632141
270.7922,3.613382
268.3160,3.583718
268.3160,3.583718
267.8535,3.584013
267.3845,3.584471
266.9129,3.585011
266.9129,3.585011
266.3063,3.595713
265.7022,3.606582
265.1009,3.617534
265.1009,3.617534
262.8851,3.672877
261.7709,3.702423
261.2607,3.713116
261.2607,3.713116
261.2051,3.716194
261.1456,3.719436
261.0783,3.722758
261.0783,3.722758
260.6127,3.725479
260.3551,3.728372
260.0842,3.733918
260.0842,3.733918
259.9079,3.741472
259.5983,3.749383
258.8923,3.764431
258.8923,3.764431
258.4783,3.770716
258.0655,3.777167
257.6539,3.783701
257.6539,3.783701
257.1274,3.787954
256.5993,3.792205
256.0660,3.796453
256.0660,3.796453
255.7282,3.796302
255.3840,3.796147
255.0371,3.795990
255.0371,3.795990
254.1647,3.782438
253.6003,3.772099
252.8590,3.756111
252.8590,3.756111
252.8123,3.752988
252.7623,3.749696
252.7051,3.746319
252.7051,3.746319
251.8581,3.728617
251.0098,3.710746
250.1638,3.692791
250.1638,3.692791
250.0386,3.684880
249.9065,3.676966
249.7710,3.669050
249.7710,3.669050
248.7336,3.642373
248.2543,3.631578
247.9171,3.627415
247.9171,3.627415
247.8995,3.624305
247.8750,3.621025
247.8472,3.617660
247.8472,3.617660
247.0092,3.596804
245.8815,3.565003
245.0974,3.544167
245.0974,3.544167
245.0075,3.536534
244.9111,3.528732
244.8114,3.520845
244.8114,3.520845
244.2163,3.511288
243.7124,3.504516
243.5729,3.496678
243.4701,3.493276
243.3673,3.489957
243.3319,3.496559
243.3319,3.496559
243.2645,3.486804
243.2645,3.486804
243.1530,3.494600
243.0368,3.486843
242.9743,3.492642
242.9154,3.487849
242.7959,3.490683
242.7959,3.490683
##END=
