##TITLE=Benzothiazole
##JCAMP-DX=4.24
##DATA TYPE=UV/VIS SPECTRUM
##ORIGIN=INSTITUTE OF ENERGY PROBLEMS OF CHEMICAL PHYSICS, RAS
##OWNER=INEP CP RAS, NIST OSRD
Collection (C) 2007 copyright by the U.S. Secretary of Commerce
on behalf of the United States of America. All rights reserved.
##CAS REGISTRY NO=95-16-9
##MOLFORM=C7H5NS
##MP=2
##BP=231
##SOURCE REFERENCE=RAS UV No. 3045
##$NIST SQUIB=1954CER/PAS2261-2264
##$NIST SOURCE=TSGMTE
##SPECTROMETER/DATA SYSTEM=Beckman DU
##XUNITS=Wavelength (nm)
##YUNITS=Logarithm epsilon
##XFACTOR=1.000000
##YFACTOR=1.000000
##FIRSTX=211.5646
##LASTX=300.7136
##FIRSTY=4.21697
##MAXX=300.714
##MINX=211.565
##MAXY=4.26478
##MINY=2.56912
##NPOINTS=281
##$REF AUTHOR=Cerniani, A.; Passerini, R.
##$REF TITLE=The near-ultra-violet absorption spectra of some heterocyclic compounds. Part II. Bensothiazoles
##$REF JOURNAL=J. Chem. Soc.
##$REF PAGE=2261-2264
##$REF DATE=1954
##XYPOINTS=(XY..XY)
211.5646,4.216973
211.8462,4.220907
212.1415,4.224705
212.4435,4.228434
214.5989,4.249217
214.9647,4.251922
215.3374,4.254489
215.7236,4.256988
217.2449,4.264779
217.7421,4.264485
218.2529,4.264122
218.7706,4.263622
220.5467,4.249518
220.7941,4.244891
221.0484,4.240195
221.3162,4.235363
222.3615,4.218754
222.6090,4.214126
222.8632,4.209431
223.1311,4.204598
224.1472,4.185210
224.3955,4.178960
224.6505,4.172573
224.9192,4.166118
226.2123,4.141807
226.2845,4.137491
226.3702,4.133175
226.4628,4.128860
227.4821,4.102992
227.7306,4.096216
227.9859,4.089441
228.2547,4.082666
229.2741,4.056798
229.4384,4.051252
229.6162,4.045707
229.8008,4.040162
230.5766,4.013356
230.7411,4.007411
230.9192,4.001328
231.1042,3.995178
231.8807,3.966829
232.0369,3.961809
232.1998,3.956651
232.3764,3.951426
233.4273,3.923400
233.5516,3.918766
233.6759,3.914064
233.8003,3.909224
234.4531,3.884572
234.5774,3.879950
234.7017,3.875328
234.8260,3.870706
235.4811,3.841117
235.5536,3.836092
235.6398,3.830931
235.7328,3.825701
236.5093,3.797352
236.5115,3.793033
236.5136,3.788713
236.5157,3.784393
237.5693,3.751121
237.7256,3.745575
237.8888,3.740029
238.0655,3.734484
239.3612,3.704927
239.4329,3.701525
239.5183,3.698055
239.6104,3.694449
240.9003,3.676617
241.0631,3.674145
241.2395,3.671606
241.4227,3.668929
242.6784,3.658502
242.8017,3.658188
242.9318,3.657806
243.0755,3.657288
243.4422,3.656072
243.6037,3.656080
243.7788,3.656089
243.9607,3.656098
246.0914,3.665154
246.3944,3.669170
246.6975,3.673116
247.0006,3.676926
248.8809,3.698929
249.0601,3.704412
249.1933,3.706739
249.2756,3.702652
249.3063,3.704493
249.3438,3.706267
249.3950,3.707903
249.3950,3.707903
251.5518,3.725909
252.1324,3.725939
252.7198,3.725968
253.3208,3.725999
255.3416,3.710673
255.6799,3.707296
256.0250,3.703919
256.3836,3.700543
257.9189,3.679946
258.1128,3.676242
258.3203,3.672470
258.5346,3.668561
259.9485,3.646724
260.2343,3.642099
260.5338,3.637405
260.8401,3.632575
262.0112,3.608258
262.1351,3.604470
262.2590,3.600545
262.3830,3.596551
263.5541,3.572234
263.6266,3.567209
263.7128,3.562048
263.8057,3.556818
264.5849,3.523224
264.6188,3.518597
264.6595,3.513971
264.7138,3.509345
265.1237,3.482212
265.1971,3.475416
265.2841,3.468552
265.3779,3.461551
265.6346,3.435953
265.7295,3.429158
265.8244,3.422295
265.9193,3.415294
266.1760,3.389696
266.1789,3.383742
266.1820,3.377651
266.1850,3.371491
266.7200,3.338193
266.7229,3.332239
266.7259,3.326148
266.7290,3.319988
266.9869,3.291922
267.0599,3.285972
267.1465,3.279885
267.2399,3.273730
267.5283,3.245665
267.5316,3.238865
267.5350,3.231997
267.5385,3.224991
267.7965,3.196617
267.8704,3.188906
267.9578,3.181196
268.0520,3.173487
268.3418,3.142645
268.4147,3.136695
268.5013,3.130608
268.5948,3.124453
269.1259,3.098869
269.2834,3.091163
269.4476,3.083457
269.6254,3.075752
270.9179,3.052675
271.0738,3.048043
271.2366,3.043342
271.4130,3.038506
272.7035,3.019440
272.9486,3.019452
273.2005,3.019465
273.4660,3.019478
275.1049,3.036224
275.3164,3.040155
275.5281,3.043948
275.7397,3.047673
276.4933,3.065916
276.8267,3.070242
277.1601,3.074499
277.4936,3.078618
279.3783,3.091673
279.9469,3.095485
280.3808,3.097507
281.0520,3.099472
282.6895,3.118994
282.8100,3.122075
282.9305,3.125086
283.0511,3.127961
284.0767,3.151155
284.1446,3.155479
284.2261,3.159803
284.3143,3.164127
284.8202,3.189763
284.8931,3.183893
284.9797,3.177955
285.0730,3.171879
285.8179,3.207711
286.1016,3.207405
286.3989,3.207032
286.7030,3.206521
286.7030,3.206521
286.8276,3.203659
286.9590,3.200660
287.1040,3.197593
287.8475,3.174488
287.8809,3.170776
287.9212,3.166995
287.9751,3.163078
288.6316,3.130712
288.7253,3.126397
288.8189,3.122081
288.9126,3.117766
289.4145,3.089712
289.5798,3.082006
289.7587,3.074301
289.9444,3.066597
290.4706,3.051195
290.7169,3.048728
290.9701,3.046192
291.2369,3.043520
291.4809,3.043532
291.7261,3.043544
291.9780,3.043557
292.2435,3.043571
293.3612,3.065535
293.4821,3.070170
293.6097,3.074805
293.7509,3.079440
294.5070,3.092438
294.5070,3.092438
294.5376,3.094600
294.5749,3.096762
294.6258,3.098924
294.7519,3.092977
294.9087,3.100173
295.0036,3.093378
295.2052,3.101422
295.2689,3.093711
295.3374,3.096789
295.4196,3.099799
295.5085,3.102672
296.2863,3.071855
296.4101,3.068147
296.5340,3.064370
296.6580,3.060456
297.3119,3.033336
297.3139,3.029233
297.3160,3.024993
297.3182,3.020685
297.8495,2.994792
297.8834,2.990154
297.9242,2.985448
297.9785,2.980605
298.3897,2.951004
298.4622,2.945979
298.5484,2.940817
298.6413,2.935588
299.1725,2.910004
299.1754,2.904050
299.1785,2.897959
299.1815,2.891799
299.6834,2.863745
299.6868,2.856945
299.6902,2.850077
299.6936,2.843072
299.9796,2.819944
300.0148,2.812757
300.0568,2.805434
300.1124,2.798042
300.2503,2.765959
300.2524,2.761639
300.2545,2.757319
300.2567,2.752999
300.2719,2.722144
300.2741,2.717824
300.2762,2.713504
300.2783,2.709184
300.3012,2.662901
300.3152,2.634513
300.3687,2.668138
300.3878,2.629489
300.4497,2.673308
300.4739,2.624327
300.5376,2.678341
300.5669,2.619098
300.5821,2.588242
300.6169,2.581981
300.6584,2.575583
300.7136,2.569118
##END=
