##TITLE=1H-Indole, 2-methyl-
##JCAMP-DX=4.24
##DATA TYPE=UV/VIS SPECTRUM
##ORIGIN=INSTITUTE OF ENERGY PROBLEMS OF CHEMICAL PHYSICS, RAS
##OWNER=INEP CP RAS, NIST OSRD
Collection (C) 2007 copyright by the U.S. Secretary of Commerce
on behalf of the United States of America. All rights reserved.
##CAS REGISTRY NO=95-20-5
##MOLFORM=C9H9N
##MP=61
##BP=272
##SOURCE REFERENCE=RAS UV No. 282
##$NIST SQUIB=1963SAN/CHA1106
##$NIST SOURCE=TSGMTE
##SPECTROMETER/DATA SYSTEM=Beckman DU
##XUNITS=Wavelength (nm)
##YUNITS=Logarithm epsilon
##XFACTOR=1.000000
##YFACTOR=1.000000
##FIRSTX=250.5544
##LASTX=295.0807
##FIRSTY=3.31455
##MAXX=295.081
##MINX=250.554
##MAXY=3.58008
##MINY=2.11278
##NPOINTS=158
##$REF AUTHOR=Sannigrahi, A.B.; Chandra, A.K.
##$REF JOURNAL=J. Phys. Chem.
##$REF VOLUME=67
##$REF PAGE=1106
##$REF DATE=1963
##XYPOINTS=(XY..XY)
250.5544,3.314553
250.9302,3.322657
251.3037,3.330895
251.6749,3.339245
252.0439,3.347683
252.4107,3.356189
252.7753,3.364743
253.1378,3.373328
253.4982,3.381926
253.8565,3.390522
254.2127,3.399101
254.5669,3.407650
254.9192,3.416155
255.2695,3.424607
255.6178,3.432993
255.9643,3.441304
256.3089,3.449532
256.6517,3.457668
256.9927,3.465704
257.3319,3.473634
257.6694,3.481450
258.0052,3.489148
258.3394,3.496722
258.6719,3.504167
259.0027,3.511478
259.3321,3.518652
259.6598,3.525685
259.9861,3.532572
259.9861,3.532572
260.4050,3.536700
260.8228,3.540701
261.2399,3.544589
261.6565,3.548378
262.0730,3.552082
262.4898,3.555712
262.9072,3.559282
263.3256,3.562804
263.7453,3.566288
264.1667,3.569747
264.5901,3.573192
265.0159,3.576633
265.4444,3.580079
265.4444,3.580079
265.9981,3.579739
266.6527,3.577210
267.1241,3.570741
267.1241,3.570741
267.2048,3.570599
267.2871,3.570420
267.3728,3.570164
267.3728,3.570164
267.3735,3.569243
267.3744,3.568243
267.3752,3.567201
267.3752,3.567201
267.5798,3.564761
268.0167,3.559420
268.5914,3.552200
269.2095,3.544157
269.7764,3.536420
270.1976,3.530195
270.3786,3.526750
270.3786,3.526750
270.7463,3.521963
271.1283,3.517364
271.5229,3.512947
271.9286,3.508710
272.3436,3.504649
272.7663,3.500758
273.1951,3.497033
273.6282,3.493468
274.0641,3.490057
274.5011,3.486794
274.9375,3.483672
275.3717,3.480684
275.8020,3.477821
276.2268,3.475077
276.6444,3.472442
276.6444,3.472442
277.2953,3.467360
277.7879,3.463424
278.1778,3.460178
278.5208,3.457142
278.8723,3.453824
279.2881,3.449715
279.8237,3.444284
279.8237,3.444284
280.3133,3.435205
280.8062,3.425881
281.3008,3.416243
281.3008,3.416243
281.6277,3.406795
281.9527,3.396436
282.2738,3.385167
282.5892,3.372987
282.8969,3.359891
283.1950,3.345874
283.4816,3.330928
283.7547,3.315044
284.0126,3.298212
284.2531,3.280421
284.2531,3.280421
284.6039,3.261353
284.9040,3.245745
285.2091,3.230217
285.5750,3.210835
286.0574,3.182856
286.0574,3.182856
286.1666,3.183705
286.2759,3.184364
286.3852,3.184928
286.3852,3.184928
286.6238,3.206102
286.8300,3.227977
287.0148,3.249829
287.1890,3.271067
287.3636,3.291206
287.5495,3.309851
287.7577,3.326671
287.9990,3.341378
287.9990,3.341378
288.0870,3.341144
288.1767,3.340846
288.2696,3.340418
288.2696,3.340418
288.3477,3.334417
288.4409,3.324145
288.6094,3.301463
288.9137,3.255606
288.9137,3.255606
289.0544,3.235599
289.1861,3.214377
289.3112,3.191873
289.4325,3.168013
289.5524,3.142712
289.6736,3.115874
289.7987,3.087389
289.9303,3.057132
290.0709,3.024959
290.2233,2.990705
290.3898,2.954178
290.5733,2.915153
290.7761,2.873369
291.0010,2.828512
291.2506,2.780215
291.5274,2.728026
291.5274,2.728026
291.8745,2.685514
292.2379,2.639291
292.6154,2.589022
293.0051,2.534327
293.4047,2.474801
293.8123,2.410030
294.2257,2.339654
294.6429,2.263471
295.0617,2.181663
295.0617,2.181663
295.0807,2.112780
##END=
