##TITLE=2-Amino-6-chlorobenzothiazole
##JCAMP-DX=4.24
##DATA TYPE=UV/VIS SPECTRUM
##ORIGIN=INSTITUTE OF ENERGY PROBLEMS OF CHEMICAL PHYSICS, RAS
##OWNER=INEP CP RAS, NIST OSRD
Collection (C) 2007 copyright by the U.S. Secretary of Commerce
on behalf of the United States of America. All rights reserved.
##CAS REGISTRY NO=95-24-9
##MOLFORM=C7H5ClN2S
##MP=200
##SOURCE REFERENCE=RAS UV No. 5176
##$NIST SQUIB=1948EDI/HUN1497-1499
##$NIST SOURCE=TSGMTE
##SPECTROMETER/DATA SYSTEM=Hilger E 49 medium spectrograph
##XUNITS=Wavelength (nm)
##YUNITS=Logarithm epsilon
##XFACTOR=1.000000
##YFACTOR=1.000000
##FIRSTX=236.4193
##LASTX=293.7658
##FIRSTY=4.45088
##MAXX=293.766
##MINX=236.419
##MAXY=4.45217
##MINY=3.64694
##NPOINTS=200
##$REF AUTHOR=Edisbury, J.R.; Hunter, R.F.; Scott, A.D.
##$REF TITLE=The ultra-violet absorption spectra of some 2-aminobenzthiazole and 2-imino-3-methyl-2: 3-dihydrobenzthiazole derivatives
##$REF JOURNAL=J. Chem. Soc.
##$REF PAGE=1497-1499
##$REF DATE=1948
##XYPOINTS=(XY..XY)
236.4193,4.450879
236.4193,4.450879
236.4442,4.448283
236.4858,4.445355
236.5409,4.451313
236.5678,4.440963
236.6680,4.451743
236.7137,4.433973
236.7980,4.452171
236.9474,4.423251
237.2925,4.407663
237.7725,4.386078
237.7725,4.386078
237.9687,4.378569
238.1650,4.371068
238.3618,4.363572
238.5592,4.356084
238.7573,4.348602
238.9562,4.341126
239.1562,4.333657
239.3574,4.326194
239.5600,4.318738
239.7640,4.311288
239.9698,4.303845
240.1773,4.296408
240.3868,4.288978
240.5984,4.281554
240.8124,4.274136
241.0287,4.266725
241.2477,4.259320
241.4694,4.251922
241.6940,4.244530
241.9217,4.237144
242.1526,4.229765
242.3868,4.222392
242.6246,4.215025
242.8661,4.207664
243.1114,4.200310
243.3608,4.192963
243.6142,4.185621
243.8720,4.178286
244.1342,4.170956
244.4011,4.163634
244.6728,4.156317
244.9493,4.149007
245.2310,4.141703
245.5179,4.134405
245.8102,4.127113
246.1080,4.119827
246.1080,4.119827
246.5422,4.112776
247.0015,4.105865
247.5017,4.099270
248.0588,4.093170
248.6889,4.087743
249.4077,4.083166
250.2313,4.079616
250.3410,4.078886
251.4211,4.079387
252.2552,4.080967
253.0265,4.084547
253.9183,4.091045
253.9183,4.091045
254.4493,4.096865
254.9709,4.102711
255.4836,4.108581
255.9876,4.114479
256.4832,4.120405
256.9707,4.126361
257.4503,4.132347
257.9224,4.138366
258.3873,4.144418
258.8452,4.150505
259.2964,4.156628
259.7413,4.162788
260.1802,4.168988
260.6132,4.175227
261.0408,4.181507
261.4631,4.187830
261.8806,4.194197
262.2934,4.200609
262.7019,4.207067
263.1064,4.213573
263.5072,4.220129
263.9045,4.226734
264.2986,4.233392
264.6899,4.240103
265.0787,4.246867
265.4651,4.253688
265.4651,4.253688
265.8475,4.257930
266.0889,4.262273
266.2971,4.267161
266.2971,4.267161
266.8400,4.274891
267.3364,4.281943
267.8031,4.288281
268.2571,4.293871
268.7154,4.298679
269.1947,4.302668
269.7120,4.305806
270.2842,4.308057
270.9282,4.309385
271.6608,4.309758
272.4990,4.309139
273.4597,4.307495
273.4597,4.307495
274.1372,4.304028
274.7858,4.300060
275.3157,4.293659
275.3157,4.293659
275.7853,4.290934
276.3373,4.285253
276.9297,4.277627
277.5206,4.269066
278.0681,4.260579
278.5302,4.253176
278.8650,4.247867
278.8650,4.247867
279.2568,4.240707
279.6765,4.233249
280.1092,4.225534
280.5398,4.217606
280.9532,4.209506
281.3345,4.201276
281.6686,4.192957
281.9404,4.184591
282.1349,4.176221
282.4157,4.170679
282.6603,4.163440
282.8961,4.156150
283.1235,4.148812
283.3430,4.141431
283.5551,4.134007
283.7604,4.126545
283.9594,4.119048
284.1525,4.111518
284.3403,4.103959
284.5233,4.096373
284.7020,4.088764
284.8769,4.081135
285.0485,4.073488
285.2173,4.065827
285.3839,4.058154
285.5486,4.050473
285.7121,4.042787
285.8749,4.035098
286.0374,4.027410
286.2002,4.019726
286.3638,4.012048
286.3638,4.012048
286.4967,4.004613
286.6293,3.997174
286.7615,3.989731
286.8934,3.982284
287.0251,3.974835
287.1567,3.967382
287.2883,3.959926
287.4198,3.952467
287.5515,3.945006
287.6833,3.937543
287.8154,3.930077
287.9478,3.922610
288.0806,3.915141
288.2139,3.907670
288.3477,3.900199
288.4822,3.892726
288.6173,3.885253
288.7533,3.877779
288.8901,3.870304
289.0278,3.862829
289.1665,3.855355
289.3063,3.847880
289.4473,3.840407
289.5895,3.832933
289.7330,3.825461
289.8779,3.817990
290.0242,3.810520
290.1721,3.803051
290.3216,3.795585
290.4727,3.788120
290.6257,3.780657
290.7804,3.773197
290.9371,3.765739
291.0958,3.758285
291.2565,3.750833
291.4194,3.743384
291.5845,3.735939
291.7519,3.728497
291.9216,3.721059
292.0938,3.713626
292.2685,3.706196
292.4458,3.698771
292.6257,3.691351
292.8084,3.683936
292.9940,3.676525
293.1824,3.669121
293.3738,3.661721
293.5682,3.654328
293.7658,3.646940
##END=
