##TITLE=o-Chloroaniline
##JCAMP-DX=4.24
##DATA TYPE=UV/VIS SPECTRUM
##ORIGIN=INSTITUTE OF ENERGY PROBLEMS OF CHEMICAL PHYSICS, RAS
##OWNER=INEP CP RAS, NIST OSRD
Collection (C) 2007 copyright by the U.S. Secretary of Commerce
on behalf of the United States of America. All rights reserved.
##CAS REGISTRY NO=95-51-2
##MOLFORM=C6H6ClN
##MP=-14
##BP=208.8
##SOURCE REFERENCE=RAS UV No. 129
##$NIST SQUIB=1949GRA761
##$NIST SOURCE=TSGMTE
##SPECTROMETER/DATA SYSTEM=n.i.g.
##XUNITS=Wavelength (nm)
##YUNITS=Logarithm epsilon
##XFACTOR=1.000000
##YFACTOR=1.000000
##FIRSTX=324.6219
##LASTX=222.5263
##FIRSTY=0.673141
##MAXX=324.622
##MINX=222.526
##MAXY=3.84427
##MINY=0.673141
##NPOINTS=277
##$REF AUTHOR=Grammaticakis, P.
##$REF TITLE=Contribution a l'etude de l'absorption dans l'ultraviolet moyen des anilines orthosubstituees. II. Ortho-halogenanilines N-substituees
##$REF JOURNAL=Bull. Soc. Chim. Fr.
##$REF VOLUME=16
##$REF PAGE=761
##$REF DATE=1949
##XYPOINTS=(XY..XY)
324.6219,0.673141
324.3195,0.743878
324.0429,0.807745
323.7904,0.865258
323.5605,0.916906
323.3514,0.963197
323.1618,1.004635
322.9899,1.041724
322.8342,1.074959
322.6932,1.104845
322.5653,1.131885
322.4489,1.156579
322.3427,1.179437
322.2450,1.200952
322.1543,1.221628
322.0692,1.241970
321.9881,1.262480
321.9096,1.283656
321.8320,1.306004
321.7540,1.330028
321.6741,1.356225
321.6741,1.356225
321.2681,1.435207
320.8989,1.506455
320.5640,1.570469
320.2612,1.627751
319.9885,1.678800
319.7435,1.724114
319.5242,1.764198
319.3284,1.799549
319.1541,1.830667
318.9991,1.858054
318.8616,1.882209
318.7393,1.903633
318.6302,1.922825
318.5324,1.940286
318.4438,1.956517
318.3624,1.972016
318.2862,1.987286
318.2132,2.002825
318.1414,2.019135
318.0688,2.036714
318.0688,2.036714
317.4956,2.107376
317.0378,2.161681
316.6782,2.202825
316.3998,2.234006
316.1858,2.258420
316.0196,2.279263
315.8847,2.299733
315.7649,2.323025
315.7649,2.323025
315.3902,2.347500
314.9518,2.389088
314.5791,2.413563
314.5791,2.413563
314.3738,2.442834
314.0776,2.478892
313.7199,2.519432
313.3303,2.562144
312.9377,2.604724
312.5712,2.644862
312.2593,2.680253
312.0304,2.708589
311.9128,2.727563
311.9128,2.727563
311.5473,2.752038
311.1194,2.793626
310.7557,2.818101
310.7557,2.818101
309.6100,2.912588
308.9959,2.961565
308.6969,2.980767
308.5011,2.985927
308.5011,2.985927
307.6806,3.027234
306.8643,3.068634
306.0523,3.110218
306.0523,3.110218
304.7262,3.147084
304.1766,3.164928
303.9248,3.179048
303.9248,3.179048
302.9745,3.198006
302.4335,3.211878
301.8357,3.232551
301.8357,3.232551
300.7680,3.253099
299.7024,3.273737
298.6335,3.294558
298.6335,3.294558
296.4547,3.316858
295.2053,3.328729
294.5455,3.336928
294.5455,3.336928
292.8906,3.337171
291.2541,3.337598
289.6357,3.338117
289.6357,3.338117
288.9819,3.333026
288.3260,3.327934
287.6632,3.322841
287.6632,3.322841
286.5703,3.302646
285.6608,3.284877
285.0307,3.274709
285.0307,3.274709
284.6647,3.264059
284.1470,3.250930
283.3464,3.231049
282.1360,3.200144
280.3964,3.153946
278.0194,3.088182
278.0194,3.088182
277.8064,3.078367
277.4970,3.067612
277.2849,3.057796
277.2849,3.057796
276.8600,3.045698
276.5055,3.033061
276.0029,3.016528
276.0029,3.016528
275.6479,3.000055
275.1984,2.983471
274.9796,2.971168
274.9796,2.971168
274.7824,2.964746
274.5690,2.955097
274.2397,2.942848
274.2397,2.942848
274.2158,2.937873
274.1829,2.932895
274.1455,2.927916
274.1455,2.927916
274.0035,2.927887
273.8616,2.927858
273.7198,2.927829
273.7198,2.927829
273.3865,2.901909
273.3471,2.863130
273.3451,2.867287
273.3430,2.871536
273.3408,2.875970
273.1560,2.887424
273.0183,2.875904
273.0183,2.875904
272.4811,2.860067
272.0134,2.842679
271.4816,2.823804
271.4816,2.823804
271.1605,2.797471
270.7858,2.774532
270.3874,2.748182
270.3874,2.748182
270.0797,2.742241
269.7778,2.734737
269.4716,2.728520
269.4716,2.728520
269.3765,2.722163
269.2816,2.715622
269.1868,2.708990
269.1868,2.708990
268.4934,2.687301
267.7992,2.665612
267.1001,2.643921
267.1001,2.643921
266.2821,2.624567
265.4649,2.605027
264.6444,2.585393
264.6444,2.585393
264.1924,2.581029
263.7378,2.576480
263.2765,2.571836
263.2765,2.571836
262.6044,2.569616
261.9315,2.567395
261.2540,2.565172
261.2540,2.565172
261.0078,2.568016
260.7538,2.570859
260.4964,2.573700
260.4964,2.573700
260.1797,2.584399
259.8597,2.595097
259.5324,2.605793
259.5324,2.605793
259.0345,2.642901
258.6679,2.668623
258.3699,2.695834
258.3699,2.695834
258.0186,2.725871
257.5393,2.777787
257.1903,2.807824
257.1903,2.807824
256.6849,2.869430
256.3131,2.908974
255.7565,2.960349
255.7565,2.960349
255.6100,2.969828
255.4412,2.984502
255.2295,3.005525
254.9545,3.034052
254.5959,3.071240
254.1339,3.118242
253.5493,3.176216
253.5333,3.246485
253.2911,3.246427
253.0532,3.246370
252.8234,3.246315
252.8234,3.246315
252.6336,3.246270
252.4403,3.270587
252.2058,3.293882
251.8930,3.332255
251.8930,3.332255
251.6550,3.347970
251.3601,3.374073
251.0651,3.392535
251.0651,3.392535
250.4267,3.441323
249.9485,3.472842
249.6177,3.495744
249.6177,3.495744
249.2436,3.516932
248.7345,3.553368
248.1903,3.590254
248.1903,3.590254
247.8152,3.609339
247.2703,3.642650
246.6165,3.680167
246.6165,3.680167
245.8148,3.707305
245.0111,3.734441
243.2364,3.780457
242.4490,3.796531
241.5439,3.812664
241.5439,3.812664
240.9002,3.819859
240.0400,3.831414
238.8666,3.844265
238.8666,3.844265
238.3124,3.844115
237.7574,3.843965
237.1982,3.843813
237.1982,3.843813
236.7549,3.840792
236.3065,3.837770
235.8564,3.834746
235.8564,3.834746
234.6207,3.811175
233.4764,3.787718
232.8067,3.775899
232.8067,3.775899
232.2403,3.755916
231.7970,3.742134
231.5405,3.732457
231.5405,3.732457
230.5229,3.703581
229.5128,3.674705
228.5090,3.645828
227.5099,3.616950
227.5099,3.616950
227.2281,3.611880
226.9409,3.606716
226.6514,3.601367
226.6514,3.601367
226.1253,3.601210
225.6016,3.601053
225.0804,3.600895
225.0804,3.600895
224.3354,3.615413
223.8004,3.627601
223.0172,3.647904
223.0172,3.647904
222.9523,3.654635
222.8249,3.661254
222.5263,3.673436
##END=
