##TITLE=3-(4-chlorophenyl)-2,3-dihydro-3-hydroxy-1H-isoindol-1-one
##JCAMP-DX=4.24
##DATA TYPE=UV/VIS SPECTRUM
##ORIGIN=INSTITUTE OF ENERGY PROBLEMS OF CHEMICAL PHYSICS, RAS
##OWNER=INEP CP RAS, NIST OSRD
Collection (C) 2007 copyright by the U.S. Secretary of Commerce
on behalf of the United States of America. All rights reserved.
##CAS REGISTRY NO=956-92-3
##MOLFORM=C14H10ClNO2
##MP=206-208
##SOURCE REFERENCE=RAS UV No. 22615
##$NIST SQUIB=1977KAR/763
##$NIST SOURCE=TYUGLMTE
##SPECTROMETER/DATA SYSTEM=Specord UV-Vis
##XUNITS=Wavelength (nm)
##YUNITS=Logarithm epsilon
##XFACTOR=1.0
##YFACTOR=1.0
##FIRSTX=223.019
##LASTX=482.357
##FIRSTY=4.177
##MAXX=482.357
##MINX=223.019
##MAXY=4.363
##MINY=2.618
##NPOINTS=177
##$REF AUTHOR=Karlivan, G.A.; et al.
##$REF JOURNAL=Khim. Geterosikl. Soedin.
##$REF PAGE=763
##$REF DATE=1977
##XYPOINTS=(XY..XY)
223.019,4.177
224.519,4.167
226.019,4.161
227.519,4.156
229.019,4.150
230.519,4.142
232.019,4.135
233.519,4.128
235.019,4.123
236.519,4.120
238.019,4.119
239.519,4.120
241.019,4.121
242.519,4.121
244.019,4.117
245.519,4.107
247.019,4.088
248.519,4.060
250.019,4.020
251.519,3.968
253.019,3.904
254.519,3.830
256.019,3.748
257.519,3.660
259.019,3.571
260.519,3.482
262.019,3.398
263.519,3.318
265.019,3.240
266.356,3.153
267.856,3.094
269.356,3.010
270.856,2.917
272.356,2.828
273.856,2.750
275.356,2.689
276.856,2.647
277.981,2.628
279.856,2.618
281.645,2.628
282.856,2.649
284.356,2.677
285.856,2.710
287.356,2.743
288.856,2.775
290.356,2.805
291.856,2.832
293.356,2.860
293.505,2.856
295.005,2.907
296.505,2.952
298.005,2.993
299.505,3.032
301.005,3.071
302.505,3.108
304.005,3.145
305.505,3.183
307.005,3.220
308.505,3.258
310.005,3.297
311.505,3.335
313.005,3.373
314.505,3.411
316.005,3.449
317.505,3.486
319.005,3.522
320.505,3.558
322.005,3.593
323.505,3.627
325.005,3.660
326.505,3.693
328.005,3.726
329.505,3.759
331.005,3.792
332.505,3.826
334.005,3.861
334.229,3.867
335.729,3.897
337.229,3.927
338.729,3.956
340.229,3.985
341.729,4.013
343.229,4.041
344.729,4.068
346.229,4.095
347.729,4.120
349.229,4.144
350.729,4.167
352.229,4.188
353.729,4.206
355.229,4.223
356.729,4.237
358.229,4.248
359.729,4.257
361.229,4.265
362.729,4.270
364.229,4.273
365.729,4.275
367.229,4.275
368.729,4.275
370.229,4.274
371.729,4.273
373.229,4.271
374.729,4.268
375.775,4.265
377.275,4.260
378.775,4.258
380.275,4.258
381.775,4.260
383.275,4.263
384.775,4.267
386.275,4.273
387.775,4.279
389.275,4.285
390.775,4.292
392.275,4.300
393.775,4.307
395.275,4.314
396.775,4.321
398.275,4.328
399.775,4.334
401.275,4.340
402.775,4.346
404.275,4.350
405.775,4.355
407.275,4.358
408.775,4.360
410.275,4.362
411.775,4.363
413.275,4.362
414.775,4.361
416.275,4.358
417.775,4.354
419.275,4.349
420.775,4.342
422.275,4.334
423.775,4.325
425.275,4.314
426.775,4.301
428.275,4.286
429.775,4.271
431.275,4.253
432.775,4.234
434.275,4.213
435.775,4.190
437.275,4.166
438.775,4.141
440.275,4.114
440.357,4.117
441.857,4.075
443.357,4.036
444.857,4.001
446.357,3.966
447.857,3.933
449.357,3.898
450.857,3.862
452.357,3.824
453.857,3.783
455.357,3.740
456.857,3.693
458.357,3.642
459.857,3.588
461.357,3.531
462.857,3.472
464.357,3.409
465.857,3.345
467.357,3.279
468.857,3.213
470.357,3.147
471.857,3.082
473.357,3.019
474.857,2.958
476.357,2.901
477.857,2.848
479.357,2.800
480.857,2.758
482.357,2.722
##END=
