##TITLE=Benzene, 1,2,4-trimethyl-
##JCAMP-DX=4.24
##DATA TYPE=UV/VIS SPECTRUM
##ORIGIN=INSTITUTE OF ENERGY PROBLEMS OF CHEMICAL PHYSICS, RAS
##OWNER=INEP CP RAS, NIST OSRD
Collection (C) 2007 copyright by the U.S. Secretary of Commerce
on behalf of the United States of America. All rights reserved.
##CAS REGISTRY NO=95-63-6
##MOLFORM=C9H12
##MP=-43.8
##BP=169.3
##SOURCE REFERENCE=RAS UV No. 8971
##$NIST SQUIB=1966VAG/BRUd2/9C
##$NIST SOURCE=TSGMTE
##SPECTROMETER/DATA SYSTEM=Zeiss PMQ II or M4Q III
##XUNITS=Wavelength (nm)
##YUNITS=Logarithm epsilon
##XFACTOR=1.000000
##YFACTOR=1.000000
##FIRSTX=281.1931
##LASTX=184.0356
##FIRSTY=1.39815
##MAXX=281.193
##MINX=184.036
##MAXY=4.72306
##MINY=1.39815
##NPOINTS=286
##$REF AUTHOR=Vagt, G.; Bruns, H.; Braunschweig, T.H.
##$REF TITLE=1,2,4-Trimethylbenzene (Pseudocumene)
##$REF BOOK TITLE=UV Atlas of Organic Compounds - Vol. 2
##$REF PAGE=D2/9
##$REF DATE=1966
##$REF PUBLISHER=Plenum Press
##$REF LOCATION=New York
##XYPOINTS=(XY..XY)
281.1931,1.398147
280.8038,1.489186
280.4349,1.575676
280.0858,1.657735
279.7557,1.735485
279.4441,1.809040
279.1504,1.878522
278.8737,1.944050
278.6137,2.005741
278.3696,2.063715
278.1409,2.118089
277.9270,2.168984
277.7272,2.216518
277.5411,2.260810
277.3681,2.301977
277.2075,2.340140
277.0589,2.375417
276.9218,2.407927
276.7954,2.437788
276.6794,2.465120
276.5732,2.490040
276.4763,2.512669
276.3881,2.533124
276.3081,2.551524
276.2358,2.567988
276.1707,2.582636
276.1122,2.595585
276.0599,2.606954
276.0132,2.616863
275.9717,2.625430
275.9347,2.632773
275.9019,2.639012
275.8727,2.644266
275.8465,2.648652
275.8230,2.652290
275.8015,2.655300
275.7815,2.657798
275.7627,2.659904
275.7444,2.661738
275.7262,2.663417
275.7075,2.665061
275.7075,2.665061
275.4925,2.665827
275.2779,2.666593
275.0636,2.667359
275.0636,2.667359
275.0636,2.670923
275.0636,2.674431
275.0636,2.677825
274.9079,2.665061
274.7719,2.664475
274.6360,2.663775
274.5002,2.663019
274.5002,2.663019
274.0351,2.621832
273.6690,2.580694
273.3761,2.539172
273.1305,2.496837
273.1305,2.496837
273.0339,2.495551
272.9330,2.494209
272.8237,2.492753
272.8237,2.492753
271.6049,2.504599
271.2357,2.527280
271.1488,2.549168
271.1488,2.549168
270.5978,2.576359
269.6410,2.607237
268.1924,2.624728
268.1924,2.624728
267.5613,2.639714
266.8882,2.653394
265.8988,2.655616
265.8988,2.655616
265.2482,2.611624
264.7370,2.566611
263.8052,2.521598
263.8052,2.521598
263.0362,2.518630
262.3581,2.514867
261.5858,2.508835
261.5858,2.508835
261.2042,2.496137
260.6799,2.481625
260.0455,2.469268
260.0455,2.469268
259.8420,2.460012
259.4617,2.448146
259.0402,2.438380
259.0402,2.438380
258.9687,2.435253
258.8082,2.429449
258.4845,2.418003
257.9250,2.397951
257.0590,2.366328
255.8201,2.320169
254.1470,2.256510
251.9863,2.172387
251.9863,2.172387
250.6411,2.113315
250.1016,2.088166
249.8962,2.075383
249.8962,2.075383
249.3747,2.060038
248.9972,2.038397
248.4266,2.017947
248.4266,2.017947
248.1212,1.993639
247.5183,1.960993
246.8487,1.939068
246.8487,1.939068
246.2686,1.905481
245.6735,1.871974
245.0651,1.838530
244.4445,1.805135
243.8133,1.771772
243.1728,1.738425
242.5243,1.705077
241.8691,1.671713
241.2085,1.638318
240.5437,1.604875
239.8760,1.571368
239.2066,1.537780
239.2066,1.537780
237.6933,1.470049
236.9285,1.437034
236.7153,1.425971
236.7153,1.425971
236.4385,1.420015
236.2580,1.415251
236.0682,1.412187
235.8820,1.410910
235.7246,1.410910
235.5675,1.410910
235.4105,1.410910
235.4105,1.410910
234.3384,1.444376
233.7363,1.484876
233.3946,1.527003
233.1090,1.565350
233.1090,1.565350
232.7557,1.618211
232.4372,1.665585
232.1500,1.708061
231.8905,1.746232
231.6552,1.780686
231.4407,1.812016
231.2437,1.840813
231.0607,1.867667
230.8885,1.893168
230.7236,1.917909
230.5629,1.942479
230.4030,1.967471
230.2408,1.993473
230.0729,2.021079
229.8962,2.050877
229.8962,2.050877
229.7741,2.082561
229.6528,2.114243
229.5323,2.145921
229.4124,2.177596
229.2932,2.209269
229.1747,2.240938
229.0568,2.272605
228.9396,2.304268
228.8231,2.335928
228.7071,2.367586
228.5918,2.399240
228.4770,2.430891
228.3629,2.462539
228.2493,2.494183
228.1363,2.525825
228.0238,2.557463
227.9118,2.589098
227.8004,2.620730
227.6895,2.652358
227.5790,2.683983
227.4691,2.715605
227.3596,2.747223
227.2506,2.778838
227.1420,2.810450
227.0338,2.842058
226.9261,2.873662
226.8188,2.905264
226.7119,2.936861
226.6053,2.968455
226.4991,3.000046
226.3933,3.031633
226.2879,3.063216
226.1827,3.094795
226.0779,3.126371
225.9734,3.157944
225.8692,3.189512
225.7653,3.221077
225.6617,3.252638
225.5583,3.284196
225.4552,3.315749
225.4552,3.315749
225.2417,3.350492
225.0176,3.384971
224.7796,3.419229
224.5244,3.453303
224.2490,3.487235
223.9501,3.521063
223.6247,3.554829
223.2698,3.588571
222.8822,3.622331
222.8822,3.622331
221.8053,3.691665
221.0567,3.739983
220.5299,3.773579
220.1219,3.798752
219.7320,3.821797
219.2609,3.849012
219.2609,3.849012
219.0339,3.856595
218.7800,3.866957
218.5458,3.874539
218.5458,3.874539
217.8955,3.898610
216.5095,3.923476
215.2177,3.936315
215.2177,3.936315
213.5157,3.950969
211.6187,3.955333
209.6935,3.956059
207.8958,3.959800
207.8958,3.959800
206.5759,3.981641
205.6423,4.006362
204.9570,4.034329
204.3882,4.065911
203.8076,4.101476
203.8076,4.101476
203.4983,4.135608
203.2136,4.169778
202.9492,4.203967
202.7007,4.238158
202.4638,4.272334
202.2343,4.306477
202.0079,4.340570
201.7805,4.374595
201.5480,4.408535
201.3063,4.442372
201.0512,4.476090
200.7789,4.509671
200.4853,4.543096
200.4853,4.543096
200.0756,4.571469
199.7610,4.606025
199.5794,4.636781
199.5794,4.636781
199.3746,4.648136
199.1022,4.668907
198.7831,4.692175
198.7831,4.692175
198.1338,4.713570
197.4642,4.721749
196.3528,4.723063
196.3528,4.723063
195.4662,4.716993
194.4772,4.710753
193.7104,4.695493
193.7104,4.695493
192.7260,4.664549
192.0589,4.626286
191.2416,4.592108
191.2416,4.592108
191.0136,4.578853
190.8590,4.571327
190.7816,4.566581
190.7816,4.566581
189.8064,4.529709
188.9023,4.491645
188.0129,4.451709
188.0129,4.451709
187.7392,4.434116
187.4413,4.415715
187.0582,4.392167
186.5303,4.359130
185.7999,4.312267
184.8122,4.247236
184.8122,4.247236
184.3803,4.226710
184.0356,4.201136
##END=
