##TITLE=Phenol, 2,5-dimethyl-
##JCAMP-DX=4.24
##DATA TYPE=UV/VIS SPECTRUM
##ORIGIN=INSTITUTE OF ENERGY PROBLEMS OF CHEMICAL PHYSICS, RAS
##OWNER=INEP CP RAS, NIST OSRD
Collection (C) 2007 copyright by the U.S. Secretary of Commerce
on behalf of the United States of America. All rights reserved.
##CAS REGISTRY NO=95-87-4
##MOLFORM=C8H10O
##MP=74.8
##BP=211
##SOURCE REFERENCE=RAS UV No. 20200
##$NIST SQUIB=1969BOL/238
##$NIST SOURCE=TYUGLMTE
##SPECTROMETER/DATA SYSTEM=unknown
##XUNITS=Wavelength (nm)
##YUNITS=Logarithm epsilon
##XFACTOR=1.0
##YFACTOR=1.0
##FIRSTX=213.46
##LASTX=288.34
##FIRSTY=3.813
##MAXX=288.34
##MINX=213.46
##MAXY=3.829
##MINY=2.099
##NPOINTS=130
##$REF AUTHOR=Bol'shakov, G.F.; et al.
##$REF JOURNAL=Ultraviolet spectra of heteroorganic compounds
##$REF PAGE=238
##$REF DATE=1969
##XYPOINTS=(XY..XY)
213.46,3.813
213.63,3.813
213.79,3.813
213.96,3.817
214.12,3.817
214.29,3.817
214.45,3.817
214.61,3.821
214.78,3.821
214.94,3.821
215.11,3.821
215.27,3.825
215.43,3.825
215.60,3.825
215.76,3.825
215.93,3.829
216.09,3.825
216.75,3.825
217.40,3.821
218.06,3.817
218.72,3.813
219.38,3.809
220.03,3.796
220.69,3.792
221.35,3.771
222.00,3.750
222.66,3.725
223.32,3.692
223.97,3.655
224.63,3.626
225.29,3.588
225.94,3.547
226.60,3.505
227.26,3.463
227.91,3.405
228.57,3.359
229.23,3.301
229.88,3.239
230.54,3.168
231.20,3.085
231.85,2.981
232.51,2.877
233.17,2.777
233.82,2.715
234.48,2.644
235.14,2.582
235.79,2.523
236.45,2.469
237.11,2.415
237.77,2.357
238.42,2.319
239.08,2.286
239.74,2.249
240.39,2.220
241.05,2.182
241.71,2.149
242.36,2.124
243.02,2.107
243.68,2.103
244.33,2.099
244.99,2.103
245.65,2.112
246.30,2.124
246.96,2.161
247.62,2.203
248.27,2.240
248.93,2.274
249.59,2.315
249.76,2.322
250.59,2.355
251.33,2.385
251.56,2.394
252.21,2.423
252.87,2.465
253.53,2.503
254.18,2.536
254.84,2.573
255.50,2.602
256.16,2.644
256.81,2.677
257.47,2.711
258.13,2.744
258.78,2.777
259.44,2.806
260.10,2.835
260.75,2.860
261.41,2.885
262.07,2.914
262.72,2.939
263.38,2.960
264.04,2.985
264.69,3.010
265.35,3.035
266.01,3.060
266.66,3.085
267.32,3.106
267.98,3.126
268.63,3.147
269.29,3.168
269.95,3.185
270.60,3.197
271.26,3.214
271.92,3.230
272.57,3.247
273.23,3.255
273.89,3.272
274.55,3.285
275.20,3.285
275.86,3.276
276.52,3.264
277.17,3.251
277.83,3.239
278.52,3.230
279.14,3.239
279.80,3.251
280.46,3.276
281.11,3.293
281.46,3.297
281.77,3.285
282.11,3.221
282.51,3.124
283.11,2.996
283.73,2.887
284.40,2.781
285.05,2.686
285.71,2.590
286.37,2.490
287.02,2.378
287.68,2.286
288.34,2.178
##END=
