##TITLE=1a,11b-dihydrobenz[3,4]antra[1,2-b]oxirene
##JCAMP-DX=4.24
##DATA TYPE=UV/VIS SPECTRUM
##ORIGIN=INSTITUTE OF ENERGY PROBLEMS OF CHEMICAL PHYSICS, RAS
##OWNER=INEP CP RAS, NIST OSRD
Collection (C) 2007 copyright by the U.S. Secretary of Commerce
on behalf of the United States of America. All rights reserved.
##CAS REGISTRY NO=9621-32-3
##MOLFORM=C18H12O
##MP=119-120
##SOURCE REFERENCE=RAS UV No. 22806
##$NIST SQUIB=1976KEL/HEI2328
##$NIST SOURCE=TYUGLMTE
##SPECTROMETER/DATA SYSTEM=Cary 15
##XUNITS=Wavelength (nm)
##YUNITS=Logarithm epsilon
##XFACTOR=1.0
##YFACTOR=1.0
##FIRSTX=262.038
##LASTX=316.845
##FIRSTY=4.455
##MAXX=316.845
##MINX=262.038
##MAXY=4.723
##MINY=3.898
##NPOINTS=113
##$REF AUTHOR=Keller, J.W.; Heidelberger, C.
##$REF JOURNAL=J. Am. Chem. Soc.
##$REF VOLUME=98
##$REF PAGE=2328
##$REF DATE=1976
##XYPOINTS=(XY..XY)
262.038,4.455
262.538,4.456
263.038,4.457
263.538,4.459
264.038,4.463
264.538,4.470
265.038,4.481
265.538,4.495
266.038,4.514
266.538,4.536
267.038,4.560
267.538,4.586
268.038,4.611
268.538,4.634
269.038,4.653
269.538,4.664
270.038,4.665
270.497,4.648
270.997,4.626
271.497,4.605
271.997,4.586
272.497,4.570
272.997,4.558
273.497,4.549
273.997,4.544
274.497,4.544
274.997,4.548
275.497,4.556
275.997,4.568
276.497,4.583
276.997,4.601
277.497,4.622
277.997,4.644
278.497,4.666
278.948,4.684
279.400,4.700
279.851,4.716
280.302,4.721
280.753,4.723
281.204,4.718
281.655,4.704
282.106,4.671
282.558,4.629
283.009,4.579
283.460,4.523
283.911,4.462
284.362,4.387
284.813,4.307
284.886,4.255
285.360,4.187
285.860,4.118
286.360,4.066
286.860,4.027
287.360,3.998
287.860,3.977
288.360,3.962
288.860,3.951
289.360,3.943
289.860,3.936
290.360,3.931
290.860,3.926
291.360,3.921
291.860,3.916
292.360,3.912
292.860,3.907
293.526,3.901
294.026,3.899
294.526,3.898
295.026,3.898
295.526,3.898
296.026,3.898
296.526,3.899
297.026,3.900
297.526,3.902
298.026,3.903
298.526,3.905
299.026,3.907
299.526,3.909
300.026,3.911
300.526,3.914
301.026,3.916
301.526,3.918
302.026,3.920
302.526,3.923
303.026,3.925
303.526,3.928
304.026,3.931
304.526,3.934
305.026,3.937
305.526,3.940
306.026,3.944
306.526,3.948
307.140,3.954
307.640,3.960
308.140,3.966
308.640,3.973
309.140,3.980
309.640,3.987
310.140,3.994
310.640,4.000
311.140,4.005
311.640,4.009
312.140,4.011
312.640,4.013
313.140,4.013
313.640,4.012
314.140,4.009
314.640,4.005
315.140,4.000
315.640,3.993
316.140,3.986
316.640,3.978
316.845,3.976
##END=
