##TITLE=Eugenol
##JCAMP-DX=4.24
##DATA TYPE=UV/VIS SPECTRUM
##ORIGIN=INSTITUTE OF ENERGY PROBLEMS OF CHEMICAL PHYSICS, RAS
##OWNER=INEP CP RAS, NIST OSRD
Collection (C) 2007 copyright by the U.S. Secretary of Commerce
on behalf of the United States of America. All rights reserved.
##CAS REGISTRY NO=97-53-0
##MOLFORM=C10H12O2
##MP=-7.5
##BP=253.2
##SOURCE REFERENCE=RAS UV No. 553
##$NIST SQUIB=1952VES/BOL664-666
##$NIST SOURCE=TSGMTE
##SPECTROMETER/DATA SYSTEM=Beckman DU
##XUNITS=Wavelength (nm)
##YUNITS=Logarithm epsilon
##XFACTOR=1.000000
##YFACTOR=1.000000
##FIRSTX=237.2481
##LASTX=300.8425
##FIRSTY=3.99486
##MAXX=300.842
##MINX=237.248
##MAXY=3.99486
##MINY=2.19152
##NPOINTS=665
##$REF AUTHOR=Vespe, V.C.; Boltz, D.F.
##$REF TITLE=Ultraviolet spectrophotometric study of eugenol-isoeugenol system
##$REF JOURNAL=Anal. Chem.
##$REF VOLUME=24
##$REF NUMBER=4
##$REF PAGE=664-666
##$REF DATE=1952
##XYPOINTS=(XY..XY)
237.2481,3.994857
237.3900,3.989169
237.4548,3.994426
237.5033,3.982977
237.5732,3.988734
237.6217,3.977131
237.6858,3.982482
237.7585,3.970762
237.8278,3.976628
237.8710,3.964244
237.9410,3.970253
237.9895,3.958139
238.0542,3.963784
238.1049,3.949575
238.1962,3.957670
238.2174,3.942729
238.2874,3.949041
238.3255,3.935354
238.4006,3.942245
238.4387,3.928339
238.5087,3.934862
238.5910,3.922689
238.6448,3.927776
238.7043,3.915465
238.7742,3.922182
238.8175,3.908118
238.8875,3.914949
238.9536,3.900578
239.0236,3.907528
239.0720,3.893501
239.0830,3.875033
239.1102,3.877913
239.1368,3.900045
239.1853,3.885769
239.2552,3.892958
239.2735,3.872740
239.2897,3.874465
239.3272,3.878443
239.3920,3.885216
239.4295,3.869252
239.4567,3.872171
239.5375,3.860504
239.6126,3.868679
239.6898,3.853892
239.7436,3.859846
239.8031,3.845415
239.8730,3.853298
239.9163,3.836770
239.9862,3.844809
240.0347,3.828561
240.0988,3.836076
240.1818,3.820817
240.2408,3.827853
240.3003,3.812299
240.3650,3.820176
240.4238,3.804258
240.4834,3.811645
240.5716,3.796146
240.6306,3.803590
240.7004,3.788471
240.7542,3.795385
240.8247,3.780058
240.8836,3.787780
240.9770,3.772087
241.0307,3.779266
241.0902,3.761833
241.1601,3.771370
241.2196,3.753611
241.2734,3.761098
241.3616,3.743648
241.4257,3.752769
241.4852,3.734216
241.5441,3.742789
241.6036,3.723795
241.6684,3.733433
241.6896,3.708095
241.7272,3.713916
241.7868,3.722993
241.8316,3.697017
241.8640,3.702169
241.8801,3.704722
241.8963,3.707260
241.9449,3.714788
241.9987,3.722969
242.0523,3.702146
242.0633,3.703884
242.1494,3.687433
242.1817,3.692700
242.2486,3.668565
242.3561,3.686559
242.3722,3.657329
242.4369,3.668540
242.4854,3.643925
242.5553,3.656394
242.6377,3.632982
242.6915,3.642840
242.7775,3.623851
242.8209,3.631994
242.8959,3.610368
242.9607,3.622842
243.0253,3.598669
243.0791,3.609327
243.1621,3.583288
243.2321,3.597595
243.2909,3.570686
243.3453,3.582179
243.4093,3.555416
243.4741,3.569545
243.5571,3.540923
243.6160,3.554230
243.6807,3.525781
243.7403,3.539701
243.7991,3.508815
243.8639,3.524515
243.9410,3.491154
244.0058,3.507494
244.0808,3.478444
244.1242,3.489783
244.1992,3.459480
244.2640,3.477032
244.3522,3.442821
244.4060,3.458001
244.5030,3.431848
244.5354,3.441289
244.6486,3.419020
244.6862,3.430276
244.7988,3.407219
244.8311,3.417204
244.9627,3.391954
245.0055,3.405549
245.1187,3.381317
245.1453,3.390021
245.2747,3.370412
245.3012,3.379335
245.4490,3.357412
245.4814,3.368595
245.5998,3.344016
245.6316,3.355318
245.7610,3.334037
245.7824,3.341857
245.9405,3.321854
245.9677,3.332061
246.1023,3.311598
246.1237,3.319828
246.2635,3.300836
246.2848,3.309270
246.4592,3.294270
246.4702,3.298702
246.6313,3.287611
246.6424,3.292111
246.8035,3.280848
246.8145,3.285418
246.9815,3.276443
246.9919,3.280789
247.1772,3.269495
247.1882,3.274185
247.3546,3.264691
247.3656,3.269434
247.5326,3.260118
247.5377,3.262380
247.7283,3.252901
247.7386,3.257488
247.9056,3.247910
247.9115,3.250526
248.0836,3.243155
248.0888,3.245507
248.2845,3.238041
248.2897,3.240421
248.4567,3.230454
248.4677,3.235583
248.6340,3.225196
248.6399,3.227952
249.0239,3.220107
249.1909,3.209657
249.2123,3.220039
249.2175,3.222519
249.3793,3.209587
249.4058,3.222451
249.4220,3.230111
249.5802,3.204060
249.5853,3.206633
249.7472,3.193212
249.7633,3.201401
249.9297,3.190152
250.1416,3.190070
250.6926,3.170069
250.7147,3.181768
250.8758,3.167193
251.0590,3.164297
251.0642,3.167115
251.2415,3.161026
251.4482,3.158079
251.4534,3.160938
251.6366,3.158000
252.0259,3.151691
252.2142,3.151610
253.3915,3.151110
253.3973,3.154376
253.5856,3.154297
253.9963,3.159878
254.0021,3.163080
254.1904,3.163002
254.1956,3.165829
254.6069,3.171613
254.6173,3.177138
254.8056,3.177062
254.8114,3.180140
255.0050,3.182783
255.0154,3.188169
255.2273,3.188086
255.2383,3.193738
255.4318,3.196299
255.4376,3.199244
255.6312,3.201774
255.6364,3.204360
255.8483,3.204280
255.8593,3.209726
256.0528,3.212196
256.0586,3.215035
256.2522,3.217475
256.2625,3.222449
256.4567,3.225155
256.4619,3.227606
256.6738,3.227531
256.6848,3.232694
256.8784,3.235037
256.8835,3.237433
257.0777,3.240047
257.0829,3.242415
257.3000,3.244698
257.3110,3.249663
257.5045,3.251916
257.5155,3.256799
257.7091,3.259016
257.7143,3.261283
257.9320,3.263750
257.9424,3.268225
258.1365,3.270661
258.1469,3.275065
258.3353,3.275005
258.3515,3.281799
258.5450,3.283892
258.5560,3.288430
258.7679,3.288364
258.7841,3.294954
258.9776,3.296985
258.9938,3.303446
259.1874,3.305438
259.1984,3.309758
259.4155,3.311713
259.4317,3.317961
259.6200,3.317906
259.6420,3.326262
259.8304,3.326209
259.8518,3.334169
260.0689,3.336018
260.0850,3.341928
260.2786,3.343751
260.3058,3.353461
260.4941,3.353411
260.5207,3.362686
260.7384,3.364641
260.7650,3.373682
260.9533,3.373634
260.9909,3.386112
261.0233,3.396589
261.1851,3.387970
261.2065,3.394884
261.2168,3.398196
261.2440,3.406774
261.4376,3.408344
261.4596,3.415142
261.6767,3.416677
261.7732,3.445174
261.9674,3.446796
262.0477,3.469082
262.2418,3.470618
262.2632,3.476341
262.4803,3.477675
262.5289,3.490370
262.7224,3.491666
262.7762,3.505255
262.9697,3.506508
263.0241,3.519803
263.2412,3.521010
263.2950,3.533725
263.4885,3.534898
263.5319,3.544870
263.7254,3.546013
263.8064,3.563981
264.0235,3.565071
264.0824,3.577668
264.2766,3.578864
264.3679,3.597638
264.5614,3.598650
264.6366,3.613475
264.8308,3.614577
264.9059,3.628876
265.1230,3.629815
265.1715,3.638797
265.3651,3.639718
265.4350,3.652308
265.6292,3.653315
265.6830,3.662727
265.9000,3.663595
265.9590,3.673665
266.1532,3.674624
266.2069,3.683590
266.4005,3.684421
266.4432,3.691407
266.6609,3.692325
266.7037,3.699186
266.8972,3.699988
266.9458,3.707641
267.1400,3.708528
267.1827,3.715140
267.3998,3.715910
267.4432,3.722509
267.6367,3.723269
267.6795,3.729661
267.8737,3.730505
267.9061,3.735277
268.0996,3.736014
268.1372,3.741476
268.3542,3.742200
268.5426,3.742180
268.5860,3.748394
268.6074,3.751423
268.6236,3.753703
268.7795,3.749110
268.7905,3.750670
268.8171,3.754410
268.8767,3.762686
269.0938,3.763377
269.1100,3.765595
269.3035,3.766283
269.3359,3.770680
269.5294,3.771360
269.5566,3.775013
269.7737,3.775684
269.8009,3.779301
269.9944,3.779968
270.0372,3.785583
270.2314,3.786325
270.2741,3.791859
270.4677,3.792507
270.5111,3.798045
270.7281,3.798682
270.7767,3.804790
270.9702,3.805419
271.0136,3.810796
271.2072,3.811416
271.2499,3.816642
271.4677,3.817330
271.5162,3.823183
271.7098,3.823786
271.7525,3.828866
271.9467,3.829537
272.0005,3.835832
272.2175,3.836415
272.2661,3.842019
272.4596,3.842596
272.5082,3.848121
272.7018,3.848690
272.7503,3.854138
272.9674,3.854697
273.0160,3.860071
273.2044,3.860055
273.2691,3.867119
273.4627,3.867664
273.5002,3.871703
273.6938,3.872242
273.7158,3.874590
273.9329,3.875124
274.0028,3.882490
274.1912,3.882475
274.2339,3.886915
274.4223,3.886901
274.4657,3.891363
274.6827,3.891876
274.7041,3.894055
274.8925,3.894040
274.9138,3.896208
275.1080,3.896783
275.1184,3.897829
275.3361,3.898400
275.3523,3.900026
275.5459,3.900531
275.5569,3.901633
275.7452,3.901619
275.7608,3.903169
275.9785,3.903733
275.9837,3.904248
276.1720,3.904234
276.1831,3.905326
276.3766,3.905825
276.3876,3.906913
276.5760,3.906899
276.5863,3.907921
276.7982,3.907905
276.8041,3.908478
276.9976,3.908974
277.0028,3.909482
277.1911,3.909468
277.1963,3.909977
277.6076,3.911025
277.6128,3.911531
277.8011,3.911517
278.0189,3.912070
278.3956,3.912043
278.5891,3.912534
278.7958,3.912013
279.1667,3.911416
279.1725,3.911985
279.3734,3.910894
279.3786,3.911401
279.5566,3.910373
279.5618,3.910880
279.7391,3.909788
279.9459,3.909264
279.9510,3.909772
280.1290,3.908741
280.1342,3.909250
280.3064,3.907643
280.3122,3.908217
280.5079,3.906605
280.5131,3.907117
280.6905,3.906015
280.6963,3.906591
280.8685,3.904975
280.8736,3.905488
281.0458,3.903867
281.0510,3.904382
281.2467,3.902756
281.2577,3.903851
281.4247,3.901707
281.4299,3.902225
281.6079,3.901175
281.6131,3.901693
281.8036,3.899537
281.8139,3.900576
281.9758,3.897894
281.9861,3.898937
282.1531,3.896768
282.1583,3.897291
282.3488,3.895113
282.3598,3.896228
282.5268,3.894046
282.5320,3.894573
282.6931,3.891787
282.7093,3.893439
282.8889,3.890112
282.8999,3.891240
283.0610,3.888433
283.0772,3.890098
283.2338,3.886815
283.2442,3.887884
283.4002,3.884517
283.4164,3.886197
283.5907,3.882273
283.6069,3.883962
283.7577,3.880020
283.7791,3.882259
283.9027,3.875424
283.9461,3.880005
284.0932,3.873133
284.1094,3.874857
284.2550,3.870275
284.2764,3.872564
284.4058,3.866206
284.4375,3.869633
284.5795,3.862026
284.6119,3.865557
284.7032,3.875360
284.7361,3.858523
284.7678,3.862011
284.8863,3.854270
284.9186,3.857864
285.0554,3.849463
285.0930,3.853675
285.2010,3.844604
285.2386,3.848863
285.3460,3.839615
285.3836,3.843923
285.4916,3.834644
285.5292,3.839001
285.6601,3.829536
285.6977,3.833945
285.7999,3.823751
285.8433,3.828908
285.9403,3.817967
285.9831,3.823115
286.0927,3.810668
286.1464,3.817241
286.2331,3.804706
286.2758,3.810012
286.3780,3.799234
286.4156,3.803959
286.5252,3.790943
286.5848,3.798558
286.6656,3.784701
286.7135,3.790925
286.8002,3.777594
286.8481,3.783920
286.9290,3.769581
286.9828,3.776800
287.0768,3.760788
287.1357,3.768857
287.2004,3.751724
287.2593,3.759962
287.2916,3.737774
287.3026,3.739375
287.3350,3.744051
287.3836,3.750972
287.4446,3.729077
287.4983,3.736995
287.5197,3.740104
287.5417,3.743283
287.5630,3.718530
287.6277,3.728284
287.7028,3.711046
287.7461,3.717719
287.8395,3.699220
287.9095,3.710217
287.9631,3.688759
288.0279,3.699197
288.1036,3.680846
288.1463,3.687890
288.2455,3.669041
288.3096,3.679850
288.3639,3.656909
288.4280,3.668021
288.4927,3.646297
288.5465,3.655860
288.6221,3.635538
288.6759,3.645338
288.7641,3.622415
288.8288,3.634552
288.8987,3.612049
288.9473,3.621402
289.0223,3.599228
289.0819,3.611012
289.1804,3.588283
289.2290,3.598156
289.2988,3.573630
289.3636,3.587188
289.4283,3.560882
289.4820,3.572496
289.5754,3.546428
289.6350,3.559711
289.7048,3.532843
289.7586,3.545221
289.8232,3.516156
289.8880,3.531598
289.9704,3.500104
290.0351,3.516117
290.0836,3.480720
290.1536,3.498761
290.1754,3.398236
290.2130,3.464875
290.2668,3.479315
290.3470,3.449715
290.3956,3.463241
290.5000,3.432669
290.5537,3.448201
290.6132,3.409943
290.6831,3.431100
290.7478,3.392906
290.7640,3.398095
290.7692,3.399742
290.8015,3.409899
290.8787,3.365936
290.9539,3.390971
290.9868,3.337423
291.0619,3.364106
291.1104,3.312971
291.1693,3.335230
291.2413,3.280340
291.3171,3.310896
291.3384,3.240345
291.4245,3.278111
291.4464,3.201836
291.5215,3.237900
291.5700,3.168068
291.6289,3.198836
291.7443,3.147164
291.7767,3.165168
291.8841,3.118589
291.9269,3.143761
292.0297,3.091776
292.0673,3.115349
292.1983,3.062739
292.2358,3.087896
292.3601,3.043930
292.3814,3.059053
292.5102,3.015398
292.5426,3.039610
292.6956,2.994356
292.7221,3.015275
292.8625,2.976635
292.8839,2.994241
293.0289,2.957592
293.0509,2.976516
293.2246,2.942987
293.2356,2.952875
293.3916,2.922989
293.4078,2.938123
293.5637,2.907167
293.5748,2.917895
293.7359,2.890747
293.7521,2.907026
293.9323,2.874352
293.9478,2.890583
294.1044,2.856617
294.1148,2.867952
294.2818,2.844077
294.2870,2.849948
294.4827,2.831144
294.4885,2.837941
294.6548,2.811511
294.6659,2.824842
294.8328,2.798398
294.8380,2.804915
295.0286,2.777166
295.0396,2.791576
295.2059,2.762065
295.2117,2.770023
295.3839,2.747344
295.3891,2.754667
295.5848,2.731123
295.5900,2.738722
295.7621,2.714300
295.7680,2.723173
295.9401,2.697834
295.9453,2.706033
296.1175,2.679643
296.1233,2.689245
296.3190,2.661750
296.3242,2.670652
296.6796,2.632164
296.6847,2.641687
296.8804,2.610894
296.8856,2.620890
297.0584,2.589894
297.0636,2.600379
297.2410,2.577488
297.2468,2.589602
297.8082,2.528884
297.8134,2.540928
298.1923,2.488154
298.1975,2.501364
298.5528,2.443255
298.5580,2.457881
298.7595,2.427643
298.9427,2.411504
298.9479,2.427219
299.1252,2.392658
299.3371,2.392140
299.5093,2.335902
299.5203,2.374598
299.6873,2.295461
299.6977,2.335378
299.8992,2.294813
300.0817,2.269989
300.8425,2.191521
##END=
