##TITLE=Furfurylalcohol
##JCAMP-DX=4.24
##DATA TYPE=UV/VIS SPECTRUM
##ORIGIN=INSTITUTE OF ENERGY PROBLEMS OF CHEMICAL PHYSICS, RAS
##OWNER=INEP CP RAS, NIST OSRD
Collection (C) 2007 copyright by the U.S. Secretary of Commerce
on behalf of the United States of America. All rights reserved.
##CAS REGISTRY NO=98-00-0
##MOLFORM=C5H6O2
##MP=-31
##BP=171
##SOURCE REFERENCE=RAS UV No. 45
##$NIST SQUIB=1948LAN/WOL2624-2626
##$NIST SOURCE=TSGMTE
##SPECTROMETER/DATA SYSTEM=Beckman DU
##XUNITS=Wavelength (nm)
##YUNITS=Logarithm epsilon
##XFACTOR=1.000000
##YFACTOR=1.000000
##FIRSTX=205.9858
##LASTX=239.1982
##FIRSTY=2.74282
##MAXX=239.198
##MINX=205.986
##MAXY=2.90659
##MINY=1.03966
##NPOINTS=152
##$REF AUTHOR=Langlois, D.P.; Wolff, H.
##$REF TITLE=Pseudo esters of levulinic acid
##$REF JOURNAL=J. Am. Chem. Soc.
##$REF VOLUME=70
##$REF PAGE=2624-2626
##$REF DATE=1948
##XYPOINTS=(XY..XY)
205.9858,2.742825
205.9858,2.742825
206.0179,2.744789
206.0501,2.746753
206.0822,2.748718
206.0822,2.748718
206.5395,2.758270
206.8697,2.765537
207.0873,2.769225
207.0873,2.769225
207.3585,2.775826
207.8409,2.785927
208.1890,2.794233
208.1890,2.794233
208.3400,2.796715
208.6621,2.803174
209.3880,2.816500
210.5361,2.840136
210.7404,2.842077
210.9509,2.844958
211.2534,2.849685
211.7340,2.857166
212.4786,2.868309
212.4786,2.868309
212.7254,2.870298
212.9413,2.872954
213.2681,2.875907
213.2681,2.875907
213.3479,2.878522
213.6710,2.882423
215.5717,2.900065
216.0662,2.902238
216.5617,2.904412
217.0593,2.906587
218.1135,2.903999
218.7254,2.901119
219.0804,2.898680
219.4829,2.894591
220.5203,2.879184
220.8707,2.873927
221.0761,2.869904
221.3126,2.863667
221.3126,2.863667
221.6488,2.857175
221.9265,2.850534
222.1329,2.846769
222.1329,2.846769
222.9036,2.826610
223.2343,2.817084
223.4086,2.810024
223.4086,2.810024
223.6632,2.803279
223.9985,2.791805
224.4946,2.775699
225.4331,2.737130
225.4938,2.735912
225.6158,2.731594
225.8834,2.720750
226.3813,2.699956
227.1939,2.665789
227.1939,2.665789
227.7156,2.641008
228.1455,2.619551
228.4892,2.601723
228.7523,2.587827
228.9403,2.578167
229.0590,2.573049
229.0590,2.573049
229.2779,2.558665
229.4957,2.544280
229.7115,2.529894
230.4316,2.463375
230.4879,2.456715
230.4879,2.456715
230.5493,2.452338
230.6307,2.443266
230.8014,2.426498
230.8014,2.426498
231.0048,2.402407
231.1441,2.384631
231.2837,2.364401
231.4879,2.332947
231.4879,2.332947
231.5205,2.331022
231.5531,2.329159
231.5857,2.327421
231.5857,2.327421
231.6145,2.318397
231.7029,2.301973
231.9264,2.264072
231.9264,2.264072
231.9947,2.254653
232.1381,2.227753
233.0560,2.062833
233.3072,2.024260
233.4848,1.996699
233.6031,1.978262
233.6762,1.967058
233.7185,1.961200
233.7440,1.958798
233.7440,1.958798
233.9916,1.920253
234.1779,1.891780
234.3166,1.870935
234.4217,1.855273
234.5068,1.842350
234.5858,1.829722
235.1612,1.751662
235.1707,1.747777
235.1792,1.743953
235.1857,1.740253
235.1857,1.740253
235.2119,1.737603
235.2461,1.732785
235.2969,1.724685
235.3723,1.712189
235.4808,1.694180
235.6307,1.669545
235.8303,1.637167
236.0879,1.595934
236.4119,1.544728
236.4119,1.544728
236.4491,1.536855
236.4949,1.528337
236.5578,1.517431
236.6459,1.502394
236.7678,1.481484
236.9316,1.452959
237.1458,1.415077
237.4187,1.366094
237.8102,1.302768
237.8759,1.295008
237.9416,1.287311
238.0072,1.279740
238.0072,1.279740
238.0583,1.267240
238.1072,1.254799
238.1552,1.242484
238.1552,1.242484
238.2230,1.235324
238.2611,1.227535
238.3010,1.222219
238.3010,1.222219
238.4139,1.199473
238.5078,1.181309
238.5932,1.165295
238.6809,1.149000
238.7814,1.129993
238.9054,1.105840
239.0636,1.074110
239.0636,1.074110
239.1982,1.039656
##END=
