##TITLE=Benzene, tert-butyl-
##JCAMP-DX=4.24
##DATA TYPE=UV/VIS SPECTRUM
##ORIGIN=INSTITUTE OF ENERGY PROBLEMS OF CHEMICAL PHYSICS, RAS
##OWNER=INEP CP RAS, NIST OSRD
Collection (C) 2007 copyright by the U.S. Secretary of Commerce
on behalf of the United States of America. All rights reserved.
##CAS REGISTRY NO=98-06-6
##MOLFORM=C10H14
##MP=-57.8
##BP=169.1
##SOURCE REFERENCE=RAS UV No. 565
##$NIST SQUIB=1949GRA134-145
##$NIST SOURCE=TSGMTE
##SPECTROMETER/DATA SYSTEM=n.i.g.
##XUNITS=Wavelength (nm)
##YUNITS=Logarithm epsilon
##XFACTOR=1.000000
##YFACTOR=1.000000
##FIRSTX=272.7114
##LASTX=219.6660
##FIRSTY=0.677068
##MAXX=272.711
##MINX=219.666
##MAXY=2.21726
##MINY=0.677068
##NPOINTS=368
##$REF AUTHOR=Grammaticakis, P.
##$REF TITLE=Contribution a l'etude de l'absorption dans l'ultraviolet moyen des anilines orthosubstituees. I. Orthoalcoylanilines N substituees
##$REF JOURNAL=Bull. Soc. Chim. Fr.
##$REF VOLUME=16
##$REF PAGE=134-145
##$REF DATE=1949
##XYPOINTS=(XY..XY)
272.7114,0.677068
272.6348,0.702801
272.5666,0.724399
272.4857,0.747653
272.3712,0.778332
272.2023,0.822227
271.9584,0.885107
271.9584,0.885107
271.9041,0.886226
271.8425,0.887488
271.7773,0.888831
271.7773,0.888831
271.7555,0.710210
271.7552,0.707843
271.7549,0.705479
271.7546,0.703119
271.6041,0.920593
271.5210,0.939594
271.4567,0.962123
271.4567,0.962123
271.4026,0.963240
271.3413,0.964505
271.2763,0.965846
271.2763,0.965846
271.2566,0.979116
271.2296,0.992536
271.1990,1.006034
271.1990,1.006034
270.7674,1.086232
270.3982,1.155066
270.0862,1.213470
269.8259,1.262397
269.6124,1.302785
269.4404,1.335582
269.3051,1.361734
269.2014,1.382183
269.1244,1.397874
269.0693,1.409751
269.0312,1.418760
269.0053,1.425845
268.9866,1.431950
268.9704,1.438022
268.9704,1.438022
268.9173,1.439137
268.8571,1.440404
268.7933,1.441745
268.7933,1.441745
268.7162,1.471463
268.6391,1.501183
268.5621,1.530901
268.5621,1.530901
268.3406,1.567159
268.1525,1.603099
267.9648,1.639672
267.7445,1.677829
267.7445,1.677829
267.7251,1.688735
267.6985,1.699792
267.6684,1.710924
267.6684,1.710924
267.6158,1.712040
267.5561,1.713306
267.4930,1.714647
267.4930,1.714647
267.3961,1.746431
267.2815,1.777090
267.1849,1.808872
267.1849,1.808872
267.1325,1.809988
267.0730,1.811255
267.0100,1.812596
267.0100,1.812596
266.8652,1.843474
266.7245,1.869635
266.5047,1.905360
266.1234,1.964931
266.1234,1.964931
266.0141,1.976429
265.9048,1.988003
265.7957,1.999728
265.7957,1.999728
265.6825,2.030074
265.6025,2.045485
265.4875,2.059173
265.4875,2.059173
265.3608,2.067259
265.2761,2.074967
265.1608,2.088905
265.1608,2.088905
264.9242,2.098160
264.7990,2.104557
264.6778,2.113581
264.6778,2.113581
264.5484,2.116977
264.4123,2.120449
264.2728,2.124070
264.2728,2.124070
264.1949,2.129240
264.1135,2.134559
264.0253,2.139954
264.0253,2.139954
263.8392,2.145042
263.6534,2.150204
263.4679,2.155517
263.4679,2.155517
263.4076,2.160710
263.3437,2.163953
263.2215,2.168024
263.2215,2.168024
262.6589,2.178960
262.1022,2.190722
261.0780,2.213389
261.0780,2.213389
260.8190,2.214517
260.5572,2.215794
260.2893,2.217147
260.2893,2.217147
259.6397,2.217184
258.9901,2.217220
258.3370,2.217257
258.3370,2.217257
257.9500,2.216166
257.5641,2.214925
257.1793,2.213609
257.1793,2.213609
256.1230,2.205290
255.3602,2.200031
254.8211,2.196186
254.8211,2.196186
254.5750,2.193186
254.2748,2.190115
253.9240,2.185771
253.9240,2.185771
253.5361,2.183217
253.3053,2.180955
253.0334,2.177044
253.0334,2.177044
252.7226,2.169146
252.4950,2.162594
252.2901,2.157841
252.2901,2.157841
252.1721,2.156823
252.0479,2.155729
251.9207,2.154486
251.9207,2.154486
251.6306,2.148563
251.2470,2.141220
250.8176,2.131929
250.8176,2.131929
250.5828,2.128817
250.3172,2.124280
249.7944,2.114432
249.7944,2.114432
249.7518,2.111633
249.7061,2.108684
249.6542,2.105661
249.6542,2.105661
249.5840,2.104640
249.5108,2.103544
249.4313,2.102298
249.4313,2.102298
249.3889,2.099937
249.3434,2.097576
249.2917,2.095215
249.2917,2.095215
248.5632,2.077589
248.1908,2.068945
247.8532,2.061875
247.8532,2.061875
247.8353,2.059750
247.8111,2.057475
247.7840,2.055126
247.7840,2.055126
247.3058,2.042724
246.9417,2.034292
246.5666,2.025486
246.5666,2.025486
246.5252,2.023125
246.4807,2.020764
246.4302,2.018404
246.4302,2.018404
246.3175,2.016047
246.1989,2.013691
246.0774,2.011335
246.0774,2.011335
245.9353,2.001701
245.7753,1.992069
245.5884,1.979962
245.5884,1.979962
245.2072,1.968694
244.8420,1.956298
244.6059,1.948621
244.6059,1.948621
244.4817,1.943051
244.3013,1.937110
243.9108,1.925704
243.9108,1.925704
243.8582,1.920755
243.8028,1.917607
243.6972,1.913562
243.6972,1.913562
243.5871,1.911868
243.4711,1.910100
243.3523,1.908181
243.3523,1.908181
243.3116,1.902443
243.2680,1.896706
243.2185,1.890968
243.2185,1.890968
243.1258,1.888611
243.0332,1.886253
242.9407,1.883895
242.9407,1.883895
242.8888,1.877396
242.8371,1.872847
242.7414,1.866349
242.7414,1.866349
242.3755,1.851791
242.0923,1.839553
241.6495,1.819147
241.6495,1.819147
241.4452,1.806879
241.2732,1.797236
241.1651,1.789464
241.1651,1.789464
240.9920,1.783722
240.8133,1.777906
240.6321,1.771940
240.6321,1.771940
240.6151,1.769815
240.5924,1.767540
240.5668,1.765191
240.5668,1.765191
240.4501,1.761146
240.3336,1.757102
240.2172,1.753057
240.2172,1.753057
240.1524,1.748998
240.0876,1.744862
240.0228,1.740577
240.0228,1.740577
239.8422,1.733736
239.6618,1.726744
239.4817,1.719677
239.4817,1.719677
239.4649,1.717314
239.4423,1.714952
239.4170,1.712590
239.4170,1.712590
239.3274,1.712596
239.2379,1.712602
239.1485,1.712608
239.1485,1.712608
239.1092,1.708121
239.0672,1.703484
239.0195,1.698772
239.0195,1.698772
238.7921,1.690646
238.6246,1.684091
238.4830,1.679561
238.4830,1.679561
238.1980,1.667036
238.0465,1.661181
237.8981,1.656976
237.8981,1.656976
237.8726,1.654614
237.8471,1.652252
237.8216,1.649891
237.8216,1.649891
237.2055,1.628671
236.7209,1.611796
236.0608,1.590580
236.0608,1.590580
236.0227,1.587781
235.9819,1.584832
235.9356,1.581809
235.9356,1.581809
235.7646,1.578593
235.4972,1.571783
234.9059,1.555542
234.9059,1.555542
234.5320,1.543486
234.2932,1.536374
234.1421,1.531282
234.1421,1.531282
233.9090,1.528496
233.6736,1.525562
233.4333,1.522551
233.4333,1.522551
233.3110,1.519758
233.1861,1.516816
233.0559,1.513798
233.0559,1.513798
232.5734,1.512644
232.1357,1.512237
231.3698,1.512228
231.3698,1.512228
231.1665,1.514368
230.9609,1.516660
230.7504,1.519026
230.7504,1.519026
230.5687,1.519476
230.3820,1.520077
230.1930,1.520753
230.1930,1.520753
229.8139,1.528622
229.4099,1.536492
229.1582,1.542101
229.1582,1.542101
228.9493,1.545268
228.6346,1.551593
227.9471,1.566500
227.9471,1.566500
227.3804,1.582224
226.6586,1.601786
225.6210,1.631503
225.6210,1.631503
225.2878,1.644009
225.1209,1.649449
224.9766,1.652486
224.9766,1.652486
224.9058,1.656544
224.8300,1.660601
224.7518,1.664659
224.7518,1.664659
224.5013,1.673457
224.2463,1.682255
223.9895,1.691054
223.9895,1.691054
223.7017,1.704957
223.4640,1.715706
223.1777,1.729609
223.1777,1.729609
223.0430,1.734535
222.8545,1.741490
222.6023,1.748900
222.6023,1.748900
222.5882,1.751264
222.5691,1.753630
222.5476,1.755995
222.5476,1.755995
222.3957,1.761535
222.2662,1.767147
222.1514,1.771558
222.1514,1.771558
222.0258,1.778009
221.9662,1.782128
221.9215,1.787446
221.9215,1.787446
221.7680,1.793210
221.6149,1.799050
221.4619,1.805040
221.4619,1.805040
221.4479,1.807167
221.4290,1.809445
221.4077,1.811797
221.4077,1.811797
221.2087,1.820980
220.9933,1.832490
220.6796,1.848660
220.6796,1.848660
220.4733,1.860357
220.3056,1.869199
220.1720,1.878413
220.1720,1.878413
219.9543,1.886635
219.7754,1.894777
219.6660,1.899388
##END=
