##TITLE=2-Furancarboxaldehyde
##JCAMP-DX=4.24
##DATA TYPE=UV/VIS SPECTRUM
##ORIGIN=INSTITUTE OF ENERGY PROBLEMS OF CHEMICAL PHYSICS, RAS
##OWNER=INEP CP RAS, NIST OSRD
Collection (C) 2007 copyright by the U.S. Secretary of Commerce
on behalf of the United States of America. All rights reserved.
##CAS REGISTRY NO=98-01-1
##MOLFORM=C5H4O2
##MP=-36.5
##BP=161.7
##SOURCE REFERENCE=RAS UV No. 2507
##$NIST SQUIB=1953GRA821-826
##$NIST SOURCE=TSGMTE
##SPECTROMETER/DATA SYSTEM=n.i.g.
##XUNITS=Wavelength (nm)
##YUNITS=Logarithm epsilon
##XFACTOR=1.000000
##YFACTOR=1.000000
##FIRSTX=123.3246
##LASTX=75.7505
##FIRSTY=0.409443
##MAXX=123.325
##MINX=75.7505
##MAXY=4.0809
##MINY=0.409443
##NPOINTS=654
##$REF AUTHOR=Grammaticakis, P.
##$REF TITLE=Contribution a l'etude de l'absorption dans l'U.-V. moyen et le visible de quelques aldehydes et cetones aromatiques ainsi que de certains de leurs derives fonctionnels, (Premier memoire)
##$REF JOURNAL=Bull. Soc. Chim. Fr.
##$REF VOLUME=20
##$REF PAGE=821-826
##$REF DATE=1953
##XYPOINTS=(XY..XY)
123.3246,0.409443
123.3152,0.424980
123.1561,0.430704
123.1529,0.435876
122.9946,0.440956
122.9849,0.457140
122.8072,0.462847
122.7976,0.479028
122.6401,0.484100
122.6305,0.500278
122.4734,0.505354
122.4542,0.537718
122.2785,0.542776
122.2658,0.564133
122.1093,0.569854
122.1063,0.575026
121.9506,0.580103
121.9410,0.596289
121.7664,0.601995
121.7538,0.623353
121.5990,0.628430
121.5896,0.644606
121.4352,0.649676
121.4318,0.655503
121.2778,0.660581
121.2714,0.671580
121.0990,0.676639
121.0866,0.697996
120.9335,0.703076
120.9208,0.725078
120.7681,0.730152
120.7651,0.735327
120.5971,0.735216
120.5908,0.746214
120.4389,0.751287
120.4360,0.756469
120.2841,0.762191
120.2719,0.783546
120.1053,0.783432
120.0990,0.794432
119.9484,0.799506
119.9392,0.815684
119.7889,0.820760
119.7797,0.836944
119.6116,0.842004
119.5991,0.864006
119.4527,0.863905
119.4468,0.874261
119.2978,0.879331
119.2887,0.895511
119.1397,0.901235
119.1339,0.911589
118.9705,0.911472
118.9643,0.922476
118.8165,0.927550
118.8075,0.943732
118.6601,0.948804
118.6510,0.964985
118.4889,0.964867
118.4828,0.975868
118.3362,0.980944
118.3301,0.991948
118.1839,0.997019
118.1721,1.018376
118.0080,1.024087
118.0052,1.029262
117.8597,1.034340
117.8565,1.040163
117.7115,1.045237
117.7026,1.061419
117.5579,1.066490
117.5519,1.077495
117.2460,1.087629
117.2400,1.098630
117.0965,1.103705
117.0933,1.109531
116.9326,1.114591
116.9298,1.119767
116.7811,1.135845
116.7696,1.157203
116.6268,1.162926
116.6181,1.179103
116.4587,1.184166
116.4528,1.195169
116.3112,1.200243
116.3056,1.210597
116.1640,1.216319
116.1554,1.232498
116.0000,1.232381
115.9972,1.237559
115.8595,1.237456
115.8454,1.263991
115.7049,1.269714
115.7021,1.274890
115.5651,1.274786
115.5565,1.290967
115.4000,1.296029
115.3942,1.307029
115.2551,1.312105
115.2521,1.317930
115.1133,1.323004
115.1079,1.333359
114.9553,1.333242
114.9495,1.344245
114.8116,1.349318
114.8058,1.360321
114.6709,1.360218
114.6651,1.371219
114.5110,1.376281
114.5053,1.387283
114.3711,1.387180
114.3630,1.402714
114.2261,1.408435
114.2234,1.413612
114.0731,1.413496
114.0648,1.429675
113.9289,1.434749
113.9259,1.440574
113.7930,1.440471
113.7851,1.456003
113.4981,1.466786
113.4925,1.477788
113.2238,1.487937
113.2209,1.493762
113.0732,1.493645
113.0680,1.504000
112.9341,1.509721
112.9289,1.520077
112.7983,1.519974
112.7928,1.530975
112.6463,1.530859
112.6437,1.536037
112.5111,1.541111
112.5082,1.546936
112.3786,1.546833
112.3734,1.557187
112.2441,1.557084
112.2412,1.562909
112.0936,1.567969
112.0910,1.573147
111.9594,1.578868
111.9569,1.584046
111.8260,1.589120
111.8234,1.594298
111.6794,1.594181
111.6765,1.600006
111.5488,1.599903
111.5437,1.610258
111.4163,1.610154
111.4135,1.615979
111.2705,1.615863
111.2679,1.621040
111.1412,1.620936
111.1386,1.626114
111.0093,1.631835
111.0043,1.642190
110.8624,1.642075
110.8595,1.647899
110.7337,1.647796
110.7312,1.652973
110.6031,1.658048
110.6006,1.663225
110.4754,1.663121
110.4725,1.668947
110.3320,1.668829
110.3295,1.674007
110.2024,1.679082
110.1996,1.684906
110.0752,1.684802
110.0702,1.695158
109.9307,1.695041
109.9279,1.700866
109.6758,1.711015
109.6733,1.716192
109.4119,1.715972
109.4067,1.726974
109.2817,1.732049
109.2790,1.737873
109.1414,1.737757
109.1390,1.742934
109.0170,1.742831
109.0146,1.748008
108.8929,1.747905
108.7687,1.753626
108.7639,1.763981
108.5017,1.774764
108.3811,1.774660
108.3787,1.779838
108.2410,1.784899
108.2383,1.790723
108.1184,1.790620
108.1160,1.795798
107.9963,1.795694
107.9939,1.800872
107.8596,1.800756
107.8569,1.806580
107.7378,1.806476
107.7354,1.811654
107.4781,1.822437
107.4757,1.827614
107.3575,1.827511
107.3551,1.832688
107.2371,1.832585
107.2344,1.838410
106.9798,1.848545
106.9775,1.853723
106.8603,1.853619
106.8577,1.859444
106.7384,1.864518
106.7361,1.869695
106.6049,1.869579
106.5999,1.880582
106.4836,1.880477
106.4812,1.885655
106.3651,1.885552
106.3625,1.891377
106.2299,1.896437
106.2276,1.901615
106.1120,1.901512
106.1097,1.906689
105.9918,1.912411
105.9895,1.917588
105.8745,1.917485
105.8722,1.922662
105.7405,1.928371
105.7382,1.933549
105.5047,1.944343
105.5024,1.949521
105.3719,1.954583
105.3693,1.960407
105.2556,1.960304
105.2534,1.965481
105.1399,1.965378
105.1377,1.970555
105.0103,1.970439
105.0081,1.975617
104.8952,1.975513
104.7800,1.981234
104.7777,1.986412
104.6490,1.991473
104.6372,2.018656
104.5251,2.018552
104.5229,2.023730
104.4110,2.023626
104.4085,2.029451
104.2946,2.034525
104.2902,2.044880
104.1649,2.044764
104.1602,2.055766
104.0469,2.060840
104.0421,2.071843
103.9313,2.071739
103.9291,2.076917
103.8022,2.082625
103.7953,2.098805
103.6850,2.098702
103.6805,2.109057
103.5683,2.114131
103.5658,2.119956
103.4401,2.125017
103.4354,2.136019
103.3237,2.141093
103.3168,2.157273
103.2075,2.157170
103.2053,2.162348
103.0805,2.167409
103.0712,2.189413
102.9624,2.189310
102.9581,2.199665
102.8471,2.205387
102.8403,2.221567
102.7320,2.221463
102.7298,2.226641
102.6083,2.226524
102.6015,2.242704
102.4937,2.242601
102.4781,2.280138
102.3684,2.285212
102.3596,2.306570
102.2365,2.312279
102.2276,2.333636
102.1185,2.338710
102.1073,2.365893
101.9984,2.370967
101.9896,2.392325
101.9496,2.489405
101.8673,2.398033
101.8564,2.424568
101.7502,2.424465
101.7348,2.462002
101.6265,2.467724
101.6177,2.489081
101.5120,2.488978
101.4988,2.521338
101.3780,2.526399
101.3669,2.553582
101.2596,2.558656
101.2509,2.580013
101.1439,2.585088
101.1308,2.617448
101.0109,2.622509
100.9978,2.654869
100.8910,2.660590
100.8803,2.687126
100.7740,2.692200
100.7631,2.719382
100.6440,2.724443
100.6290,2.761981
100.5229,2.767702
100.5100,2.800063
100.4045,2.805137
100.3874,2.847852
100.2690,2.853560
100.2585,2.880096
100.1535,2.885170
100.1406,2.917530
100.0356,2.923251
100.0251,2.949787
99.9226,2.949683
99.9099,2.982043
99.7928,2.987104
99.7717,3.040822
99.6674,3.046544
99.6443,3.105439
99.4241,3.116221
99.4117,3.147934
99.3105,3.147831
99.3042,3.164011
99.2009,3.169732
99.1926,3.191090
99.0773,3.196151
99.0647,3.228511
98.9622,3.233585
98.9599,3.239410
98.8576,3.244484
98.8471,3.271667
98.7346,3.271550
98.7286,3.287083
98.6265,3.292804
98.6183,3.314162
98.5167,3.319236
98.5105,3.335416
98.4091,3.340490
98.4007,3.362495
98.2872,3.367556
98.2830,3.378559
98.1840,3.378455
98.1779,3.394635
98.0772,3.399709
98.0732,3.410065
97.9624,3.409948
97.9501,3.442308
97.8497,3.448030
97.8458,3.458385
97.7477,3.458281
97.7396,3.479639
97.6296,3.479522
97.6254,3.490525
97.5278,3.490421
97.5237,3.501424
97.4244,3.506498
97.4163,3.527856
97.3051,3.532917
97.2990,3.549097
97.1999,3.554818
97.1979,3.559996
97.1012,3.559892
97.0951,3.576072
96.9967,3.581146
96.9926,3.592149
96.8842,3.592032
96.8804,3.602387
96.7821,3.608109
96.7761,3.624289
96.6783,3.629363
96.6763,3.634540
96.5665,3.640249
96.5605,3.656429
96.4632,3.661503
96.4612,3.666681
96.3660,3.666577
96.3600,3.682757
96.2511,3.687818
96.2490,3.693643
96.1541,3.693539
96.1482,3.709720
96.0517,3.714794
96.0457,3.730974
95.9494,3.736048
95.9475,3.741225
95.8393,3.746934
95.8375,3.752111
95.7434,3.752008
95.7415,3.757185
95.6455,3.762907
95.6418,3.773262
95.4390,3.784044
95.4352,3.794400
95.3420,3.794296
95.3380,3.805298
95.2333,3.805182
95.2314,3.810360
95.1386,3.810256
95.1346,3.821258
95.0401,3.826333
95.0361,3.837335
94.9303,3.842396
94.9282,3.848221
94.8340,3.853295
94.8322,3.858473
94.7383,3.863547
94.7362,3.869372
94.6424,3.874446
94.6385,3.885448
94.5354,3.885332
94.5335,3.890509
94.3468,3.901305
94.3431,3.911660
94.2406,3.911543
94.2386,3.917368
94.1458,3.922442
94.1422,3.932797
94.0514,3.932694
94.0475,3.943696
93.9457,3.943580
93.9438,3.948757
93.8514,3.954479
93.8478,3.964834
93.7576,3.964730
93.7556,3.970555
93.6543,3.970439
93.6525,3.975616
93.5609,3.980690
93.5571,3.991693
93.4657,3.996767
93.3762,3.996663
93.3724,4.007666
93.2720,4.007549
93.2702,4.012727
93.1811,4.012623
93.1793,4.017801
93.0904,4.017697
93.0884,4.023522
92.9886,4.023406
92.9868,4.028583
92.8965,4.033657
92.8945,4.039482
92.8061,4.039379
92.8044,4.044556
92.7051,4.044440
92.6154,4.049514
92.6136,4.054691
92.5258,4.054588
92.5238,4.060413
92.4361,4.060309
92.4344,4.065487
92.3342,4.070548
92.1597,4.070341
92.0599,4.076049
91.8865,4.075842
91.7875,4.080903
90.8156,4.079725
90.7328,4.074444
90.6379,4.074327
90.5557,4.068399
90.1269,4.067868
90.0367,4.057396
90.0350,4.062574
89.6952,4.056969
89.5238,4.045747
89.2678,4.045423
89.1878,4.040142
89.1079,4.034861
89.1063,4.040038
89.0285,4.028932
89.0266,4.034757
88.9371,4.028816
88.8578,4.023534
88.6861,4.023314
88.6072,4.018033
88.3564,4.017710
88.2798,4.006604
88.2782,4.011781
88.2016,4.001322
88.2000,4.006500
88.1137,3.995381
88.1120,4.001206
87.9598,3.978994
87.9580,3.984819
87.8723,3.973700
87.8707,3.978877
87.7948,3.968418
87.7174,3.963137
87.7158,3.968315
87.6288,3.963021
87.5535,3.951915
87.5519,3.957092
87.4765,3.946634
87.4749,3.951811
87.3901,3.940692
87.3119,3.940589
87.1608,3.924201
87.1590,3.930026
86.9987,3.913626
86.9227,3.908345
86.9212,3.913522
86.7617,3.897122
86.6862,3.891841
86.6846,3.897019
86.6029,3.880722
86.5996,3.891725
86.5261,3.880619
86.3681,3.864218
86.3665,3.869396
86.2932,3.858937
86.2917,3.864115
86.0616,3.837256
86.0601,3.842433
85.8314,3.814927
85.8297,3.820752
85.7589,3.804468
85.7574,3.809646
85.6868,3.793362
85.6853,3.798540
85.4584,3.771681
85.4569,3.776859
85.3775,3.760562
85.3743,3.771565
85.3058,3.750103
85.3043,3.755281
85.1615,3.733716
85.1600,3.738894
85.0796,3.727775
85.0780,3.733600
84.9359,3.712035
84.9345,3.717212
84.8560,3.700916
84.8545,3.706093
84.7132,3.684529
84.7117,3.689706
84.6336,3.673410
84.6320,3.679234
84.5632,3.662951
84.5617,3.668128
84.4931,3.651845
84.4900,3.662847
84.3424,3.635445
84.3408,3.641269
84.2725,3.624986
84.2710,3.630163
84.2014,3.619057
84.1997,3.624882
84.1226,3.608586
84.1211,3.613763
84.0546,3.592302
84.0501,3.608482
83.9839,3.586373
83.9823,3.592198
83.8348,3.570621
83.8334,3.575798
83.7659,3.559515
83.7645,3.564692
83.6865,3.554220
83.6851,3.559398
83.6193,3.537937
83.6164,3.548292
83.4806,3.521549
83.4792,3.526727
83.4034,3.510431
83.4019,3.515608
83.3350,3.499972
83.3335,3.505149
83.2654,3.494043
83.2638,3.499868
83.1870,3.488749
83.1856,3.493927
83.1191,3.477643
83.1175,3.483468
83.0498,3.472362
83.0484,3.477540
82.9733,3.461243
82.9703,3.472245
82.7591,3.439562
82.7576,3.445386
82.6904,3.434280
82.6890,3.439458
82.5534,3.423071
82.4763,3.417777
82.4749,3.422954
82.4096,3.406671
82.4080,3.412495
82.3414,3.401389
82.2633,3.401273
82.1954,3.395992
82.1277,3.390063
82.1262,3.395888
82.0514,3.384769
81.9824,3.384666
81.8476,3.374103
81.7704,3.373987
81.7035,3.368058
81.6351,3.367955
81.4929,3.357379
81.4249,3.357276
81.3501,3.351335
81.2146,3.351127
81.1400,3.345833
80.9380,3.345523
80.8639,3.340228
80.6549,3.339905
80.5898,3.333976
80.4486,3.333756
80.3836,3.328475
79.2329,3.326650
79.1673,3.331724
78.8952,3.331284
78.8300,3.337005
78.5682,3.336578
78.5037,3.341652
78.3067,3.341328
78.3055,3.346506
78.1095,3.346182
78.0378,3.351890
77.9132,3.351683
77.9119,3.356861
77.8420,3.356744
77.7787,3.361818
77.5854,3.361495
77.5224,3.367216
77.4608,3.367113
77.3904,3.372174
77.2678,3.371966
77.2666,3.377144
77.1368,3.376924
77.0746,3.381998
77.0733,3.387823
77.0048,3.387706
76.9429,3.392780
76.8822,3.392677
76.8205,3.397751
76.6921,3.397531
76.6908,3.403356
76.6305,3.403252
76.6293,3.408430
76.5605,3.413491
76.3732,3.413167
76.3121,3.418889
76.3109,3.424066
76.1917,3.423859
76.0629,3.434641
76.0036,3.434538
76.0025,3.439715
75.8179,3.439392
75.7505,3.444453
##END=
