##TITLE=Benzenamine, 3-(trifluoromethyl)-
##JCAMP-DX=4.24
##DATA TYPE=UV/VIS SPECTRUM
##ORIGIN=INSTITUTE OF ENERGY PROBLEMS OF CHEMICAL PHYSICS, RAS
##OWNER=INEP CP RAS, NIST OSRD
Collection (C) 2007 copyright by the U.S. Secretary of Commerce
on behalf of the United States of America. All rights reserved.
##CAS REGISTRY NO=98-16-8
##MOLFORM=C7H6F3N
##MP=187.5
##SOURCE REFERENCE=RAS UV No. 19741
##$NIST SQUIB=1973LAN47
##$NIST SOURCE=TYUGLMTE
##SPECTROMETER/DATA SYSTEM=Unicam SP 800 B
##XUNITS=Wavelength (nm)
##YUNITS=Logarithm epsilon
##XFACTOR=1.0
##YFACTOR=1.0
##FIRSTX=200.34
##LASTX=340.71
##FIRSTY=3.523
##MAXX=340.71
##MINX=200.34
##MAXY=3.921
##MINY=1.194
##NPOINTS=214
##$REF AUTHOR=Land (editor), L.
##$REF JOURNAL=Absorption Spectra in the Ultraviolet and Visible Region
##$REF VOLUME=18
##$REF PAGE=47
##$REF DATE=1973
##XYPOINTS=(XY..XY)
200.34,3.523
200.85,3.553
201.19,3.584
201.70,3.615
202.03,3.645
202.54,3.672
203.22,3.700
203.73,3.730
204.41,3.758
205.42,3.781
206.10,3.809
207.29,3.826
208.82,3.826
210.00,3.809
210.51,3.781
211.19,3.754
211.87,3.727
212.38,3.700
212.88,3.672
213.39,3.645
213.73,3.615
214.07,3.584
214.41,3.553
214.75,3.523
215.09,3.492
215.43,3.461
215.77,3.431
215.94,3.400
216.27,3.369
217.12,3.342
218.48,3.325
219.83,3.339
220.85,3.363
221.70,3.387
222.55,3.410
223.23,3.438
224.07,3.465
224.75,3.492
225.43,3.519
225.94,3.547
226.79,3.574
227.46,3.601
228.14,3.628
228.99,3.652
229.67,3.679
230.52,3.703
231.36,3.730
232.21,3.754
233.06,3.778
234.08,3.802
235.09,3.826
236.11,3.846
237.30,3.866
238.31,3.890
239.50,3.907
241.03,3.914
242.55,3.921
244.08,3.918
245.43,3.904
246.79,3.887
247.81,3.863
248.65,3.839
249.50,3.815
250.35,3.788
251.20,3.761
251.71,3.734
252.21,3.703
252.72,3.676
253.23,3.649
253.74,3.621
254.25,3.591
254.59,3.560
255.10,3.533
255.27,3.502
255.61,3.472
255.94,3.441
256.28,3.410
256.45,3.380
256.62,3.349
256.79,3.318
257.30,3.291
257.64,3.261
257.98,3.230
258.32,3.199
258.49,3.169
258.83,3.138
259.17,3.107
259.50,3.077
259.84,3.046
260.18,3.015
260.52,2.985
260.86,2.954
261.03,2.924
261.37,2.893
261.71,2.862
262.05,2.832
262.39,2.801
262.73,2.770
263.06,2.740
263.40,2.709
263.91,2.682
264.42,2.655
265.27,2.627
266.45,2.610
267.98,2.607
269.34,2.624
270.18,2.651
271.03,2.675
271.71,2.702
272.22,2.733
272.90,2.760
273.58,2.787
274.08,2.815
274.93,2.842
275.61,2.869
276.12,2.896
276.97,2.920
277.81,2.947
278.66,2.975
279.51,3.002
280.36,3.026
281.20,3.050
282.22,3.073
283.07,3.097
284.09,3.121
285.10,3.145
286.12,3.169
287.31,3.189
288.32,3.213
289.51,3.230
290.70,3.247
291.88,3.264
293.24,3.278
294.60,3.291
296.12,3.298
297.65,3.308
299.17,3.308
300.70,3.301
302.23,3.298
303.75,3.298
305.11,3.288
306.63,3.278
307.99,3.261
309.18,3.240
310.36,3.220
311.55,3.199
312.57,3.179
313.58,3.155
314.60,3.131
315.45,3.104
316.13,3.077
317.14,3.053
317.65,3.026
318.33,2.998
319.18,2.971
319.69,2.944
320.20,2.917
320.87,2.890
321.38,2.859
321.89,2.832
322.40,2.804
322.91,2.777
323.42,2.747
323.76,2.716
324.09,2.685
324.43,2.655
324.94,2.624
325.28,2.593
325.79,2.563
326.13,2.532
326.30,2.501
326.64,2.471
326.98,2.440
327.32,2.410
327.65,2.379
327.99,2.348
328.33,2.318
328.50,2.287
329.01,2.260
329.18,2.229
329.52,2.199
329.86,2.168
330.20,2.137
330.54,2.107
330.88,2.076
331.05,2.045
331.38,2.015
331.72,1.984
332.06,1.953
332.57,1.926
332.91,1.896
333.25,1.865
333.59,1.834
333.93,1.804
334.27,1.773
334.44,1.742
334.77,1.712
335.11,1.681
335.45,1.650
335.79,1.620
336.13,1.589
336.47,1.559
336.81,1.528
337.15,1.497
337.49,1.467
337.83,1.436
338.17,1.405
338.50,1.375
338.84,1.344
339.35,1.313
339.69,1.283
340.20,1.256
340.37,1.225
340.71,1.194
##END=
