##TITLE=Phenol, p-tert-butyl-
##JCAMP-DX=4.24
##DATA TYPE=UV/VIS SPECTRUM
##ORIGIN=INSTITUTE OF ENERGY PROBLEMS OF CHEMICAL PHYSICS, RAS
##OWNER=INEP CP RAS, NIST OSRD
Collection (C) 2007 copyright by the U.S. Secretary of Commerce
on behalf of the United States of America. All rights reserved.
##CAS REGISTRY NO=98-54-4
##MOLFORM=C10H14O
##MP=98
##BP=237
##SOURCE REFERENCE=RAS UV No. 569
##$NIST SQUIB=1948COG/LAN3283-3292
##$NIST SOURCE=TSGMTE
##SPECTROMETER/DATA SYSTEM=Beckman Spectrophotometer
##XUNITS=Wavelength (nm)
##YUNITS=Logarithm epsilon
##XFACTOR=1.000000
##YFACTOR=1.000000
##FIRSTX=220.8968
##LASTX=299.9402
##FIRSTY=3.5089
##MAXX=299.94
##MINX=220.897
##MAXY=3.51003
##MINY=1.21219
##NPOINTS=840
##$REF AUTHOR=Coggeshall, N.D.; Lang, E.M.
##$REF TITLE=Influence of solvent, hydrogen bonding, temperature and conjugation on the ultraviolet spectra of phenols and aromatic hydrocarbons
##$REF JOURNAL=J. Am. Chem. Soc.
##$REF VOLUME=70
##$REF PAGE=3283-3292
##$REF DATE=1948
##XYPOINTS=(XY..XY)
220.8968,3.508904
220.8991,3.510033
221.0012,3.507228
221.0045,3.508899
221.1153,3.505002
221.1197,3.507222
221.2174,3.502164
221.2218,3.504399
221.3195,3.499308
221.3251,3.502159
221.4336,3.497041
221.4380,3.499302
221.5357,3.494150
221.5413,3.497035
221.6486,3.491240
221.6532,3.493587
221.7519,3.488931
221.7564,3.491234
221.8541,3.485986
221.8585,3.488305
221.9670,3.483020
221.9715,3.485412
222.0691,3.480034
222.0736,3.482443
222.1809,3.476448
222.1876,3.480028
222.2842,3.474059
222.2886,3.476442
222.3841,3.469776
222.3908,3.473411
222.4982,3.467349
222.5015,3.469181
222.6014,3.464849
222.6047,3.466691
222.7013,3.460535
222.7080,3.464247
222.8153,3.457995
222.8198,3.460528
222.9163,3.454222
222.9220,3.457383
223.0282,3.450415
223.0338,3.453604
223.1315,3.447877
223.1348,3.449793
223.2313,3.443327
223.2380,3.447189
223.3420,3.438728
223.3488,3.442694
223.4442,3.435485
223.4497,3.438722
223.5560,3.431509
223.5615,3.434776
223.6570,3.427433
223.6626,3.430795
223.7569,3.422728
223.7636,3.426777
223.8688,3.418634
223.8742,3.421998
223.9664,3.412356
223.9753,3.417898
224.0697,3.409585
224.0741,3.412349
224.1792,3.403928
224.1871,3.408901
224.2803,3.399652
224.2859,3.403235
224.3898,3.393863
224.3977,3.398952
224.4898,3.388778
224.4965,3.393154
224.5897,3.383560
224.5963,3.387990
224.7003,3.378279
224.7071,3.382834
224.8003,3.373006
224.8069,3.377544
224.9098,3.366849
224.9177,3.372262
225.0086,3.360603
225.0165,3.366094
225.1052,3.352727
225.1153,3.359838
225.2136,3.345411
225.2225,3.351870
225.3113,3.338050
225.3203,3.344618
225.4198,3.330562
225.4287,3.337243
225.5175,3.322943
225.5263,3.329660
225.6151,3.315103
225.6240,3.322025
225.7236,3.307205
225.7325,3.314253
225.8213,3.299161
225.8302,3.306339
225.9145,3.287216
225.9279,3.298279
226.0240,3.279702
226.0319,3.286309
226.1207,3.270196
226.1307,3.278780
226.2280,3.260380
226.2380,3.269159
226.3257,3.251411
226.3346,3.259416
226.4211,3.240160
226.4322,3.250329
226.5296,3.230757
226.5385,3.239149
226.6272,3.221044
226.6361,3.229623
226.7346,3.210144
226.7446,3.219987
226.8334,3.201156
226.8411,3.208954
226.9311,3.190861
226.9411,3.201145
227.0395,3.180200
227.0484,3.189616
227.1361,3.168212
227.1461,3.179040
227.2434,3.155761
227.2534,3.166900
227.3411,3.144316
227.3500,3.154533
227.4421,3.136511
227.4488,3.144303
227.5550,3.129851
227.5594,3.135099
227.6527,3.117693
227.6617,3.128548
227.7538,3.109389
227.7593,3.116220
227.8633,3.098022
227.8711,3.107887
227.9609,3.084782
227.9699,3.096481
228.0750,3.078869
228.0784,3.083336
228.1727,3.065172
228.1817,3.077404
228.2693,3.049327
228.2793,3.063510
228.3811,3.039591
228.3867,3.047757
228.4788,3.024575
228.4877,3.037987
228.5873,3.009019
228.5961,3.022748
228.6871,2.996404
228.6938,3.007127
228.7870,2.983411
228.7938,2.994632
228.8988,2.972057
228.9044,2.981583
228.9954,2.952530
229.0055,2.970183
229.1050,2.936124
229.1127,2.950373
229.2060,2.923447
229.2115,2.933885
229.3070,2.910176
229.3126,2.921142
229.4188,2.896705
229.4244,2.908012
229.5210,2.885299
229.5254,2.894474
229.6220,2.870789
229.6276,2.882781
229.7350,2.858670
229.7394,2.868418
229.8382,2.848426
229.8415,2.855992
229.9511,2.835404
229.9556,2.845930
230.0544,2.824850
230.0588,2.835378
230.1565,2.811092
230.1610,2.822216
230.2706,2.799919
230.2739,2.808371
230.3750,2.791272
230.3771,2.796853
230.4879,2.776386
230.4923,2.788141
230.5923,2.767253
230.5944,2.773148
230.6944,2.751507
230.6988,2.763946
230.8095,2.741826
230.8117,2.748075
230.9117,2.725113
230.9161,2.738319
231.0161,2.714821
231.0183,2.721798
231.1312,2.704276
231.1335,2.711422
231.2344,2.689586
231.2378,2.700451
231.3485,2.674744
231.3518,2.685982
231.4540,2.666925
231.4562,2.674708
231.5573,2.651278
231.5606,2.663132
231.6724,2.639048
231.6758,2.651236
231.7768,2.626468
231.7790,2.634600
231.8920,2.613508
231.8941,2.621884
231.9952,2.595330
231.9997,2.613465
232.1006,2.585925
232.1029,2.595286
232.2158,2.571675
232.2181,2.581345
232.3191,2.552104
232.3224,2.566947
232.4353,2.541698
232.4376,2.552050
232.5397,2.525898
232.5420,2.536629
232.6452,2.514842
232.6464,2.520641
232.7604,2.498009
232.7626,2.509443
232.8659,2.486776
232.8681,2.497954
232.9714,2.474662
232.9725,2.480445
233.0865,2.456163
233.0887,2.468146
233.1920,2.443151
233.1943,2.456102
233.3082,2.429732
233.3105,2.443083
233.4138,2.416557
233.4160,2.429667
233.5193,2.402283
233.5215,2.416490
233.6366,2.394574
233.6378,2.402207
233.7422,2.380269
233.7443,2.394504
233.8595,2.372156
233.8607,2.380190
234.0716,2.348525
234.0728,2.357004
234.1890,2.340584
234.1901,2.348440
234.4119,2.315110
234.4130,2.323436
234.5184,2.305677
234.5196,2.315026
234.6251,2.296913
234.6262,2.305592
234.8491,2.277911
234.9557,2.268561
234.9568,2.277819
235.0731,2.258996
235.0742,2.268458
235.1797,2.248247
235.1809,2.258901
235.2971,2.238219
235.4048,2.238118
235.5103,2.216407
235.5115,2.227861
235.6288,2.216291
235.7354,2.205498
235.8528,2.194419
235.8539,2.205379
235.9606,2.194308
236.1845,2.170099
236.2911,2.156869
236.2923,2.169981
236.3988,2.156748
236.5162,2.144334
236.6229,2.131568
236.6240,2.144210
236.7414,2.131427
236.8479,2.116945
236.9556,2.116812
237.0731,2.103184
237.2982,2.088972
237.2993,2.102896
237.4059,2.088831
237.5125,2.072829
237.6310,2.072667
237.7376,2.057570
237.9639,2.057250
238.0705,2.041598
238.2967,2.041266
238.4033,2.023373
238.5218,2.023192
238.6284,2.006237
238.8546,2.005878
238.9612,1.986431
239.4136,1.985678
239.5203,1.967161
240.3067,1.965791
240.4133,1.946386
242.4278,1.942696
242.5474,1.961865
244.6696,1.958114
244.7892,1.976628
246.1250,1.974349
246.2447,1.993962
246.6863,1.993240
246.8059,2.010343
247.2476,2.009647
247.2488,2.027940
247.9167,2.026929
247.9178,2.042952
248.4779,2.042134
248.5975,2.057448
249.0392,2.056823
249.1589,2.073107
249.3743,2.072813
249.4939,2.087100
249.8279,2.086659
249.8289,2.100656
250.2814,2.100077
250.2826,2.114990
250.6165,2.114576
250.7253,2.127585
251.0593,2.127184
251.1788,2.139814
251.3943,2.139562
251.5140,2.153064
251.6217,2.152942
251.6228,2.164985
251.9567,2.164617
251.9579,2.177500
252.3026,2.177131
252.4115,2.188417
252.6377,2.188181
252.8662,2.210981
253.0816,2.210767
253.2012,2.221212
253.4166,2.221003
253.4177,2.231320
253.6439,2.231106
253.7636,2.242074
254.0976,2.241766
254.0987,2.251606
254.2064,2.251509
254.3260,2.261029
254.4337,2.260933
254.4349,2.271284
254.6611,2.271089
254.7699,2.280203
254.9961,2.280011
255.2246,2.298557
255.3323,2.298470
255.4411,2.307032
255.5596,2.306938
255.5608,2.316260
255.7871,2.316084
255.8959,2.324309
256.0036,2.324226
256.0047,2.332381
256.1232,2.332292
256.2321,2.341011
256.3506,2.340924
256.4594,2.348696
256.5671,2.348618
256.6867,2.356247
256.7944,2.356171
256.7956,2.364503
256.9033,2.364428
257.0229,2.371787
257.1306,2.371713
257.1317,2.379030
257.2502,2.378950
257.3591,2.386789
257.4668,2.386718
257.5864,2.393711
257.6941,2.393641
257.6953,2.401291
257.8138,2.401215
258.0314,2.414656
258.1499,2.414582
258.2588,2.421809
258.3773,2.421736
258.3784,2.428263
258.4861,2.428198
258.4872,2.434630
258.5949,2.434566
258.7146,2.441464
258.8224,2.441401
258.8234,2.447641
258.9312,2.447579
259.0507,2.453664
259.0519,2.460334
259.1596,2.460274
259.2792,2.466185
259.3869,2.466125
259.3881,2.472608
259.4959,2.472549
259.4969,2.478360
259.6154,2.478297
259.6165,2.484032
259.7242,2.483975
259.7254,2.490198
259.8439,2.490136
259.9527,2.495663
259.9538,2.501174
260.0615,2.501120
260.0627,2.507104
260.1812,2.507044
260.1823,2.512414
260.2900,2.512361
261.8784,2.582922
261.8795,2.587436
261.9872,2.587391
261.9895,2.596720
262.0972,2.596676
262.0984,2.601485
262.2169,2.601437
262.2180,2.605763
262.3257,2.605720
262.3268,2.610004
262.4345,2.609962
262.4357,2.614626
262.5542,2.614580
262.5553,2.618778
262.6641,2.622894
262.6653,2.627422
262.7838,2.627377
262.7848,2.631454
262.8926,2.631413
262.8937,2.635452
263.0014,2.635412
263.0026,2.639813
263.1211,2.639769
263.1232,2.647658
263.2309,2.647619
263.2321,2.651898
263.3506,2.651855
263.3517,2.655709
263.4594,2.655671
263.4606,2.659872
263.5683,2.659834
263.5694,2.663618
263.6890,2.667328
263.6902,2.671419
263.7979,2.671382
263.7990,2.675067
263.9175,2.675027
263.9186,2.678681
264.0263,2.678645
264.0275,2.682630
264.1363,2.686186
264.1374,2.689748
264.3658,2.697062
264.3670,2.700883
264.4758,2.704293
264.4769,2.707710
264.5954,2.707673
264.5966,2.711402
264.7043,2.711368
264.7054,2.714731
264.8250,2.718031
264.9327,2.717997
264.9339,2.721639
265.0416,2.721606
265.0427,2.724890
265.1623,2.728114
265.1634,2.731672
265.3918,2.738001
265.3930,2.741480
265.5018,2.744586
265.5041,2.751104
265.6129,2.754143
265.6151,2.760519
265.7336,2.760486
265.7359,2.766771
265.8436,2.766741
265.8447,2.769703
265.9535,2.772615
265.9547,2.775828
266.0732,2.775795
266.0743,2.778696
266.1832,2.781836
266.1853,2.787538
266.3038,2.787507
266.3061,2.793415
266.4138,2.793387
266.4149,2.796173
266.5238,2.799189
266.5249,2.801938
266.6434,2.801908
266.6457,2.807625
266.9829,2.815846
266.9840,2.818492
267.0917,2.818466
267.0929,2.821358
267.2114,2.821329
267.2125,2.823941
267.3202,2.823915
267.3213,2.826512
267.7783,2.837148
267.7794,2.839667
267.8871,2.839642
268.2244,2.847285
268.3429,2.847258
268.3441,2.849965
268.5595,2.849916
268.5606,2.852362
268.6791,2.852335
268.6802,2.854768
268.9064,2.854717
268.9076,2.857379
269.0164,2.859760
269.0175,2.862152
269.2437,2.862101
269.3526,2.864694
269.5788,2.864644
269.6876,2.866986
269.8061,2.866960
269.8072,2.869313
269.9149,2.869289
270.0238,2.871840
270.1423,2.871814
270.1434,2.874141
270.2511,2.874117
270.3708,2.876637
270.8113,2.873997
270.8125,2.876543
271.1453,2.873925
271.2650,2.876446
271.4912,2.876397
271.6000,2.878676
271.7077,2.878653
271.7100,2.883449
271.8285,2.883424
271.8306,2.887944
272.0483,2.892594
272.0494,2.894812
272.1679,2.894788
272.1702,2.899410
272.2779,2.899388
272.2790,2.901572
272.3987,2.903938
272.3997,2.906099
272.5075,2.906077
272.5087,2.908442
272.6164,2.908421
272.6175,2.910560
272.8459,2.914974
272.8470,2.917081
272.9655,2.917058
272.9666,2.919155
273.0743,2.919134
273.0755,2.921429
273.1843,2.923484
273.1854,2.925551
273.3039,2.925528
273.3051,2.927790
273.4128,2.927769
273.4151,2.932055
273.5228,2.932035
273.5239,2.934061
273.6424,2.934038
273.6434,2.936055
273.7512,2.936035
273.7524,2.938243
273.9807,2.942187
273.9819,2.944364
274.0896,2.944344
274.0907,2.946314
274.2103,2.948253
274.2115,2.950400
274.3192,2.950380
274.3203,2.952323
274.4388,2.952301
274.4399,2.954235
274.5476,2.954216
274.5488,2.956334
274.6565,2.956314
274.6576,2.958231
274.7761,2.958209
274.7783,2.962206
274.8861,2.962187
274.8894,2.968021
275.0079,2.968001
275.0135,2.977615
275.1223,2.979421
275.1268,2.987002
275.2356,2.988770
275.2412,2.997940
275.3608,2.999662
275.3642,3.005017
275.4731,3.006884
275.4775,3.013836
275.5852,3.013820
275.5886,3.019003
275.7081,3.020644
275.7093,3.022462
275.8181,3.024092
276.1510,3.022395
276.1521,3.024041
276.2683,3.020558
276.2695,3.022376
276.3750,3.018882
276.3760,3.020542
276.4879,3.010130
276.4924,3.017198
276.5934,3.006706
276.5945,3.008413
276.6933,2.994022
276.7000,3.004804
276.8062,2.984749
276.8107,2.992239
276.9083,2.975275
276.9128,2.982929
277.0213,2.965776
277.0257,2.973413
277.1222,2.953755
277.1279,2.963685
277.2245,2.943769
277.2289,2.951799
277.3363,2.931315
277.3418,2.941568
277.4372,2.918286
277.4428,2.929051
277.5395,2.907440
277.5439,2.916163
277.6524,2.896094
277.6568,2.905046
277.7545,2.884445
277.7589,2.893638
277.8674,2.872474
277.8719,2.882148
277.9707,2.862793
277.9740,2.870114
278.0739,2.852647
278.0772,2.860141
278.1880,2.842507
278.1913,2.850175
278.2934,2.837208
278.2957,2.842482
278.4075,2.826696
278.4109,2.834647
278.5130,2.821200
278.5153,2.826670
278.6174,2.812971
278.6196,2.818545
278.7336,2.807294
278.7348,2.810261
278.8380,2.798794
278.8403,2.804552
278.9435,2.792931
278.9447,2.795998
279.0598,2.787269
279.0609,2.790094
279.1653,2.781247
279.1664,2.784111
279.2815,2.775137
279.2827,2.778331
279.3870,2.768943
279.3882,2.772183
279.4914,2.759650
279.4936,2.765947
279.6088,2.756586
279.6099,2.759617
279.7142,2.750120
279.7154,2.753503
279.8317,2.746987
279.9394,2.746956
280.0460,2.743804
280.2723,2.743738
280.2733,2.746860
280.3918,2.746826
280.3941,2.753310
280.5029,2.756333
280.5052,2.762678
280.6140,2.765637
280.6185,2.777973
280.7381,2.780827
280.7437,2.795533
280.8514,2.795506
280.8581,2.812415
280.9669,2.815055
280.9702,2.823219
281.0899,2.826051
281.0954,2.839074
281.2043,2.841807
281.2099,2.854615
281.3295,2.857009
281.3351,2.869383
281.4428,2.869360
281.4484,2.881391
281.5572,2.883645
281.5650,2.899690
281.6847,2.902066
281.6914,2.915352
281.8002,2.917436
281.8069,2.930470
281.9265,2.932481
281.9355,2.949002
282.0443,2.950931
282.0576,2.974396
282.1665,2.976399
282.1822,3.002204
282.3007,3.002185
282.3017,3.003910
282.6357,3.003857
282.7390,2.996724
282.7423,3.002115
282.8541,2.991246
282.8575,2.996705
282.9563,2.981914
282.9607,2.989274
283.0595,2.974224
283.0629,2.980082
283.1725,2.964702
283.1769,2.972357
283.2746,2.954775
283.2790,2.962606
283.3842,2.938455
283.3919,2.952629
283.4863,2.927902
283.4908,2.936429
283.5863,2.912863
283.5929,2.925827
283.7002,2.903832
283.7036,2.910498
283.7979,2.883172
283.8069,2.901637
283.9064,2.861478
283.9154,2.880868
284.0075,2.846383
284.0130,2.858818
284.1029,2.817200
284.1040,2.819838
284.1084,2.830487
284.1140,2.843628
284.2181,2.808891
284.2202,2.814251
284.2236,2.822430
284.2258,2.827885
284.3190,2.791533
284.3246,2.805887
284.4178,2.767561
284.4257,2.788689
284.5275,2.742499
284.5352,2.764552
284.6284,2.722205
284.6340,2.738997
284.7391,2.697791
284.7458,2.718864
284.8390,2.671555
284.8458,2.694259
284.9400,2.647951
284.9457,2.667802
285.0508,2.618828
285.0575,2.643983
285.1507,2.587166
285.1573,2.614166
285.2602,2.548120
285.2681,2.582599
285.3613,2.516467
285.3669,2.543126
285.4634,2.488007
285.4679,2.511094
285.5752,2.451446
285.5808,2.482262
285.6762,2.411529
285.6829,2.451385
285.7881,2.367560
285.7937,2.404668
285.8925,2.343750
285.8946,2.359211
285.9968,2.318558
285.9990,2.334926
286.1120,2.291806
286.1142,2.309193
286.2175,2.272676
286.2185,2.281848
286.3219,2.242848
286.3240,2.262264
286.4381,2.221367
286.4392,2.231675
286.5436,2.198780
286.5447,2.210702
286.6599,2.176100
286.6621,2.198659
286.7664,2.163055
286.7676,2.175984
286.8720,2.138388
286.8731,2.150835
286.9893,2.124127
286.9905,2.138249
287.2122,2.081362
287.2133,2.095528
287.3189,2.066570
287.3199,2.081218
287.4254,2.049709
287.4266,2.066421
287.5428,2.033761
287.5439,2.049539
287.8734,1.980293
287.9801,1.961540
287.9812,1.980112
288.0974,1.939930
288.0986,1.961331
288.2040,1.919306
288.3106,1.895450
288.3118,1.919097
288.4291,1.895207
288.6532,1.848063
288.7597,1.819812
288.7609,1.847816
288.8674,1.819550
288.9848,1.792098
289.0926,1.791818
289.2100,1.762493
289.3165,1.727840
289.3177,1.762194
289.5417,1.693322
289.5428,1.727156
289.7561,1.655860
289.7571,1.692618
289.9823,1.655054
290.0996,1.610113
290.2073,1.609686
290.3140,1.564309
290.5391,1.513046
290.5402,1.563314
290.9916,1.510801
291.0981,1.446855
291.4321,1.444927
291.5495,1.376829
291.7649,1.375367
291.8822,1.285359
291.9900,1.284458
299.9402,1.212188
##END=
