##TITLE=5-acetyl-6-hydroxy-4(1H)-pyrimidinone
##JCAMP-DX=4.24
##DATA TYPE=UV/VIS SPECTRUM
##ORIGIN=INSTITUTE OF ENERGY PROBLEMS OF CHEMICAL PHYSICS, RAS
##OWNER=INEP CP RAS, NIST OSRD
Collection (C) 2007 copyright by the U.S. Secretary of Commerce
on behalf of the United States of America. All rights reserved.
##CAS REGISTRY NO=98792-81-5
##MOLFORM=C6H6N2O3
##MP=300
##SOURCE REFERENCE=RAS UV No. 22200
##$NIST SQUIB=1985MIK/378
##$NIST SOURCE=TYUGLMTE
##SPECTROMETER/DATA SYSTEM=Specord UV-Vis
##XUNITS=Wavelength (nm)
##YUNITS=Logarithm epsilon
##XFACTOR=1.0
##YFACTOR=1.0
##FIRSTX=199.435
##LASTX=321.33
##FIRSTY=3.482
##MAXX=321.33
##MINX=199.435
##MAXY=3.804
##MINY=2.935
##NPOINTS=88
##$REF AUTHOR=Mikhaleva, M.A.; et al.
##$REF JOURNAL=Khim. Geterosikl. Soedin.
##$REF PAGE=378
##$REF DATE=1985
##XYPOINTS=(XY..XY)
199.435,3.482
199.945,3.505
200.710,3.527
201.220,3.550
201.985,3.573
202.750,3.596
203.260,3.619
204.025,3.642
204.791,3.662
205.556,3.685
206.321,3.708
207.341,3.728
208.361,3.748
209.636,3.769
211.421,3.784
213.206,3.799
215.501,3.804
217.796,3.802
219.836,3.792
221.366,3.776
222.641,3.759
223.661,3.738
224.681,3.718
225.701,3.698
226.466,3.677
227.231,3.657
227.996,3.634
229.016,3.614
229.526,3.591
230.036,3.568
230.801,3.548
231.566,3.527
232.076,3.505
233.097,3.484
233.607,3.461
234.372,3.438
235.137,3.418
235.902,3.395
236.667,3.372
237.687,3.352
238.452,3.332
239.982,3.314
241.512,3.296
243.552,3.286
245.592,3.273
247.632,3.266
249.927,3.258
252.222,3.250
254.262,3.240
256.302,3.233
258.342,3.220
260.383,3.207
262.678,3.200
264.718,3.189
267.013,3.182
269.053,3.189
271.093,3.197
273.133,3.205
275.173,3.215
277.468,3.220
279.763,3.228
282.058,3.235
284.353,3.240
286.393,3.248
288.689,3.253
290.984,3.258
293.024,3.266
295.319,3.266
297.614,3.268
299.909,3.268
302.204,3.261
304.244,3.250
305.774,3.235
307.049,3.217
308.579,3.200
309.344,3.179
310.364,3.159
311.639,3.139
312.404,3.118
313.424,3.098
314.444,3.078
315.464,3.057
316.485,3.037
317.505,3.017
318.525,2.996
319.290,2.976
320.565,2.956
321.330,2.935
##END=
