##TITLE=.alpha.-Methylstyrene
##JCAMP-DX=4.24
##DATA TYPE=UV/VIS SPECTRUM
##ORIGIN=INSTITUTE OF ENERGY PROBLEMS OF CHEMICAL PHYSICS, RAS
##OWNER=INEP CP RAS, NIST OSRD
Collection (C) 2007 copyright by the U.S. Secretary of Commerce
on behalf of the United States of America. All rights reserved.
##CAS REGISTRY NO=98-83-9
##MOLFORM=C9H10
##MP=-23.2
##BP=165.4
##SOURCE REFERENCE=RAS UV No. 4639
##$NIST SQUIB=1957BEA/JOH651-658
##$NIST SOURCE=TSGMTE
##SPECTROMETER/DATA SYSTEM=Unicam SP 500
##XUNITS=Wavelength (nm)
##YUNITS=Logarithm epsilon
##XFACTOR=1.000000
##YFACTOR=1.000000
##FIRSTX=212.0614
##LASTX=291.2024
##FIRSTY=4.12168
##MAXX=291.202
##MINX=212.061
##MAXY=4.12168
##MINY=1.84382
##NPOINTS=464
##$REF AUTHOR=Beaven, G.H.; Johnson, E.A.
##$REF TITLE=The relation between configuration and conjugation in diphenyl derivatives. Part VIII. Some compounds derived from 2:2'-di-acetyldiphenyl
##$REF JOURNAL=J. Chem. Soc.
##$REF PAGE=651-658
##$REF DATE=1957
##XYPOINTS=(XY..XY)
212.0614,4.121683
212.0665,4.117860
212.2775,4.114153
212.2832,4.109949
212.4755,4.106232
212.4863,4.098205
212.6973,4.094498
212.7081,4.086471
212.9004,4.082754
213.1251,4.054955
213.1411,4.043106
213.3469,4.043222
213.3521,4.039399
213.5392,4.039504
213.5500,4.031477
213.7610,4.027771
213.7718,4.019744
213.9590,4.019849
213.9749,4.007999
214.1672,4.004282
214.1729,4.000078
214.3839,3.996371
214.3890,3.992548
214.5762,3.992654
214.5818,3.988449
214.7741,3.984732
214.9800,3.984847
215.1728,3.980748
215.9263,4.005271
215.9423,3.993421
215.9588,3.981189
216.1351,3.989322
216.1402,3.985499
216.3461,3.985615
216.9422,3.974091
216.9530,3.966064
217.1401,3.966170
217.1509,3.958143
217.3432,3.954425
217.3540,3.946398
217.5650,3.942692
217.5867,3.926638
217.7789,3.922920
217.7898,3.914893
218.0008,3.911187
218.0383,3.883283
218.4229,3.875849
218.4656,3.844123
218.6766,3.840416
218.7091,3.816335
218.9333,3.788919
219.1448,3.784830
219.2086,3.737433
219.4009,3.733715
219.4225,3.717661
219.6148,3.713944
219.6308,3.702095
219.8418,3.698388
219.8526,3.690361
220.0454,3.686262
220.0557,3.678617
220.2615,3.678733
220.2723,3.670706
220.4646,3.666988
220.4754,3.658961
220.6626,3.659066
220.6677,3.655244
220.8736,3.655360
221.0664,3.651260
221.2535,3.651365
221.6465,3.651586
222.0287,3.659834
222.4217,3.660055
222.7987,3.672125
222.8039,3.668303
222.9807,3.676052
222.9858,3.672230
223.1622,3.680362
223.1678,3.676158
223.3577,3.688123
223.3680,3.680478
223.5341,3.696255
223.5449,3.688228
223.7343,3.700575
223.7399,3.696370
223.9054,3.712530
223.9162,3.704503
224.0874,3.716457
224.0926,3.712635
224.2881,3.720395
224.2933,3.716573
224.4645,3.728527
224.4696,3.724705
224.6465,3.732455
224.6516,3.728632
224.8466,3.736775
224.8523,3.732571
225.0235,3.744525
225.0338,3.736880
225.5820,3.760905
225.5871,3.757083
225.7770,3.769048
225.7879,3.761021
225.9590,3.772975
225.9642,3.769153
226.1541,3.781118
226.1649,3.773091
226.3361,3.785045
226.3412,3.781223
226.5181,3.788973
226.5232,3.785150
226.7182,3.793293
226.7239,3.789089
226.9002,3.797221
226.9054,3.793398
227.0766,3.805353
227.0874,3.797326
227.2773,3.809291
227.2824,3.805468
227.4588,3.813601
227.4644,3.809396
227.6646,3.813716
227.8414,3.821466
227.8466,3.817644
228.0229,3.825776
228.0286,3.821571
228.4000,3.837846
228.4056,3.833642
228.6007,3.841784
228.6058,3.837962
228.7770,3.849916
228.7821,3.846094
228.9590,3.853844
228.9641,3.850021
229.3360,3.865914
229.3412,3.862092
230.4587,3.894469
230.6537,3.902612
230.6594,3.898407
230.8357,3.906539
230.8409,3.902717
231.0308,3.914682
231.0364,3.910478
231.2128,3.918610
231.2179,3.914787
231.3999,3.918715
231.9828,3.930901
232.1648,3.934828
232.1699,3.931006
232.3519,3.934933
232.5521,3.939254
234.0627,3.971852
234.0683,3.967647
234.2446,3.975780
234.4505,3.975895
235.1967,3.991998
235.5840,3.996424
235.5897,3.992219
235.7711,3.996529
236.5360,4.012642
236.7231,4.012747
236.9233,4.017067
237.1105,4.017173
237.4932,4.025038
238.0733,4.025364
238.2548,4.029674
238.6426,4.033717
238.6478,4.029895
238.8433,4.037655
238.8485,4.033833
239.2176,4.037865
239.4178,4.042186
239.6049,4.042291
240.9602,4.051085
243.4866,4.052505
243.6794,4.048405
245.4385,4.049394
245.6308,4.045676
246.0238,4.045897
246.0295,4.041693
246.6096,4.042018
246.6148,4.038196
247.0077,4.038417
247.0129,4.034595
247.2000,4.034700
247.4115,4.030611
247.5987,4.030716
247.6038,4.026893
247.7910,4.026999
248.1948,4.019192
248.5878,4.019413
248.7801,4.015696
248.9859,4.015812
249.3710,4.007995
249.5768,4.008111
249.5820,4.004288
249.7691,4.004393
249.9806,4.000304
250.1678,4.000409
250.1729,3.996587
250.3601,3.996692
250.9749,3.985179
251.1620,3.985284
251.3543,3.981567
252.5652,3.958531
252.9503,3.950714
253.1561,3.950830
253.1618,3.946625
253.3489,3.946730
253.3541,3.942908
253.5599,3.943024
253.5651,3.939201
253.7522,3.939306
253.7579,3.935102
254.5650,3.919872
254.5701,3.916049
255.1667,3.904143
255.9711,3.877053
255.9762,3.873231
256.1877,3.869142
256.1929,3.865320
256.3852,3.861602
256.3960,3.853575
256.5888,3.849476
256.5939,3.845654
256.8049,3.841947
256.8157,3.833920
257.0080,3.830203
257.0137,3.825998
257.2247,3.822291
257.2355,3.814264
258.2457,3.787290
258.2513,3.783085
258.4436,3.779368
258.4488,3.775546
258.6416,3.771446
258.6524,3.763419
258.8634,3.759712
258.8685,3.755890
259.0613,3.751790
259.0716,3.744146
259.2644,3.740046
259.2696,3.736224
259.4806,3.732517
259.4914,3.724490
259.6785,3.724595
259.6837,3.720773
260.2803,3.708867
260.2906,3.701222
260.5021,3.697133
260.5072,3.693311
260.6995,3.689594
260.7155,3.677744
261.1193,3.669938
261.1301,3.661911
261.3172,3.662016
261.3280,3.653989
261.5339,3.654105
261.5499,3.642256
262.1459,3.630732
262.1727,3.610856
262.3331,3.630837
262.3542,3.615166
262.3650,3.607139
262.3701,3.603316
262.5817,3.599227
262.7688,3.599332
262.9611,3.595615
262.9770,3.583766
263.1880,3.580059
263.1989,3.572032
263.3917,3.567933
263.4019,3.560288
263.6135,3.556199
263.6238,3.548554
264.0088,3.540737
264.0248,3.528888
264.2363,3.524799
264.2466,3.517154
264.6504,3.509348
264.6556,3.505526
264.8427,3.505631
264.8587,3.493781
265.0515,3.489682
265.0618,3.482037
265.2733,3.477948
265.2841,3.469921
265.4764,3.466204
265.4975,3.450532
266.1311,3.411105
266.1363,3.407283
266.3478,3.403194
266.3638,3.391345
266.5561,3.387627
266.5828,3.367751
266.7751,3.364034
266.7859,3.356007
266.9969,3.352300
267.2324,3.316475
267.2484,3.304625
267.4594,3.300919
267.4862,3.281042
267.6785,3.277325
267.6841,3.273120
267.8764,3.269403
267.8975,3.253731
268.1090,3.249642
268.1193,3.241998
268.3548,3.206172
268.5658,3.202466
268.5926,3.182589
268.7849,3.178872
268.8117,3.158996
269.0040,3.155278
269.0256,3.139224
269.2366,3.135518
269.4773,3.095870
269.6695,3.092153
269.6752,3.087948
269.8862,3.084241
269.9073,3.068570
270.1001,3.064470
270.1212,3.048798
270.3271,3.048914
270.3322,3.045092
270.5250,3.040992
270.5569,3.017293
270.7600,3.005549
270.7816,2.989495
270.9926,2.985788
271.0405,2.950240
271.2328,2.946523
271.2436,2.938496
271.6845,2.903169
271.8773,2.899069
271.8932,2.887220
272.1042,2.883513
272.1310,2.863637
272.3233,2.859919
272.3398,2.847688
272.9678,2.812466
273.1788,2.808759
273.1839,2.804936
273.3767,2.800837
273.3978,2.785165
273.5906,2.781066
273.6066,2.769216
273.8176,2.765510
274.4513,2.726083
274.4775,2.706589
274.6703,2.702489
274.6755,2.698667
274.8870,2.694578
274.9132,2.675084
275.1060,2.670984
275.1163,2.663339
275.7232,2.643789
275.7392,2.631940
275.9450,2.632055
275.9558,2.624028
276.1481,2.620311
276.1646,2.608079
276.3756,2.604373
276.3807,2.600550
276.5679,2.600655
276.5787,2.592628
276.7658,2.592734
276.7766,2.584707
277.7925,2.553527
277.7976,2.549705
278.0086,2.545998
278.0143,2.541794
278.2066,2.538076
278.2117,2.534254
278.4045,2.530155
278.4097,2.526332
278.6155,2.526448
278.6207,2.522625
278.8135,2.518526
278.8186,2.514704
279.0245,2.514819
279.0302,2.510615
279.2224,2.506897
279.2276,2.503075
279.4147,2.503180
279.4204,2.498976
279.8237,2.491552
279.8396,2.479702
280.2434,2.471896
280.2486,2.468074
280.4357,2.468179
280.4465,2.460152
280.6524,2.460267
280.6580,2.456063
280.8503,2.452346
280.8611,2.444319
281.6950,2.409212
282.0801,2.401395
282.0904,2.393750
282.3019,2.389662
282.3122,2.382017
282.5050,2.377917
282.5210,2.366068
282.7320,2.362361
282.7428,2.354334
282.9351,2.350617
283.1598,2.322819
283.1757,2.310969
283.3867,2.307263
283.4083,2.291209
283.6006,2.287491
283.6223,2.271437
283.8094,2.271542
283.8305,2.255871
284.0415,2.252164
284.0472,2.247959
284.4880,2.212632
284.6803,2.208915
284.6860,2.204710
284.8783,2.200993
284.8891,2.192966
285.1001,2.189259
285.1109,2.181232
285.2980,2.181337
285.3140,2.169488
285.5198,2.169604
285.5306,2.161577
285.7178,2.161682
285.7337,2.149832
285.9209,2.149937
285.9312,2.142293
286.1427,2.138204
286.1530,2.130559
286.5727,2.110903
286.5887,2.099054
286.7758,2.099159
286.7918,2.087310
286.9846,2.083210
287.0057,2.067538
287.2172,2.063450
287.2224,2.059627
287.4147,2.055910
287.4306,2.044061
288.2434,2.024626
288.4362,2.020526
288.6233,2.020631
288.6285,2.016809
289.2273,2.017146
289.2324,2.013323
289.6067,2.013533
289.6175,2.005507
289.8234,2.005622
289.8393,1.993773
290.0316,1.990055
290.0481,1.977824
290.2962,1.946596
290.3018,1.942391
290.4941,1.938674
290.5420,1.903126
290.7348,1.899026
290.7451,1.891382
290.9566,1.887293
290.9777,1.871621
291.2024,1.843822
##END=
