##TITLE=Acetophenone
##JCAMP-DX=4.24
##DATA TYPE=UV/VIS SPECTRUM
##ORIGIN=INSTITUTE OF ENERGY PROBLEMS OF CHEMICAL PHYSICS, RAS
##OWNER=INEP CP RAS, NIST OSRD
Collection (C) 2007 copyright by the U.S. Secretary of Commerce
on behalf of the United States of America. All rights reserved.
##CAS REGISTRY NO=98-86-2
##MOLFORM=C8H8O
##MP=20
##BP=202
##SOURCE REFERENCE=RAS UV No. 7310
##$NIST SQUIB=1965CLA/TIN11-15
##$NIST SOURCE=TSGMTE
##SPECTROMETER/DATA SYSTEM=n.i.g.
##XUNITS=Wavelength (nm)
##YUNITS=Logarithm epsilon
##XFACTOR=1.000000
##YFACTOR=1.000000
##FIRSTX=179.4400
##LASTX=244.3611
##FIRSTY=4.25085
##MAXX=244.361
##MINX=179.44
##MAXY=4.59949
##MINY=3.49574
##NPOINTS=181
##$REF AUTHOR=Clark, L.B.; Tinoco, I., Jr.
##$REF TITLE=Correlations in the ultraviolet spectra of the purine and pyrimidine bases
##$REF JOURNAL=J. Am. Chem. Soc.
##$REF VOLUME=87
##$REF NUMBER=1
##$REF PAGE=11-15
##$REF DATE=1965
##XYPOINTS=(XY..XY)
179.4400,4.250854
179.7036,4.264019
179.9534,4.276794
180.1898,4.289203
180.4133,4.301265
180.6244,4.313000
180.8237,4.324426
181.0116,4.335560
181.1885,4.346414
181.3550,4.357005
181.5115,4.367344
181.6586,4.377444
181.7968,4.387316
181.9264,4.396970
182.0480,4.406415
182.1622,4.415662
182.2693,4.424719
182.3699,4.433593
182.4644,4.442292
182.5534,4.450823
182.6373,4.459193
182.7166,4.467408
182.7918,4.475475
182.8634,4.483398
182.9318,4.491183
182.9977,4.498835
183.0614,4.506359
183.1234,4.513759
183.1842,4.521039
183.2444,4.528205
183.3044,4.535259
183.3646,4.542205
183.4256,4.549047
183.4879,4.555788
183.4879,4.555788
184.1121,4.561390
184.6336,4.570316
185.0510,4.580362
185.3628,4.589485
185.5675,4.595805
185.5675,4.595805
185.9227,4.597523
186.3223,4.598479
187.1088,4.599492
187.1088,4.599492
187.4809,4.596807
187.7407,4.593925
188.2795,4.590822
188.2795,4.590822
189.2149,4.595042
190.0670,4.597838
191.3427,4.598802
191.3427,4.598802
191.4832,4.596587
191.6237,4.594360
191.7642,4.592122
191.7642,4.592122
191.8353,4.585846
191.9064,4.579477
191.9775,4.573012
192.0486,4.566449
192.1197,4.559784
192.1908,4.553014
192.2619,4.546135
192.3330,4.539146
192.4041,4.532041
192.4752,4.524817
192.5463,4.517470
192.6174,4.509996
192.6885,4.502390
192.7596,4.494649
192.8306,4.486766
192.9017,4.478737
192.9728,4.470556
193.0439,4.462218
193.1150,4.453717
193.1861,4.445045
193.2572,4.436197
193.3282,4.427165
193.3282,4.427165
193.8747,4.417525
194.6156,4.408251
195.4665,4.399017
196.3435,4.389465
197.1622,4.379208
197.1622,4.379208
197.3275,4.368799
197.4990,4.358109
197.6760,4.347126
197.8577,4.335836
198.0436,4.324223
198.2331,4.312271
198.4253,4.299964
198.6197,4.287280
198.8156,4.274201
199.0123,4.260702
199.2092,4.246759
199.4057,4.232345
199.6010,4.217430
199.7944,4.201979
199.9854,4.185957
200.1733,4.169322
200.3573,4.152027
200.5369,4.134023
200.7114,4.115251
200.8801,4.095645
201.0423,4.075130
201.0423,4.075130
201.6351,4.056801
201.8149,4.032518
202.0258,4.006252
202.7118,3.982971
202.7118,3.982971
202.9433,3.964394
203.2053,3.943312
203.5051,3.919986
203.8500,3.894726
204.2472,3.867931
204.7040,3.840118
205.2278,3.811963
205.8259,3.784340
206.5054,3.758350
207.2737,3.735330
208.1382,3.716810
212.7028,3.717720
212.7028,3.717720
213.6891,3.749739
214.6414,3.780635
215.5616,3.810409
216.4516,3.839073
217.3130,3.866648
218.1478,3.893160
218.9577,3.918639
219.7446,3.943116
220.5102,3.966624
221.2565,3.989196
221.9851,4.010863
222.6980,4.031656
223.3969,4.051606
224.0836,4.070740
224.7600,4.089086
225.4278,4.106669
226.0889,4.123514
226.7451,4.139642
227.3982,4.155075
228.0500,4.169831
228.7024,4.183930
228.7024,4.183930
230.0210,4.191496
231.0515,4.193197
231.8533,4.189984
232.4860,4.182645
233.0090,4.171886
233.4818,4.158399
233.9638,4.142914
234.5146,4.126249
234.5146,4.126249
235.1581,4.118643
235.8063,4.110775
236.4637,4.102697
236.4637,4.102697
238.1790,4.094650
239.0764,4.088911
239.9250,4.080556
239.9250,4.080556
240.4426,4.059183
240.7832,4.035286
240.9949,4.008955
241.1258,3.980307
241.2240,3.949507
241.3376,3.916792
241.3376,3.916792
241.5224,3.885571
241.6981,3.851413
241.8847,3.814039
242.1023,3.773106
242.3712,3.728191
242.7114,3.678768
243.1430,3.624169
243.6862,3.563535
244.3611,3.495737
##END=
