##TITLE=Benzene, nitro-
##JCAMP-DX=4.24
##DATA TYPE=UV/VIS SPECTRUM
##ORIGIN=INSTITUTE OF ENERGY PROBLEMS OF CHEMICAL PHYSICS, RAS
##OWNER=INEP CP RAS, NIST OSRD
Collection (C) 2007 copyright by the U.S. Secretary of Commerce
on behalf of the United States of America. All rights reserved.
##CAS REGISTRY NO=98-95-3
##MOLFORM=C6H5NO2
##MP=5.7
##BP=210.8
##SOURCE REFERENCE=RAS UV No. 90
##$NIST SQUIB=1950GRA158-166
##$NIST SOURCE=TSGMTE
##SPECTROMETER/DATA SYSTEM=n.i.g.
##XUNITS=Wavelength (nm)
##YUNITS=Logarithm epsilon
##XFACTOR=1.000000
##YFACTOR=1.000000
##FIRSTX=408.0040
##LASTX=232.3818
##FIRSTY=0.747738
##MAXX=408.004
##MINX=232.382
##MAXY=3.84865
##MINY=0.747738
##NPOINTS=200
##$REF AUTHOR=Grammaticakis, P.
##$REF TITLE=Contribution a l'etude de l'absorption dans l'ultraviolet moyen des anilines ortho-substituees. III. Orthonitro- et orthocarboxy- anilines N-substituees
##$REF JOURNAL=Bull. Soc. Chim. Fr.
##$REF VOLUME=17
##$REF PAGE=158-166
##$REF DATE=1950
##XYPOINTS=(XY..XY)
408.0040,0.747738
407.7785,0.759267
407.4803,0.767341
406.8550,0.778874
404.5764,0.836121
404.1553,0.858808
403.7230,0.872349
402.9109,0.888348
400.7291,0.950613
400.2240,0.965065
399.4044,0.979517
398.5184,0.997316
397.6305,1.062469
397.6305,1.055699
397.4222,1.065109
397.4222,1.038997
396.9023,1.097899
396.9023,1.080677
396.9023,1.089234
396.9023,1.106789
393.4028,1.182115
392.7916,1.196698
392.1824,1.211390
391.5750,1.226306
388.9646,1.289078
388.8132,1.302656
388.6509,1.316344
388.4666,1.330257
386.8815,1.387504
386.2267,1.410102
385.5523,1.432700
384.8694,1.455297
383.6042,1.489445
383.2794,1.498167
382.9443,1.516711
382.1066,1.541168
382.1066,1.541168
382.0442,1.547195
381.9605,1.553221
381.8661,1.559247
378.3896,1.637586
377.9165,1.653153
377.4342,1.668720
376.9323,1.684288
374.7442,1.749570
373.8668,1.767648
372.9935,1.785726
372.1243,1.803805
370.2172,1.858541
369.3027,1.876638
368.3727,1.894846
367.4375,1.913278
363.5629,1.970525
361.6338,1.992826
360.8755,2.003632
360.6245,2.012206
356.0121,2.056397
354.8032,2.070979
353.5934,2.085672
352.3736,2.103750
352.3736,2.100588
352.3736,2.100588
352.3736,2.107135
352.3736,2.110631
349.4112,2.126701
348.8488,2.131741
348.2881,2.136893
347.7293,2.142268
342.4311,2.199516
340.5818,2.212721
339.6625,2.220793
338.8742,2.230650
334.7983,2.264296
334.2042,2.271810
333.6610,2.275195
332.7057,2.277352
326.9337,2.342635
326.1502,2.351823
325.3548,2.361234
324.5556,2.370757
321.8700,2.415450
321.2226,2.426516
320.5777,2.437694
319.9354,2.449095
317.4914,2.490776
317.3906,2.500968
317.2824,2.511383
317.1596,2.521910
316.1351,2.542499
316.0266,2.546014
315.9035,2.549530
315.7732,2.553045
313.2627,2.612803
312.8739,2.624000
312.4789,2.635420
312.0706,2.646951
310.2516,2.701688
309.8726,2.711898
309.3752,2.730144
308.7677,2.745377
307.1423,2.800113
306.6812,2.810268
306.3521,2.820423
305.8728,2.839283
303.0014,2.920132
302.3193,2.939698
301.9137,2.954801
301.4360,2.969345
299.2951,3.037138
298.8823,3.050846
298.4707,3.064776
298.0602,3.078819
296.2558,3.135564
296.2108,3.144138
295.8962,3.154944
295.0458,3.177244
292.6835,3.240016
292.4860,3.248571
292.2887,3.257238
292.0917,3.266129
290.6368,3.315342
290.2671,3.328398
289.8860,3.341455
289.4998,3.354511
287.4972,3.398702
287.0339,3.413284
286.5660,3.427977
286.0876,3.442893
284.6917,3.484573
284.5780,3.495900
284.4051,3.502540
284.0254,3.510184
284.0254,3.510184
283.7863,3.511839
283.5476,3.513718
283.3094,3.515708
283.3094,3.515708
283.2290,3.522385
283.1429,3.529285
283.0451,3.536297
281.0003,3.586012
280.4280,3.600594
279.8522,3.615287
279.2674,3.630203
276.9983,3.684940
276.3861,3.696453
275.8380,3.708746
275.3142,3.718586
274.1450,3.752231
273.3866,3.762870
272.3821,3.774066
271.4714,3.786379
268.3500,3.817513
267.6626,3.822554
266.9735,3.827705
266.2775,3.833081
262.6811,3.848648
261.9035,3.848648
261.1204,3.848648
260.3370,3.848648
257.8151,3.833081
257.5954,3.828915
257.1822,3.825530
256.2258,3.820024
256.0096,3.817513
255.8584,3.817513
255.7075,3.817513
255.5567,3.817513
252.6835,3.791400
252.2843,3.786899
251.8863,3.782510
251.4896,3.778344
251.1565,3.775833
250.9480,3.775833
250.7353,3.775833
250.5137,3.775833
248.3808,3.744698
246.8153,3.722305
246.1404,3.710849
245.7653,3.700507
245.4671,3.697494
245.3281,3.697494
245.1893,3.697494
245.0507,3.697494
243.4189,3.656316
243.2823,3.656316
243.1458,3.656316
243.0095,3.656316
243.0095,3.656316
242.3309,3.640395
241.6603,3.624698
241.0020,3.609112
235.1920,3.452937
234.9606,3.443414
234.7377,3.434003
234.5193,3.424815
233.1139,3.375100
232.8640,3.363699
232.6187,3.352521
232.3818,3.341455
##END=
