##TITLE=Nicotinamide
##JCAMP-DX=4.24
##DATA TYPE=UV/VIS SPECTRUM
##ORIGIN=INSTITUTE OF ENERGY PROBLEMS OF CHEMICAL PHYSICS, RAS
##OWNER=INEP CP RAS, NIST OSRD
Collection (C) 2007 copyright by the U.S. Secretary of Commerce
on behalf of the United States of America. All rights reserved.
##CAS REGISTRY NO=98-92-0
##MOLFORM=C6H6N2O
##MP=130
##BP=157(0.0005)
##SOURCE REFERENCE=RAS UV No. 8658
##$NIST SQUIB=1966BAR/SZO280B
##$NIST SOURCE=TSGMTE
##SPECTROMETER/DATA SYSTEM=Beckman DU
##XUNITS=Wavelength (nm)
##YUNITS=Logarithm epsilon
##XFACTOR=1.000000
##YFACTOR=1.000000
##FIRSTX=201.7976
##LASTX=300.3496
##FIRSTY=3.85035
##MAXX=300.35
##MINX=201.798
##MAXY=3.90467
##MINY=0.662758
##NPOINTS=353
##$REF AUTHOR=Bartecki, A.; Szoke, J.; Varsanyi, G.; Vizesy, M.
##$REF TITLE=Absorption spectra in the ultraviolet and visible region. Volume 3
##$REF PAGE=280
##$REF DATE=1966
##$REF PUBLISHER=Academic Press
##$REF LOCATION=New York
##XYPOINTS=(XY..XY)
201.7976,3.850351
202.1000,3.850351
202.3015,3.847277
202.6038,3.847277
202.8053,3.843177
203.3092,3.843177
203.4603,3.840102
205.6269,3.843177
205.8284,3.843177
205.9796,3.847277
206.1307,3.847277
206.3322,3.850351
206.6346,3.850351
206.8361,3.853426
211.5218,3.891349
211.6730,3.891349
211.8745,3.894424
212.0257,3.894424
212.8822,3.898524
213.0334,3.901599
214.0411,3.901599
214.1922,3.904674
214.8976,3.904674
215.0488,3.901599
215.9053,3.901599
216.0564,3.898524
217.7191,3.891349
217.9207,3.891349
218.0718,3.888275
218.2230,3.888275
218.4245,3.884175
218.5757,3.884175
218.7268,3.881100
218.9284,3.881100
219.2307,3.873925
219.4322,3.873925
219.7345,3.867776
219.9360,3.867776
220.0872,3.863676
220.2383,3.860601
220.2383,3.863676
220.4399,3.857526
220.4399,3.860601
223.6141,3.799104
223.6141,3.802179
223.9668,3.788854
223.9668,3.791929
224.1179,3.785780
224.1179,3.788854
224.2691,3.781680
224.2691,3.785780
224.6218,3.771430
224.6218,3.775530
224.7729,3.768355
224.7729,3.771430
231.6756,3.539791
231.6756,3.542866
231.8268,3.532617
231.8268,3.535691
232.0283,3.525442
232.0283,3.529542
232.1795,3.525442
232.1795,3.519292
232.3306,3.512118
232.3306,3.519292
232.5322,3.509043
232.5322,3.512118
232.6833,3.501868
232.6833,3.504943
234.8498,3.430121
234.8498,3.433196
235.2025,3.419872
235.2025,3.422947
235.3537,3.416797
235.3537,3.419872
235.5552,3.409622
235.5552,3.412697
235.7064,3.406548
235.7064,3.409622
235.8575,3.399373
235.8575,3.402448
236.0591,3.396298
236.0591,3.399373
236.3614,3.386049
236.3614,3.389123
236.5629,3.381949
240.0898,3.304053
240.2410,3.299953
240.2410,3.304053
240.3921,3.299953
240.5937,3.296878
240.7448,3.293803
240.7448,3.296878
240.8960,3.293803
241.2487,3.286628
241.3998,3.286628
241.6013,3.283554
241.7525,3.283554
241.9037,3.279454
243.4152,3.273304
244.1206,3.273304
244.2717,3.269204
244.4229,3.269204
245.4306,3.269204
245.6321,3.273304
246.6398,3.273304
246.9421,3.279454
247.2948,3.279454
247.4459,3.283554
247.7986,3.283554
247.7986,3.286628
248.1513,3.286628
249.9652,3.310202
250.3179,3.317377
250.4690,3.317377
250.6705,3.320452
250.8217,3.320452
250.8217,3.324552
250.9729,3.324552
251.1744,3.327626
251.3255,3.327626
253.8448,3.361450
253.9959,3.361450
255.8601,3.389123
256.0113,3.389123
256.2128,3.392198
256.3640,3.392198
256.3640,3.396298
256.7167,3.396298
256.8678,3.399373
257.2205,3.399373
257.2205,3.402448
257.5228,3.402448
263.2667,3.422947
263.5690,3.422947
263.5690,3.419872
263.9217,3.419872
263.9217,3.416797
264.2743,3.416797
265.4332,3.399373
265.5843,3.396298
265.7859,3.392198
265.7859,3.396298
265.9370,3.392198
266.0882,3.386049
266.0882,3.389123
266.2897,3.381949
266.2897,3.386049
266.4409,3.378874
266.4409,3.381949
266.5920,3.375799
266.5920,3.378874
266.7936,3.371699
266.7936,3.375799
269.4639,3.299953
269.4639,3.304053
269.6151,3.293803
269.6151,3.299953
269.8166,3.289703
269.8166,3.286628
269.9678,3.279454
269.9678,3.286628
270.1189,3.276379
270.1189,3.279454
270.3205,3.266129
270.3205,3.273304
270.4716,3.258955
270.4716,3.266129
270.6228,3.252805
270.6228,3.258955
270.8243,3.252805
270.8243,3.245630
270.9755,3.242555
270.9755,3.245630
274.8551,2.976068
275.0062,2.971968
275.0062,2.958644
275.1574,2.955569
275.1574,2.948395
278.3820,2.613236
278.5331,2.592737
278.5331,2.613236
278.6843,2.576337
278.6843,2.592737
278.8858,2.551739
278.8858,2.572237
279.0370,2.535339
279.0370,2.548664
280.6997,2.353923
280.6997,2.364172
280.9012,2.336499
280.9012,2.350848
281.0524,2.323175
281.0524,2.336499
281.2035,2.305750
281.2035,2.323175
281.4051,2.289351
281.4051,2.302675
281.5562,2.271927
281.5562,2.285251
281.7074,2.261677
281.7074,2.268852
282.0600,2.220679
282.2112,2.200180
282.2112,2.217604
282.4127,2.186856
282.4127,2.197105
282.5639,2.186856
282.5639,2.172507
285.9396,1.872196
286.0908,1.854772
286.0908,1.869121
286.2420,1.838372
286.2420,1.851697
286.7458,1.797375
286.7458,1.803524
286.9473,1.783026
286.9473,1.793275
287.0985,1.769701
287.0985,1.779951
287.2496,1.756377
287.2496,1.766626
287.4512,1.742027
287.4512,1.752277
287.6023,1.728703
287.6023,1.738952
287.7535,1.718454
287.7535,1.725628
287.9550,1.715378
287.9550,1.697954
288.1062,1.694880
288.2573,1.660031
288.2573,1.667205
288.4589,1.643632
288.4589,1.656956
288.6100,1.639532
288.6100,1.633383
288.7612,1.619033
288.7612,1.629282
288.9627,1.605709
288.9627,1.615958
289.1139,1.588284
289.1139,1.602634
289.2650,1.574960
289.2650,1.585210
289.4666,1.564711
289.4666,1.571886
289.6177,1.561636
289.9704,1.516538
289.9704,1.523713
290.1216,1.503213
290.1216,1.513463
290.2727,1.489890
290.2727,1.503213
290.4742,1.472465
290.4742,1.485790
290.6254,1.472465
290.6254,1.462215
290.7766,1.444791
290.7766,1.459141
290.9781,1.431467
290.9781,1.444791
291.1292,1.418142
291.1292,1.428392
291.2804,1.410968
291.2804,1.418142
291.4819,1.407894
291.7842,1.359720
291.7842,1.369971
291.9858,1.356645
291.9858,1.349472
292.1369,1.332046
292.1369,1.346396
292.2881,1.315647
292.2881,1.328973
292.4896,1.301299
292.4896,1.315647
292.6408,1.284900
292.6408,1.298224
292.7919,1.270551
292.7919,1.280799
292.9935,1.264400
292.9935,1.267474
293.4973,1.223402
293.4973,1.209054
293.6485,1.205978
293.6485,1.195728
293.7996,1.175231
293.7996,1.192654
294.0012,1.172153
294.0012,1.154731
294.1523,1.144481
294.1523,1.154731
294.3035,1.127056
294.3035,1.141406
294.5050,1.116807
294.5050,1.123982
294.6562,1.113733
294.8073,1.075810
295.0088,1.062484
295.0088,1.072735
295.1600,1.041985
295.1600,1.059408
295.3112,1.031736
295.3112,1.041985
295.5127,1.018413
295.5127,1.028661
295.6638,1.004063
295.6638,1.014310
295.8150,1.000989
295.8150,0.987662
296.0165,0.970240
296.0165,0.983563
296.1677,0.959990
296.1677,0.967164
296.6715,0.905666
296.6715,0.915917
296.8227,0.891320
296.8227,0.901567
297.0242,0.874916
297.0242,0.888241
297.1754,0.857495
297.1754,0.870819
297.3265,0.844173
297.3265,0.854421
297.5281,0.826748
297.5281,0.840068
297.6792,0.813421
297.6792,0.823670
297.8304,0.806248
297.8304,0.809324
298.6869,0.751925
298.6869,0.762176
298.8381,0.737574
298.8381,0.747823
299.0396,0.731428
299.0396,0.737574
299.1908,0.721176
299.1908,0.727330
299.3419,0.721176
299.3419,0.714003
299.5434,0.703756
299.5434,0.710929
299.6946,0.693498
299.6946,0.700678
299.8458,0.686323
299.8458,0.690426
300.0473,0.680181
300.0473,0.686323
300.1984,0.669930
300.1984,0.676081
300.3496,0.662758
300.3496,0.669930
##END=
