##TITLE=3-Nitroaniline
##JCAMP-DX=4.24
##DATA TYPE=UV/VIS SPECTRUM
##ORIGIN=INSTITUTE OF ENERGY PROBLEMS OF CHEMICAL PHYSICS, RAS
##OWNER=INEP CP RAS, NIST OSRD
Collection (C) 2007 copyright by the U.S. Secretary of Commerce
on behalf of the United States of America. All rights reserved.
##CAS REGISTRY NO=99-09-2
##MOLFORM=C6H6N2O2
##MP=114
##BP=306 dec
##SOURCE REFERENCE=RAS UV No. 137
##$NIST SQUIB=1951GRA220-226
##$NIST SOURCE=TSGMTE
##SPECTROMETER/DATA SYSTEM=n.i.g.
##XUNITS=Wavelength (nm)
##YUNITS=Logarithm epsilon
##XFACTOR=1.000000
##YFACTOR=1.000000
##FIRSTX=432.4187
##LASTX=311.2986
##FIRSTY=0.768216
##MAXX=432.419
##MINX=311.299
##MAXY=3.94084
##MINY=0.768216
##NPOINTS=242
##$REF AUTHOR=Grammaticakis, P.
##$REF TITLE=Contribution a l'etude de l'absorption dans l'ultraviolet moyen et le visible des arylamines isomeres et de leurs derives N substitues (Premier memoire)
##$REF JOURNAL=Bull. Soc. Chim. Fr.
##$REF VOLUME=18
##$REF PAGE=220-226
##$REF DATE=1951
##XYPOINTS=(XY..XY)
432.4187,0.768216
432.1192,0.814328
431.8201,0.860446
431.5213,0.906583
431.2230,0.952749
430.9251,0.998952
430.6275,1.045202
430.3303,1.091509
430.3303,1.091509
429.9400,1.131715
429.5488,1.171943
429.1571,1.212196
428.7649,1.252465
428.3724,1.292750
427.9798,1.333050
427.5871,1.373363
427.1946,1.413684
426.8024,1.454011
426.4106,1.494344
426.0194,1.534678
426.0194,1.534678
424.9433,1.621268
424.0782,1.693211
423.3983,1.751127
422.8786,1.795637
422.4947,1.827361
422.2226,1.846918
422.0388,1.854931
422.0388,1.854931
421.4298,1.915391
420.8088,1.976083
420.1828,2.036889
420.1828,2.036889
418.8905,2.129420
417.8893,2.200076
417.1308,2.252629
416.5680,2.290851
416.1550,2.318513
415.8468,2.339385
415.5988,2.357242
415.3666,2.375853
415.3666,2.375853
414.8051,2.399572
413.9319,2.445411
412.9629,2.492513
412.9629,2.492513
412.7229,2.509801
412.2351,2.535092
411.3654,2.585173
411.3654,2.585173
410.8711,2.599446
410.3384,2.623986
409.3133,2.679830
409.0135,2.693426
408.9162,2.706697
408.8123,2.720201
408.6956,2.733818
408.6956,2.733818
407.9440,2.755498
406.7342,2.797419
405.2467,2.849423
403.6588,2.901353
403.6588,2.901353
402.4274,2.929074
401.1971,2.957027
399.9619,2.985094
399.9619,2.985094
399.8734,2.991379
399.7789,2.997663
399.6721,3.003944
399.6721,3.003944
398.6755,3.013984
396.9220,3.035052
394.5186,3.062615
393.6763,3.073446
391.2717,3.072855
388.8962,3.072264
386.5494,3.071672
386.5494,3.071672
385.0240,3.050108
384.2640,3.041466
383.6114,3.038340
383.6114,3.038340
383.1661,3.028241
382.7331,3.018144
382.3067,3.008049
382.3067,3.008049
381.9537,3.006926
381.6068,3.005921
381.2717,3.005152
381.2717,3.005152
381.1833,2.996740
381.1061,2.988448
381.0345,2.980391
381.0345,2.980391
380.7604,2.977322
380.4921,2.974488
380.2353,2.971774
380.2353,2.971774
379.9739,2.960125
379.2793,2.940186
377.5661,2.894870
377.5661,2.894870
377.3516,2.882882
377.1427,2.871129
376.9449,2.859495
376.9449,2.859495
376.2686,2.839345
375.6002,2.819196
374.9450,2.799051
374.9450,2.799051
374.5310,2.795669
374.0143,2.784902
372.9554,2.757522
372.9554,2.757522
372.7866,2.757476
372.6180,2.757430
372.4495,2.757384
372.4495,2.757384
372.4048,2.752797
372.3655,2.748446
372.3367,2.744215
372.3367,2.744215
371.6353,2.722165
370.6896,2.696428
368.7014,2.644941
368.7014,2.644941
367.4102,2.602013
366.1332,2.559086
364.8753,2.516163
364.8753,2.516163
364.1942,2.479903
363.7117,2.457830
363.0146,2.431023
363.0146,2.431023
362.8690,2.415468
362.6662,2.402818
362.4449,2.387241
362.4449,2.387241
362.0607,2.370073
361.4289,2.335972
360.6236,2.290347
359.7185,2.238604
358.7860,2.186151
357.8972,2.138395
357.8972,2.138395
357.3739,2.120898
356.8521,2.103401
356.3319,2.085904
356.3319,2.085904
355.7163,2.071706
355.1589,2.061730
354.1843,2.047423
353.8378,2.044691
352.2238,2.058019
351.4679,2.066235
350.9136,2.076381
350.9136,2.076381
350.4122,2.114570
350.0366,2.149877
349.7597,2.168516
349.7597,2.168516
349.3626,2.228808
349.0684,2.263790
348.8264,2.298554
348.8264,2.298554
348.6107,2.316015
348.2140,2.357181
347.7098,2.412572
347.1711,2.472704
346.6699,2.528095
346.2776,2.569262
346.0650,2.586722
346.0650,2.586722
345.0962,2.701270
344.6842,2.744873
344.4725,2.754907
344.4725,2.754907
344.4384,2.770156
344.3950,2.785518
344.3470,2.801112
344.3470,2.801112
343.7028,2.849682
343.2708,2.886875
342.6804,2.944569
342.6804,2.944569
342.5517,2.945579
342.4140,2.946585
342.2720,2.947590
342.2720,2.947590
342.2655,2.960882
342.2590,2.974407
342.2524,2.988049
342.2524,2.988049
341.9816,3.003863
341.7843,3.017365
341.5850,3.026195
341.5850,3.026195
341.2332,3.077114
340.9056,3.116480
340.6998,3.145725
340.1653,3.170250
340.0190,3.193402
339.8266,3.210701
339.6147,3.232080
339.6147,3.232080
339.0699,3.266858
338.1549,3.332225
337.2762,3.386860
337.2762,3.386860
336.6921,3.403229
336.1209,3.414930
335.4113,3.429854
335.4113,3.429854
334.4491,3.440623
333.4070,3.450663
331.9944,3.466529
331.9944,3.466529
331.5888,3.475070
330.9254,3.485857
330.1909,3.501641
330.1909,3.501641
329.8308,3.504143
329.4714,3.506646
329.1129,3.509148
329.1129,3.509148
327.4626,3.537152
326.2656,3.558098
325.1657,3.578394
323.8172,3.604449
321.8869,3.642674
321.8869,3.642674
318.9959,3.720517
316.7170,3.782916
314.9622,3.831662
313.6523,3.868543
312.7144,3.895347
312.0801,3.913865
311.6842,3.925884
311.4634,3.933195
311.3554,3.937585
311.2986,3.940845
##END=
