##TITLE=Benzoic acid, 3-methyl-
##JCAMP-DX=4.24
##DATA TYPE=UV/VIS SPECTRUM
##ORIGIN=INSTITUTE OF ENERGY PROBLEMS OF CHEMICAL PHYSICS, RAS
##OWNER=INEP CP RAS, NIST OSRD
Collection (C) 2007 copyright by the U.S. Secretary of Commerce
on behalf of the United States of America. All rights reserved.
##CAS REGISTRY NO=99-04-7
##MOLFORM=C8H8O2
##MP=110-111
##SOURCE REFERENCE=RAS UV No. 19062
##$NIST SQUIB=1969LAN63
##$NIST SOURCE=TYUGLMTE
##SPECTROMETER/DATA SYSTEM=Unicam SP 700
##XUNITS=Wavelength (nm)
##YUNITS=Logarithm epsilon
##XFACTOR=1.0
##YFACTOR=1.0
##FIRSTX=208.77
##LASTX=302.98
##FIRSTY=3.874
##MAXX=302.98
##MINX=208.77
##MAXY=4.014
##MINY=1.759
##NPOINTS=117
##$REF AUTHOR=Lang (editor), L.
##$REF JOURNAL=Absorption Spectra in the Ultraviolet and Visible Region
##$REF VOLUME=12
##$REF PAGE=63
##$REF DATE=1969
##XYPOINTS=(XY..XY)
208.77,3.874
208.82,3.864
208.92,3.848
209.16,3.820
209.53,3.783
210.03,3.741
210.46,3.713
211.30,3.672
212.15,3.648
212.99,3.631
213.84,3.617
214.68,3.614
215.52,3.617
216.37,3.628
217.21,3.645
218.05,3.662
218.90,3.682
219.74,3.703
220.58,3.723
221.43,3.751
222.27,3.782
223.10,3.807
223.96,3.834
224.76,3.863
225.62,3.894
226.50,3.926
227.33,3.946
228.18,3.963
229.02,3.980
229.87,3.994
230.71,3.997
231.55,4.011
232.40,4.011
233.24,4.014
234.08,4.014
234.93,4.011
235.77,4.001
236.61,3.994
237.46,3.977
238.30,3.960
239.15,3.939
239.99,3.912
240.83,3.881
241.68,3.843
242.52,3.799
243.36,3.758
244.21,3.706
245.05,3.655
245.89,3.604
246.74,3.542
247.58,3.491
248.43,3.433
249.27,3.374
250.11,3.320
250.96,3.258
251.80,3.200
252.64,3.145
253.49,3.094
254.33,3.056
255.17,3.022
256.02,2.998
256.86,2.981
257.71,2.967
258.55,2.960
259.39,2.950
260.24,2.950
261.08,2.950
261.92,2.950
262.77,2.953
263.61,2.964
264.45,2.967
265.30,2.981
266.14,2.988
266.99,2.998
267.83,3.012
268.67,3.018
269.52,3.032
270.36,3.046
271.20,3.056
272.05,3.066
272.89,3.080
273.73,3.094
274.58,3.107
275.42,3.121
276.27,3.131
277.11,3.145
277.95,3.162
278.80,3.176
279.64,3.179
280.48,3.179
281.33,3.179
282.17,3.176
283.01,3.169
283.86,3.166
284.70,3.159
285.55,3.145
286.39,3.131
287.23,3.114
288.08,3.090
288.92,3.049
289.76,2.984
290.61,2.916
291.45,2.851
292.29,2.779
293.14,2.693
293.98,2.604
294.83,2.522
295.67,2.437
296.51,2.355
297.36,2.269
298.20,2.201
298.92,2.143
299.82,2.065
300.57,1.988
301.56,1.897
302.33,1.821
302.98,1.759
##END=
