##TITLE=Ethanone, 1-(3-aminophenyl)-
##JCAMP-DX=4.24
##DATA TYPE=UV/VIS SPECTRUM
##ORIGIN=INSTITUTE OF ENERGY PROBLEMS OF CHEMICAL PHYSICS, RAS
##OWNER=INEP CP RAS, NIST OSRD
Collection (C) 2007 copyright by the U.S. Secretary of Commerce
on behalf of the United States of America. All rights reserved.
##CAS REGISTRY NO=99-03-6
##MOLFORM=C8H9NO
##MP=99.5
##SOURCE REFERENCE=RAS UV No. 19742
##$NIST SQUIB=1973LAN49
##$NIST SOURCE=TYUGLMTE
##SPECTROMETER/DATA SYSTEM=Unicam SP 800 B
##XUNITS=Wavelength (nm)
##YUNITS=Logarithm epsilon
##XFACTOR=1.0
##YFACTOR=1.0
##FIRSTX=203.57
##LASTX=413.61
##FIRSTY=3.815
##MAXX=413.61
##MINX=203.57
##MAXY=4.239
##MINY=1.211
##NPOINTS=216
##$REF AUTHOR=Lang (editor), L.
##$REF JOURNAL=Absorption Spectra in the Ultraviolet and Visible Region
##$REF VOLUME=18
##$REF PAGE=49
##$REF DATE=1973
##XYPOINTS=(XY..XY)
203.57,3.815
204.93,3.801
206.46,3.798
207.99,3.798
209.35,3.808
210.71,3.825
211.91,3.842
212.93,3.862
214.12,3.883
214.97,3.907
215.99,3.930
217.01,3.954
217.69,3.981
218.54,4.008
219.39,4.032
220.07,4.059
220.92,4.083
221.77,4.110
222.79,4.134
223.81,4.158
224.83,4.182
226.19,4.199
227.38,4.216
228.74,4.233
230.27,4.239
231.80,4.239
233.33,4.233
234.69,4.216
235.89,4.199
237.08,4.178
238.44,4.161
239.29,4.138
240.31,4.114
241.33,4.093
242.01,4.066
242.86,4.039
243.71,4.012
244.56,3.988
245.24,3.961
246.09,3.937
246.94,3.913
247.96,3.890
248.98,3.866
250.00,3.842
251.19,3.822
252.38,3.805
253.74,3.788
254.93,3.767
256.46,3.757
257.65,3.737
258.85,3.716
259.70,3.693
260.72,3.669
261.74,3.645
262.76,3.621
263.61,3.594
264.29,3.567
265.14,3.543
265.82,3.516
266.67,3.489
267.18,3.458
267.86,3.431
268.54,3.404
269.05,3.377
269.56,3.350
270.07,3.323
270.75,3.295
271.09,3.265
271.60,3.238
272.11,3.207
272.45,3.177
272.79,3.146
273.13,3.115
273.64,3.085
274.15,3.054
274.66,3.027
275.17,3.000
275.68,2.969
276.19,2.942
276.70,2.915
277.38,2.888
278.23,2.861
279.25,2.840
280.61,2.827
282.15,2.823
283.68,2.827
285.04,2.840
286.23,2.857
287.25,2.878
288.44,2.898
289.46,2.922
290.48,2.946
291.50,2.966
292.52,2.990
293.54,3.010
294.56,3.031
295.75,3.051
296.77,3.075
297.96,3.095
298.98,3.115
300.17,3.132
301.36,3.153
302.55,3.170
303.74,3.190
304.93,3.207
306.13,3.224
307.32,3.241
308.68,3.258
309.87,3.275
311.23,3.289
312.59,3.302
314.12,3.312
315.48,3.326
316.84,3.336
318.37,3.343
319.73,3.353
321.26,3.360
322.79,3.360
324.32,3.363
325.85,3.363
327.38,3.360
328.92,3.357
330.45,3.353
331.98,3.350
333.51,3.340
334.87,3.329
336.40,3.319
337.76,3.302
339.12,3.289
340.48,3.275
341.84,3.265
343.20,3.248
344.39,3.227
345.75,3.211
347.11,3.194
348.30,3.177
349.49,3.160
350.68,3.143
352.05,3.126
353.24,3.105
354.60,3.088
355.96,3.071
357.32,3.054
358.68,3.037
360.04,3.020
361.23,3.000
362.42,2.983
363.61,2.966
364.80,2.946
365.99,2.929
367.18,2.908
368.20,2.888
369.22,2.868
370.24,2.844
371.26,2.823
372.28,2.803
372.96,2.776
373.98,2.756
374.83,2.732
375.69,2.708
376.71,2.684
377.39,2.657
378.24,2.633
379.09,2.609
379.77,2.582
380.62,2.559
381.30,2.531
382.32,2.508
383.00,2.480
383.85,2.457
384.36,2.430
385.21,2.406
385.89,2.379
386.91,2.355
387.59,2.328
388.44,2.301
389.29,2.273
389.97,2.246
390.82,2.222
391.50,2.195
392.35,2.171
393.03,2.144
393.88,2.117
394.39,2.090
395.07,2.063
395.92,2.036
396.43,2.008
397.28,1.985
397.96,1.958
398.65,1.930
399.33,1.903
399.84,1.876
400.69,1.849
401.37,1.822
401.88,1.791
402.56,1.764
403.07,1.737
403.75,1.710
404.26,1.683
404.94,1.655
405.45,1.628
406.13,1.601
406.64,1.574
407.15,1.543
407.66,1.516
408.34,1.489
408.85,1.462
409.36,1.435
409.87,1.407
410.38,1.380
411.06,1.353
411.57,1.326
411.91,1.295
412.59,1.268
413.10,1.241
413.61,1.211
##END=
