##TITLE=1,3-Dinitrobenzene
##JCAMP-DX=4.24
##DATA TYPE=UV/VIS SPECTRUM
##ORIGIN=INSTITUTE OF ENERGY PROBLEMS OF CHEMICAL PHYSICS, RAS
##OWNER=INEP CP RAS, NIST OSRD
Collection (C) 2007 copyright by the U.S. Secretary of Commerce
on behalf of the United States of America. All rights reserved.
##CAS REGISTRY NO=99-65-0
##MOLFORM=C6H4N2O4
##MP=90
##BP=291; 167/ 14 mm
##SOURCE REFERENCE=RAS UV No. 11354
##$NIST SQUIB=1950FIE/LEF2812
##$NIST SOURCE=TYUGLMTE
##SPECTROMETER/DATA SYSTEM=Beckman DU
##XUNITS=Wavelength (nm)
##YUNITS=Logarithm epsilon
##XFACTOR=1.0
##YFACTOR=1.0
##FIRSTX=216.79
##LASTX=298.08
##FIRSTY=4.024
##MAXX=298.08
##MINX=216.79
##MAXY=4.221
##MINY=2.971
##NPOINTS=99
##$REF AUTHOR=Fielding, P.; Le Fevre, R.J.W.
##$REF JOURNAL=J. Chem. Soc.
##$REF PAGE=2812
##$REF DATE=1950
##XYPOINTS=(XY..XY)
216.79,4.024
217.69,4.039
218.46,4.058
219.35,4.071
220.25,4.087
221.14,4.100
221.91,4.118
222.81,4.134
223.70,4.150
224.60,4.163
225.50,4.176
226.39,4.189
227.42,4.200
228.44,4.211
229.59,4.216
230.75,4.221
231.90,4.221
233.05,4.221
234.20,4.221
235.35,4.218
236.51,4.213
237.66,4.211
238.81,4.205
239.96,4.200
241.11,4.195
242.14,4.187
243.29,4.179
244.31,4.168
245.34,4.155
246.36,4.147
247.39,4.137
248.54,4.129
249.56,4.116
250.59,4.103
251.74,4.089
252.76,4.076
253.66,4.063
254.56,4.050
255.45,4.037
256.48,4.024
257.50,4.011
258.52,3.997
259.55,3.984
260.44,3.971
261.34,3.958
261.98,3.939
262.75,3.924
263.52,3.905
264.16,3.887
264.80,3.868
265.44,3.850
266.08,3.829
266.59,3.808
267.23,3.789
267.74,3.768
268.38,3.747
269.02,3.726
269.53,3.705
270.17,3.684
270.69,3.663
271.20,3.642
271.84,3.624
272.35,3.603
272.86,3.582
273.25,3.561
273.76,3.539
274.14,3.518
274.53,3.497
275.04,3.476
275.55,3.455
276.06,3.434
276.45,3.413
276.96,3.392
277.60,3.371
277.98,3.350
278.62,3.329
279.26,3.308
280.03,3.289
280.67,3.271
281.44,3.253
282.08,3.234
282.85,3.216
283.49,3.197
284.25,3.179
284.89,3.161
285.79,3.145
286.56,3.129
287.45,3.113
288.48,3.100
289.38,3.087
290.40,3.074
291.42,3.061
292.32,3.047
293.34,3.037
294.24,3.024
295.26,3.011
296.03,2.995
297.06,2.982
298.08,2.971
##END=
