##TITLE=Benzoic acid, 4-hydroxy-
##JCAMP-DX=4.24
##DATA TYPE=UV/VIS SPECTRUM
##ORIGIN=INSTITUTE OF ENERGY PROBLEMS OF CHEMICAL PHYSICS, RAS
##OWNER=INEP CP RAS, NIST OSRD
Collection (C) 2007 copyright by the U.S. Secretary of Commerce
on behalf of the United States of America. All rights reserved.
##CAS REGISTRY NO=99-96-7
##MOLFORM=C7H6O3
##MP=214.5
##SOURCE REFERENCE=RAS UV No. 3324
##$NIST SQUIB=1953GRA821-826
##$NIST SOURCE=TSGMTE
##SPECTROMETER/DATA SYSTEM=n.i.g.
##XUNITS=Wavelength (nm)
##YUNITS=Logarithm epsilon
##XFACTOR=1.000000
##YFACTOR=1.000000
##FIRSTX=99.3526
##LASTX=74.7145
##FIRSTY=0.767349
##MAXX=99.3526
##MINX=74.7145
##MAXY=4.224
##MINY=0.767349
##NPOINTS=443
##$REF AUTHOR=Grammaticakis, P.
##$REF TITLE=Contribution a l'etude de l'absorption dans l'U.-V. moyen et le visible de quelques aldehydes et cetones aromatiques ainsi que de certains de leurs derives fonctionnels, (Premier memoire)
##$REF JOURNAL=Bull. Soc. Chim. Fr.
##$REF VOLUME=20
##$REF PAGE=821-826
##$REF DATE=1953
##XYPOINTS=(XY..XY)
99.3526,0.767349
99.2509,0.773077
99.2509,0.799168
99.1367,0.804896
99.1367,0.867892
99.0355,0.872983
99.0355,0.899711
98.9345,0.904802
98.9345,0.957617
98.8336,0.963349
98.8336,1.000256
98.7205,1.000256
98.7205,1.032071
98.6201,1.037163
98.6201,1.100798
98.5199,1.105888
98.5199,1.142796
98.4074,1.147886
98.4074,1.200706
98.3076,1.206432
98.3076,1.254159
98.2081,1.259250
98.2081,1.296156
98.0963,1.301247
98.0963,1.343883
97.9972,1.348974
97.9972,1.401792
97.8983,1.406882
97.8983,1.449517
97.7995,1.454609
97.7995,1.486425
97.6887,1.491516
97.6887,1.502334
97.5904,1.502334
97.5904,1.586969
97.4923,1.592059
97.4923,1.639785
97.3821,1.644877
97.3821,1.681785
97.2845,1.687512
97.2845,1.724420
97.1870,1.729511
97.1870,1.740329
97.0775,1.745420
97.0775,1.819236
96.9804,1.824963
96.9804,1.872053
96.8835,1.877780
96.8835,1.924870
96.7748,1.930597
96.7748,1.956687
96.6783,1.961778
96.6783,2.015232
96.5820,2.020323
96.5820,2.062322
96.4859,2.068049
96.4859,2.136774
96.3780,2.141865
96.3780,2.167956
96.2823,2.173683
96.2823,2.242408
96.1868,2.247499
96.1868,2.295225
96.0796,2.300316
96.0796,2.374133
96.0796,2.511584
95.9845,2.379860
95.9845,2.411041
95.8896,2.416768
95.8896,2.479767
95.7831,2.485494
95.7831,2.511584
95.6886,2.517311
95.6886,2.564401
95.5942,2.570128
95.5942,2.622945
95.4884,2.628036
95.4884,2.675762
95.3944,2.675762
95.3944,2.738761
95.3944,2.754670
95.3007,2.744488
95.3007,2.749579
95.3007,2.760397
95.3007,2.845031
95.2071,2.850122
95.2071,2.892121
95.1021,2.892121
95.1021,2.913757
95.0089,2.918848
95.0089,3.051209
94.9159,3.056299
94.9159,3.088117
94.8115,3.093208
94.8115,3.135207
94.7189,3.140934
94.7189,3.156843
94.6265,3.161933
94.6265,3.203932
94.5227,3.209660
94.5227,3.214750
94.4307,3.219841
94.4307,3.246568
94.3388,3.251659
94.3388,3.283476
94.2471,3.288567
94.2471,3.304476
94.1442,3.310203
94.1442,3.331202
94.0529,3.336293
94.0529,3.357293
93.9618,3.363020
93.9618,3.384019
93.8595,3.389110
93.8595,3.399928
93.7687,3.405019
93.7687,3.420928
93.6781,3.426018
93.6781,3.447018
93.5764,3.452745
93.5764,3.494744
93.4862,3.500471
93.4862,3.542470
93.3962,3.547561
93.3962,3.595287
93.2951,3.600378
93.2951,3.627105
93.2054,3.632196
93.2054,3.648104
93.1159,3.653195
93.1159,3.674831
93.0266,3.679922
93.0266,3.695830
92.9263,3.700921
92.9263,3.721921
92.8374,3.727648
92.8374,3.743557
92.7486,3.743557
92.7486,3.764556
92.6489,3.764556
92.6489,3.774738
92.5605,3.780465
92.5605,3.790647
92.4722,3.790647
92.4722,3.801464
92.3731,3.806555
92.3731,3.812282
92.2852,3.817373
92.2852,3.822464
92.1975,3.827555
92.1975,3.838373
92.0990,3.838373
92.0990,3.849191
92.0116,3.849191
92.0116,3.854281
91.9244,3.859372
91.9244,3.865099
91.8373,3.870190
91.8373,3.875281
91.6529,3.886099
91.6529,3.891190
91.5663,3.896281
91.5663,3.902008
91.4692,3.907098
91.4692,3.912189
91.3830,3.917916
91.3830,3.923007
91.2969,3.923007
91.2969,3.928098
91.2003,3.928098
91.2003,3.933825
91.1147,3.933825
91.1147,3.944007
91.0291,3.949734
91.0291,3.954825
90.9331,3.959915
90.8479,3.959915
90.8479,3.965006
90.7629,3.965006
90.7629,3.970733
90.6780,3.970733
90.6780,3.975824
90.4982,3.986642
90.4982,3.991733
90.4138,3.991733
90.4138,3.996824
90.3191,3.996824
90.2351,4.002551
90.2351,4.012732
90.1512,4.012732
90.1512,4.017823
90.0570,4.017823
89.7133,4.039459
89.7133,4.044550
89.6304,4.044550
89.5476,4.049641
89.5476,4.055368
89.4547,4.055368
89.2900,4.065549
89.2900,4.071277
89.1976,4.071277
89.1156,4.076367
89.0338,4.076367
89.0338,4.081458
88.9419,4.081458
88.9419,4.086549
88.8604,4.086549
88.8604,4.092276
88.7791,4.092276
88.7791,4.097367
88.6979,4.097367
88.6067,4.102458
88.5258,4.102458
88.5258,4.108185
88.3544,4.118366
88.2740,4.118366
88.1937,4.124094
88.1036,4.124094
88.0236,4.129184
88.0236,4.134275
87.8542,4.134275
87.6953,4.145093
87.6160,4.145093
87.6160,4.150184
87.4482,4.150184
87.4482,4.155275
87.3694,4.161002
87.3694,4.166093
87.2024,4.166093
87.1241,4.171183
87.0361,4.171183
86.9581,4.176911
86.8024,4.176911
86.8024,4.182001
86.6376,4.182001
86.5603,4.187092
86.4734,4.187092
86.3964,4.192819
86.3195,4.192819
86.2331,4.197910
85.9942,4.197910
85.9180,4.203001
85.8419,4.203001
85.8419,4.208728
85.6808,4.208728
85.6051,4.213819
85.3696,4.213819
85.2102,4.224000
84.5233,4.224000
84.4405,4.218910
84.3670,4.218910
84.2937,4.213819
84.1383,4.213819
84.1383,4.208728
83.8382,4.208728
83.8382,4.203001
83.7658,4.197910
83.6123,4.197910
83.5403,4.192819
83.4594,4.192819
83.3876,4.187092
83.3876,4.182001
83.3160,4.182001
83.1642,4.171183
83.0218,4.171183
83.0218,4.166093
82.9419,4.161002
82.8710,4.161002
82.8710,4.155275
82.8003,4.150184
82.7208,4.150184
82.5799,4.140002
82.5799,4.134275
82.5009,4.134275
81.9951,4.097367
81.9259,4.097367
81.9259,4.092276
81.4956,4.060459
81.4956,4.055368
81.4271,4.055368
81.4271,4.049641
81.3503,4.049641
81.3503,4.044550
81.2821,4.044550
81.2821,4.039459
81.2140,4.033732
81.1461,4.033732
81.1461,4.028641
81.0021,4.017823
80.9345,4.017823
80.9345,4.012732
80.8585,4.007642
80.8585,4.002551
80.7912,4.002551
80.7912,3.996824
80.7239,3.996824
80.7239,3.991733
80.6484,3.986642
80.6484,3.980915
80.5814,3.980915
80.3061,3.959915
80.3061,3.954825
80.2397,3.954825
80.2397,3.949734
80.1651,3.949734
80.1651,3.944007
80.0988,3.938916
80.0988,3.928098
80.0327,3.928098
79.9585,3.923007
79.8926,3.923007
79.8926,3.917916
79.8269,3.912189
79.8269,3.907098
79.7530,3.907098
79.7530,3.902008
79.5567,3.886099
79.5567,3.875281
79.4834,3.875281
79.3533,3.865099
79.2803,3.865099
79.2803,3.849191
79.2155,3.849191
79.2155,3.843464
79.1509,3.843464
79.1509,3.838373
79.0783,3.833282
79.0783,3.827555
79.0139,3.827555
79.0139,3.822464
78.8773,3.812282
78.8773,3.806555
78.8132,3.806555
78.8132,3.801464
78.7492,3.796374
78.7492,3.790647
78.6853,3.790647
78.6853,3.785556
78.6135,3.780465
78.6135,3.774738
78.5498,3.769647
78.5498,3.764556
78.4863,3.764556
78.4149,3.759465
78.4149,3.748647
78.3515,3.748647
78.3515,3.743557
78.2883,3.743557
78.1542,3.732739
78.1542,3.721921
78.0206,3.711739
78.0206,3.706012
77.8952,3.695830
77.8952,3.690740
77.8327,3.690740
77.8327,3.685013
77.7625,3.679922
77.7625,3.674831
77.7002,3.674831
77.7002,3.669104
77.6380,3.664013
77.6380,3.658922
77.5681,3.653195
77.5681,3.648104
77.5061,3.648104
77.5061,3.643013
77.4442,3.643013
77.4442,3.632196
77.3130,3.622014
77.3130,3.616287
77.2515,3.616287
77.2515,3.611196
77.1900,3.606105
77.1900,3.595287
77.1209,3.595287
77.1209,3.590196
77.0596,3.590196
76.9984,3.584469
76.9984,3.568561
76.9297,3.563470
76.9297,3.558379
76.8687,3.558379
76.8079,3.553288
76.8079,3.547561
76.7395,3.542470
76.7395,3.537379
76.6788,3.531652
76.6788,3.526562
76.6182,3.521471
76.6182,3.515744
76.5502,3.515744
76.4898,3.510653
76.4898,3.505562
76.3017,3.489653
76.3017,3.473745
76.2417,3.473745
76.2417,3.462927
76.1819,3.462927
76.1819,3.457836
76.1146,3.452745
76.1146,3.447018
76.0549,3.441927
76.0549,3.436836
75.9953,3.436836
75.9953,3.431746
75.9284,3.426018
75.9284,3.415837
75.8690,3.415837
75.8690,3.410110
75.8096,3.405019
75.8096,3.399928
75.7430,3.394201
75.7430,3.389110
75.6839,3.389110
75.6839,3.384019
75.6249,3.378292
75.6249,3.373201
75.5660,3.368111
75.5660,3.357293
75.4998,3.357293
75.4998,3.352202
75.4410,3.347111
75.4410,3.341384
75.3824,3.336293
75.3824,3.331202
75.2581,3.320384
75.2581,3.310203
75.1997,3.310203
75.1997,3.304476
75.1342,3.299385
75.1342,3.288567
75.0760,3.288567
75.0760,3.283476
75.0179,3.278385
75.0179,3.272658
74.9527,3.267567
74.9527,3.256749
74.8948,3.251659
74.8370,3.251659
74.8370,3.246568
74.7793,3.241477
74.7793,3.219841
74.7145,3.214750
##END=
