##TITLE=Acetophenone, 4'-hydroxy-
##JCAMP-DX=4.24
##DATA TYPE=UV/VIS SPECTRUM
##ORIGIN=INSTITUTE OF ENERGY PROBLEMS OF CHEMICAL PHYSICS, RAS
##OWNER=INEP CP RAS, NIST OSRD
Collection (C) 2007 copyright by the U.S. Secretary of Commerce
on behalf of the United States of America. All rights reserved.
##CAS REGISTRY NO=99-93-4
##MOLFORM=C8H8O2
##MP=109.5
##BP=147-8(3)
##SOURCE REFERENCE=RAS UV No. 6660
##$NIST SQUIB=1969SHI/MOR1831-1836
##$NIST SOURCE=TSGMTE
##SPECTROMETER/DATA SYSTEM=Hitachi MPF-2
##XUNITS=Wavelength (nm)
##YUNITS=Logarithm epsilon
##XFACTOR=1.000000
##YFACTOR=1.000000
##FIRSTX=225.0701
##LASTX=296.4156
##FIRSTY=3.59682
##MAXX=296.416
##MINX=225.07
##MAXY=4.08706
##MINY=2.61924
##NPOINTS=200
##$REF AUTHOR=Shizuka, H.; Morita, T.; Mori, Y.; Tanaka, I.
##$REF TITLE=The photochemical rearrangement of phenyl acetate
##$REF JOURNAL=Bull. Chem. Soc. Jpn.
##$REF VOLUME=42
##$REF PAGE=1831-1836
##$REF DATE=1969
##XYPOINTS=(XY..XY)
225.0701,3.596822
225.2998,3.582716
225.5373,3.566286
225.7996,3.547907
226.1036,3.528010
226.4662,3.507108
226.9041,3.485825
227.4344,3.464918
228.0739,3.445297
228.8394,3.428022
228.8394,3.428022
229.4693,3.428072
230.1112,3.428123
230.7591,3.428174
230.7591,3.428174
231.7787,3.441419
232.7360,3.457577
233.6318,3.475667
234.4667,3.494807
235.2415,3.514233
235.9569,3.533300
236.6136,3.551468
237.2123,3.568285
237.7537,3.583364
238.2387,3.596365
238.2387,3.596365
238.6359,3.610713
239.0221,3.624621
239.3978,3.638114
239.7631,3.651218
240.1186,3.663954
240.4645,3.676341
240.8011,3.688400
241.1288,3.700146
241.4480,3.711596
241.7590,3.722764
242.0621,3.733663
242.3577,3.744306
242.6461,3.754706
242.9277,3.764871
243.2028,3.774814
243.4717,3.784543
243.7349,3.794067
243.9926,3.803395
244.2452,3.812534
244.4930,3.821492
244.7364,3.830275
244.9757,3.838891
245.2113,3.847345
245.4435,3.855643
245.6726,3.863791
245.8991,3.871794
246.1232,3.879656
246.3452,3.887383
246.5656,3.894979
246.7847,3.902448
247.0028,3.909794
247.2202,3.917021
247.4373,3.924133
247.6545,3.931133
247.8721,3.938024
248.0904,3.944810
248.3098,3.951493
248.5306,3.958076
248.7532,3.964563
248.9779,3.970956
249.2050,3.977257
249.2050,3.977257
249.3139,3.978548
249.4195,3.979916
249.5398,3.981686
249.6926,3.984178
249.8960,3.987700
250.1677,3.992545
250.5258,3.998983
250.9881,4.007250
251.5726,4.017542
252.2972,4.030006
253.1797,4.044736
253.1797,4.044736
253.7763,4.051342
254.3491,4.057336
254.9319,4.062844
255.5586,4.067985
256.2629,4.072871
257.0785,4.077608
258.0393,4.082299
259.1789,4.087041
259.1789,4.087041
259.5574,4.087048
259.9360,4.087054
260.3145,4.087061
260.3145,4.087061
260.6738,4.085095
261.0283,4.082315
261.6817,4.076288
261.6817,4.076288
261.9681,4.071049
262.2456,4.065740
262.5157,4.060359
262.7795,4.054905
263.0385,4.049376
263.2940,4.043769
263.5472,4.038083
263.7995,4.032316
264.0523,4.026465
264.3067,4.020529
264.5643,4.014504
264.8261,4.008389
265.0937,4.002181
265.3683,3.995877
265.6512,3.989475
265.9437,3.982971
266.2472,3.976363
266.5630,3.969647
266.8924,3.962820
267.2366,3.955878
267.2366,3.955878
268.1995,3.948765
269.2159,3.942063
270.1783,3.935164
270.1783,3.935164
270.4814,3.929607
270.7844,3.923917
270.9666,3.910521
270.9850,3.914352
271.0875,3.918120
271.0875,3.918120
271.3145,3.906984
271.3145,3.906984
271.4475,3.899052
271.5796,3.890973
271.7108,3.882742
271.8407,3.874352
271.9690,3.865795
272.0953,3.857065
272.2194,3.848153
272.3410,3.839050
272.4597,3.829748
272.5753,3.820237
272.6875,3.810505
272.7959,3.800543
272.9002,3.790338
273.0002,3.779877
273.0956,3.769145
273.1860,3.758129
273.2711,3.746812
273.3506,3.735176
273.4243,3.723202
273.4918,3.710870
273.4918,3.710870
273.8159,3.697969
274.1399,3.684672
274.4639,3.670952
274.7879,3.656780
275.1120,3.642123
275.4360,3.626946
275.7600,3.611209
276.0841,3.594869
276.4081,3.577875
276.7322,3.560171
276.7322,3.560171
276.8532,3.550534
277.0033,3.537206
277.1860,3.520492
277.4048,3.500678
277.6632,3.478067
277.9646,3.453006
278.3125,3.425928
278.7104,3.397393
279.1617,3.368138
279.6699,3.339133
280.2386,3.311623
280.8711,3.287149
281.5710,3.267513
281.8781,3.272816
282.0213,3.272832
282.1765,3.272850
282.3378,3.272868
282.3378,3.272868
282.3385,3.269598
282.3393,3.266025
282.3401,3.262282
282.3417,3.254650
282.3417,3.254650
283.1801,3.221793
283.9690,3.187423
284.7356,3.151221
285.5066,3.112781
286.3091,3.071577
287.1701,3.026921
288.1164,2.977879
289.1750,2.923158
290.3730,2.860891
290.3730,2.860891
291.2137,2.842945
292.2963,2.804258
294.5487,2.696316
294.5487,2.696316
296.4156,2.619242
##END=
