##TITLE=Acetophenone, 4'-amino-
##JCAMP-DX=4.24
##DATA TYPE=UV/VIS SPECTRUM
##ORIGIN=INSTITUTE OF ENERGY PROBLEMS OF CHEMICAL PHYSICS, RAS
##OWNER=INEP CP RAS, NIST OSRD
Collection (C) 2007 copyright by the U.S. Secretary of Commerce
on behalf of the United States of America. All rights reserved.
##CAS REGISTRY NO=99-92-3
##MOLFORM=C8H9NO
##MP=106
##BP=294; 195(15)
##SOURCE REFERENCE=RAS UV No. 966
##$NIST SQUIB=1953GRA93-99
##$NIST SOURCE=TSGMTE
##SPECTROMETER/DATA SYSTEM=n.i.g.
##XUNITS=Wavelength (nm)
##YUNITS=Logarithm epsilon
##XFACTOR=1.000000
##YFACTOR=1.000000
##FIRSTX=371.6722
##LASTX=239.0730
##FIRSTY=1.05162
##MAXX=371.672
##MINX=239.073
##MAXY=4.3217
##MINY=1.05162
##NPOINTS=189
##$REF AUTHOR=Grammaticakis, P.
##$REF TITLE=Contribution a l'etude de l'absorption dans l'ultra-violet moyen et le visible des arylamines isomeres et leurs derives N substitues (3^e memoire)
##$REF JOURNAL=Bull. Soc. Chim. Fr.
##$REF VOLUME=20
##$REF PAGE=93-99
##$REF DATE=1953
##XYPOINTS=(XY..XY)
371.6722,1.051616
371.4469,1.100980
371.2355,1.144456
371.0343,1.183028
370.8397,1.217671
370.6478,1.249374
370.4550,1.279115
370.2577,1.307877
370.0521,1.336640
369.8347,1.366389
369.6019,1.398105
369.3500,1.432769
369.0755,1.471362
368.7748,1.514869
368.4444,1.564269
368.0809,1.620546
368.0809,1.620546
367.1226,1.725163
366.2596,1.819827
365.4855,1.905041
364.7945,1.981306
364.1809,2.049122
363.6392,2.108993
363.1638,2.161418
362.7496,2.206900
362.3915,2.245939
362.0842,2.279037
361.8229,2.306696
361.6026,2.329415
361.4184,2.347698
361.2656,2.362046
361.1393,2.372960
361.0347,2.380940
360.9471,2.386489
360.8718,2.390108
360.8041,2.392298
360.7391,2.393561
360.6723,2.394398
360.6723,2.394398
360.2794,2.431958
359.8617,2.469548
359.4237,2.507159
358.9695,2.544783
358.5036,2.582410
358.0302,2.620032
357.5535,2.657639
357.0777,2.695224
356.6068,2.732776
356.1450,2.770288
355.6963,2.807750
355.2648,2.845155
354.8543,2.882492
354.4689,2.919753
354.1124,2.956930
353.7886,2.994012
353.5016,3.030993
353.5016,3.030993
352.7528,3.062908
351.8078,3.123830
351.2135,3.178129
351.2135,3.178129
350.9358,3.190675
350.4197,3.221882
349.7266,3.267085
348.9179,3.321618
348.0540,3.380816
347.1944,3.440014
346.3973,3.494547
345.7200,3.539750
345.2191,3.570957
344.9508,3.583503
344.9508,3.583503
344.3761,3.628202
343.3083,3.688327
342.2078,3.742060
341.5248,3.767587
341.5248,3.767587
340.6921,3.808867
339.8624,3.850077
339.0347,3.891230
338.2078,3.932340
337.3807,3.973422
336.5524,4.014489
336.5524,4.014489
334.4244,4.062248
332.8317,4.100211
331.3253,4.135230
329.4740,4.174155
329.4740,4.174155
326.9869,4.209649
324.5977,4.239943
322.1844,4.265567
319.6321,4.287057
316.8338,4.304946
313.6910,4.319766
313.6910,4.319766
312.3977,4.320564
311.1005,4.321247
309.8071,4.321703
309.8071,4.321703
307.2789,4.299252
304.5982,4.272957
302.1105,4.241540
300.1397,4.203721
300.1397,4.203721
298.3000,4.197606
296.7569,4.181563
295.4299,4.158033
294.2425,4.129454
293.1208,4.098267
291.9937,4.066910
290.7918,4.037822
289.4486,4.013442
287.8999,3.996211
287.8999,3.996211
287.8675,3.989446
287.8229,3.982453
287.7722,3.975346
287.7722,3.975346
286.4707,3.945872
285.2139,3.915695
283.9984,3.884881
282.8210,3.853497
281.6786,3.821608
280.5683,3.789280
279.4870,3.756580
278.4321,3.723573
277.4007,3.690328
276.3902,3.656908
275.3982,3.623381
274.4220,3.589812
273.4593,3.556269
273.4593,3.556269
273.0727,3.545628
272.3849,3.518660
270.9169,3.465775
270.9169,3.465775
270.1185,3.431912
269.3185,3.397971
268.5191,3.363931
267.7227,3.329769
266.9315,3.295465
266.1476,3.260996
265.3732,3.226341
264.6103,3.191478
263.8609,3.156384
263.1270,3.121040
262.4106,3.085422
261.7136,3.049509
261.0377,3.013279
261.0377,3.013279
259.9832,2.976952
258.9371,2.940625
257.8994,2.904298
257.8994,2.904298
256.4285,2.888123
255.0943,2.881705
253.8875,2.883863
252.7993,2.893418
251.8214,2.909188
250.9464,2.929994
250.1668,2.954655
249.4758,2.981992
248.8668,3.010823
248.3335,3.039969
247.8699,3.068248
247.4701,3.094481
247.4701,3.094481
247.1907,3.135728
246.8983,3.176292
246.5903,3.216254
246.2640,3.255699
245.9167,3.294707
245.5458,3.333362
245.1489,3.371745
244.7233,3.409939
244.2667,3.448025
243.7767,3.486087
243.2510,3.524206
242.6873,3.562465
242.6873,3.562465
241.9167,3.603949
241.0875,3.648467
240.1563,3.689906
239.0809,3.722156
239.0809,3.722156
239.0782,3.729253
239.0755,3.736237
239.0730,3.742995
##END=
