##TITLE=Benzenamine, N,N,4-trimethyl-
##JCAMP-DX=4.24
##DATA TYPE=UV/VIS SPECTRUM
##ORIGIN=INSTITUTE OF ENERGY PROBLEMS OF CHEMICAL PHYSICS, RAS
##OWNER=INEP CP RAS, NIST OSRD
Collection (C) 2007 copyright by the U.S. Secretary of Commerce
on behalf of the United States of America. All rights reserved.
##CAS REGISTRY NO=99-97-8
##MOLFORM=C9H13N
##BP=211
##SOURCE REFERENCE=RAS UV No. 20179
##$NIST SQUIB=1969BOL/167
##$NIST SOURCE=TYUGLMTE
##SPECTROMETER/DATA SYSTEM=SF-4
##XUNITS=Wavelength (nm)
##YUNITS=Logarithm epsilon
##XFACTOR=1.0
##YFACTOR=1.0
##FIRSTX=226.51
##LASTX=324.3
##FIRSTY=3.598
##MAXX=324.3
##MINX=226.51
##MAXY=4.493
##MINY=1.895
##NPOINTS=161
##$REF AUTHOR=Bol'shakov, G.F.; et al.
##$REF JOURNAL=Ultraviolet spectra of heteroorganic compounds
##$REF PAGE=167
##$REF DATE=1969
##XYPOINTS=(XY..XY)
226.51,3.598
226.68,3.602
226.84,3.607
227.01,3.611
227.18,3.615
227.34,3.619
227.51,3.623
227.68,3.627
227.84,3.632
228.01,3.636
228.18,3.640
228.34,3.644
228.49,3.648
229.18,3.669
229.80,3.684
230.52,3.702
231.18,3.719
231.85,3.740
232.52,3.759
233.18,3.777
233.85,3.798
234.52,3.819
235.19,3.848
235.85,3.869
236.52,3.898
237.19,3.919
237.88,3.946
238.52,3.973
239.19,3.998
239.86,4.019
240.53,4.048
241.15,4.073
241.86,4.098
242.49,4.125
243.20,4.156
243.86,4.181
244.48,4.214
245.20,4.244
245.87,4.277
246.53,4.302
247.20,4.333
247.87,4.360
248.54,4.381
249.20,4.402
249.87,4.423
250.54,4.439
251.21,4.460
251.87,4.473
252.54,4.481
253.21,4.489
253.88,4.493
254.54,4.489
255.21,4.485
255.88,4.481
256.55,4.468
257.21,4.456
257.88,4.439
258.55,4.410
259.22,4.381
259.89,4.350
260.55,4.319
261.22,4.281
261.89,4.244
262.56,4.214
263.22,4.173
263.89,4.131
264.56,4.085
265.23,4.048
265.89,4.006
266.57,3.955
267.23,3.906
267.90,3.848
268.56,3.806
269.23,3.748
269.90,3.690
270.57,3.636
271.23,3.573
271.90,3.511
272.55,3.460
273.24,3.415
273.90,3.373
274.57,3.336
275.24,3.294
275.91,3.257
276.57,3.232
277.24,3.207
277.91,3.182
278.58,3.169
279.24,3.161
279.91,3.161
280.58,3.161
281.25,3.161
281.93,3.162
282.57,3.166
283.25,3.169
283.98,3.173
284.56,3.178
285.26,3.184
285.91,3.191
286.59,3.199
287.28,3.206
287.99,3.213
288.59,3.219
289.21,3.225
289.92,3.232
290.43,3.238
291.17,3.245
291.93,3.251
292.59,3.257
293.26,3.261
293.83,3.266
294.56,3.272
295.26,3.278
295.93,3.282
296.61,3.286
297.23,3.290
297.96,3.294
298.57,3.298
299.28,3.301
299.98,3.305
300.62,3.309
301.27,3.311
301.94,3.311
302.61,3.311
303.25,3.309
303.94,3.303
304.62,3.292
305.28,3.282
305.94,3.265
306.61,3.249
307.28,3.236
307.95,3.219
308.63,3.197
309.28,3.178
309.95,3.161
310.62,3.144
311.28,3.120
311.93,3.096
312.62,3.070
313.29,3.045
313.95,3.011
314.62,2.974
315.29,2.936
315.93,2.907
316.63,2.870
317.29,2.824
317.96,2.770
318.63,2.724
319.28,2.681
319.98,2.637
320.63,2.582
321.30,2.512
321.96,2.434
322.63,2.337
323.07,2.272
323.32,2.225
323.53,2.171
323.69,2.114
323.82,2.060
324.02,1.982
324.30,1.895
##END=
